<?xml version="1.0"?>
<xrdMeasurements xmlns="http://www.xrdml.com/XRDMeasurement/2.3" xmlns:xsi="http://www.w3.org/2001/XMLSchema-instance" xsi:schemaLocation="http://www.xrdml.com/XRDMeasurement/2.3 http://www.xrdml.com/XRDMeasurement/2.3/XRDMeasurement.xsd" status="Completed" recordIdentifier="{75AD267B-A84C-4718-8915-B77CA44C6E72}">
	<comment>
		<entry/>
	</comment>
	<sample type="To be analyzed">
		<id>GPSS_Li1p5Fe0p4Cu0p2Y0p3Mn0p1Mg0p2Cl4_122325_694ae824ae15af25ac372788</id>
		<name></name>
		<preparedBy></preparedBy>
	</sample>
	<xrdMeasurement measurementType="Scan" status="Completed" sampleMode="Reflection">
		<usedWavelength intended="K-Alpha 1">
			<kAlpha1 unit="Angstrom">1.5405980</kAlpha1>
			<kAlpha2 unit="Angstrom">1.5444260</kAlpha2>
			<kBeta unit="Angstrom">1.3922500</kBeta>
			<ratioKAlpha2KAlpha1>0.5000</ratioKAlpha2KAlpha1>
		</usedWavelength>
		<incidentBeamPath>
			<radius unit="mm">145.00</radius>
			<xRayTube id="1010048" name="Empyrean Cu LFF HR (9430 033 7310x)">
				<tension unit="kV">40.0</tension>
				<current unit="mA">15.0</current>
				<anodeMaterial>Cu</anodeMaterial>
				<focus type="Line">
					<length unit="mm">12.0</length>
					<width unit="mm">0.4</width>
					<takeOffAngle unit="deg">6.0</takeOffAngle>
				</focus>
			</xRayTube>
			<sollerSlit id="21010002" name="Soller slits 0.04 rad.">
				<opening unit="rad">0.0400</opening>
			</sollerSlit>
			<mask id="22031000" name="Fixed mask 13 mm">
				<width unit="mm">9.00</width>
			</mask>
			<divergenceSlit id="22120001" name="Divergence slit 1°" xsi:type="fixedDivergenceSlitType">
				<distanceToSample unit="mm">50.00</distanceToSample>
				<height unit="mm">1.52</height>
			</divergenceSlit>
		</incidentBeamPath>
		<sampleMovement xsi:type="spinningSampleMovementType">
			<spinnerRevolutionTime unit="seconds">1.0</spinnerRevolutionTime>
		</sampleMovement>
		<diffractedBeamPath>
			<radius unit="mm">145.00</radius>
			<antiScatterSlit id="22090040" name="AS slit 9 mm (PIXcel)" xsi:type="fixedAntiScatterSlitType">
				<height unit="mm">9.00</height>
			</antiScatterSlit>
			<sollerSlit id="21020003" name="Large Soller slits 0.04 rad.">
				<opening unit="rad">0.0400</opening>
			</sollerSlit>
			<filter id="20030001" name="Large beta-filter Nickel">
				<material>Ni</material>
				<thickness unit="mm">0.020</thickness>
			</filter>
			<detector id="7010019" name="PIXcel1D-Medipix3 detector" xsi:type="rtmsDetectorType">
				<phd unit="keV">
					<lowerLevel>4.02</lowerLevel>
					<upperLevel>11.27</upperLevel>
				</phd>
				<mode>Scanning</mode>
				<activeLength unit="deg">5.542</activeLength>
			</detector>
		</diffractedBeamPath>
		<scan appendNumber="0" mode="Continuous" scanAxis="Gonio" status="Completed">
			<header>
				<startTimeStamp>2025-12-24T14:39:56-08:00</startTimeStamp>
				<endTimeStamp>2025-12-24T14:48:03-08:00</endTimeStamp>
				<author>
					<name>AutomatedUser</name>
				</author>
				<source>
					<applicationSoftware version="1.7b (136)">PANalytical Aeris Instrument Suite</applicationSoftware>
					<instrumentControlSoftware version="3.2.00000000 20240306">AERIS</instrumentControlSoftware>
					<instrumentID>950485</instrumentID>
				</source>
			</header>
			<dataPoints>
				<positions axis="2Theta" unit="deg">
					<startPosition>10.00943322</startPosition>
					<endPosition>99.99442286</endPosition>
				</positions>
				<positions axis="Omega" unit="deg">
					<startPosition>5.00471661</startPosition>
					<endPosition>49.99721143</endPosition>
				</positions>
				<commonCountingTime unit="seconds">12.495</commonCountingTime>
				<counts unit="counts">2985 3135 2994 2969 3017 3071 3013 2962 3033 2902 2917 2953 2933 3001 3005 2958 2893 3053 3036 3059 3090 2997 3050 2923 3140 3001 2936 3052 2982 2975 2937 3064 2932 3015 2981 3072 3030 3042 2891 2870 2934 2953 2942 3036 3037 2999 2960 2967 2941 3022 2999 3043 2983 3018 3032 3035 3033 3001 2993 3007 3142 3066 2976 3031 2989 2944 3032 3094 3016 2975 3005 2924 3119 2947 3031 3070 2888 3073 3044 3036 3017 2948 3137 3016 2999 3019 2984 3012 3105 3031 3094 2974 3013 3057 3045 3076 3088 3092 2946 3098 3223 3206 3014 3020 3054 3055 3024 3068 3084 3100 3022 3091 3012 3019 3072 3171 3120 3038 3037 3183 3074 3053 3112 3062 3051 3047 3023 3090 3013 3158 3050 3124 3127 3074 3085 3044 3029 3182 3009 3171 3074 3151 3042 3106 3079 3089 3062 3100 3170 3059 3064 3103 3061 3103 3057 3044 3275 3147 3166 3106 3157 3153 3060 3120 3123 3039 3141 3099 3054 3166 3033 3156 3020 3068 3117 3088 3124 3215 3129 3073 3016 3135 3192 3040 3068 2990 3000 3014 2994 3046 3062 3063 3080 2948 3077 3102 3159 2953 3044 3063 3033 2971 3013 3097 3114 3013 3085 3039 3103 3080 2936 2979 3096 3067 3120 2920 3059 3030 2958 3017 2922 2926 2937 3069 2929 3020 2962 3016 3035 3012 3057 2985 2954 2926 2999 2890 2941 3051 2990 3073 3072 2996 2958 3100 2876 2986 2992 3017 2890 2975 3082 3082 2969 3054 3038 2974 2917 2963 2982 2972 2964 2874 2955 2877 2941 2989 2984 2910 2935 2921 2851 2954 2973 3009 2843 3020 2900 3032 2922 2919 2960 2934 2854 3005 3021 2846 2996 2889 2924 3027 2979 2855 2962 2978 2943 2959 2817 2904 2924 2981 2983 2879 2923 2869 3001 2994 2979 2873 2944 2977 2945 3049 2973 2932 2965 2946 2941 3089 3065 2986 2951 2944 3062 3011 3020 3082 2966 2998 2941 3064 3032 2940 3044 3086 3048 3128 3023 3050 3115 3090 3093 3032 3184 3206 3182 3150 3140 3173 3142 3116 3103 3126 3111 3155 3183 3113 3095 3142 3132 3166 3057 3175 3123 3163 2994 3161 3235 3122 3228 3346 3310 3211 3200 3138 3184 3195 3275 3256 3275 3214 3264 3286 3380 3379 3167 3219 3350 3259 3302 3191 3225 3170 3415 3284 3354 3352 3359 3372 3324 3288 3266 3412 3328 3365 3323 3414 3428 3358 3379 3452 3303 3335 3464 3441 3475 3381 3441 3428 3410 3361 3486 3477 3566 3538 3507 3427 3478 3496 3519 3533 3366 3584 3386 3402 3419 3466 3498 3402 3597 3354 3691 3576 3397 3519 3446 3492 3490 3572 3550 3609 3622 3609 3439 3627 3630 3647 3574 3658 3623 3618 3630 3744 3761 3640 3752 3751 3639 3653 3684 3689 3617 3737 3750 3672 3573 3707 3668 3585 3616 3579 3471 3503 3557 3395 3451 3474 3394 3431 3359 3379 3406 3340 3386 3410 3358 3297 3278 3429 3263 3393 3316 3261 3337 3296 3275 3287 3260 3263 3334 3214 3288 3181 3219 3374 3293 3276 3312 3278 3217 3258 3255 3318 3234 3240 3289 3281 3242 3166 3223 3128 3196 3159 3105 3234 3170 3291 3272 3185 3252 3174 3164 3238 3129 3266 3157 3170 3179 3234 3322 3247 3131 3276 3253 3179 3181 3172 3292 3314 3250 3246 3216 3243 3216 3302 3193 3205 3347 3334 3155 3346 3298 3169 3336 3202 3279 3192 3142 3127 3026 3170 3186 3082 3091 2987 2975 2879 2972 2909 2994 3041 3063 3038 2987 2999 2902 3007 2935 3048 2948 2944 3008 2888 3068 2888 2921 2932 2938 2983 2966 2916 2873 2890 2878 2866 2898 2908 2895 2935 2897 2831 2888 2873 2925 2815 2811 2782 2810 2882 2874 2835 2767 2865 2856 2778 2850 2810 2863 2921 2833 2864 2768 2903 2822 2871 2823 2896 2854 2886 2771 2797 2841 2827 2813 2805 2935 2708 2872 2800 2774 2798 2718 2815 2748 2751 2727 2822 2821 2795 2690 2866 2739 2807 2762 2783 2753 2823 2757 2835 2779 2829 2750 2817 2795 2803 2739 2721 2757 2795 2662 2810 2719 2770 2679 2708 2695 2817 2741 2767 2841 2763 2813 2734 2823 2830 2764 2777 2686 2806 2756 2768 2717 2816 2770 2756 2798 2759 2809 2781 2767 2743 2819 2817 2760 2803 2806 2805 2780 2702 2886 2809 2762 2874 2744 2868 2732 2761 2762 2713 2779 2801 2720 2768 2795 2804 2736 2790 2718 2724 2770 2826 2680 2748 2774 2787 2750 2704 2735 2695 2673 2805 2899 2743 2759 2680 2898 2814 2749 2782 2865 2807 2723 2745 2650 2756 2736 2617 2781 2720 2717 2744 2656 2638 2658 2678 2693 2795 2682 2768 2752 2615 2717 2738 2715 2671 2735 2652 2730 2746 2706 2651 2683 2753 2661 2611 2657 2676 2670 2633 2606 2585 2671 2555 2679 2624 2723 2720 2736 2670 2619 2583 2629 2676 2657 2594 2545 2580 2655 2647 2585 2561 2587 2515 2636 2636 2538 2656 2649 2618 2574 2637 2679 2621 2556 2614 2613 2660 2496 2588 2594 2542 2543 2536 2532 2544 2685 2537 2586 2474 2438 2536 2521 2627 2554 2599 2576 2485 2529 2612 2635 2556 2562 2595 2589 2567 2660 2589 2463 2591 2527 2544 2560 2509 2519 2576 2678 2491 2421 2491 2507 2476 2492 2456 2541 2483 2628 2530 2550 2520 2527 2504 2438 2570 2505 2483 2546 2532 2463 2485 2425 2531 2515 2522 2526 2520 2567 2552 2462 2499 2453 2493 2427 2514 2469 2479 2535 2471 2468 2552 2468 2495 2381 2465 2421 2530 2427 2422 2423 2466 2571 2447 2541 2435 2472 2444 2411 2460 2555 2492 2436 2521 2407 2511 2486 2479 2504 2486 2417 2483 2491 2412 2474 2381 2426 2533 2395 2417 2408 2474 2402 2332 2429 2511 2487 2413 2391 2391 2472 2428 2380 2413 2352 2428 2343 2351 2439 2437 2397 2358 2436 2354 2356 2469 2420 2432 2401 2456 2366 2524 2407 2403 2457 2490 2419 2403 2378 2507 2483 2480 2388 2401 2435 2445 2435 2279 2461 2377 2353 2439 2415 2482 2378 2447 2410 2435 2528 2413 2395 2349 2413 2438 2498 2383 2340 2425 2458 2369 2461 2376 2504 2455 2467 2399 2456 2462 2413 2348 2346 2532 2498 2497 2445 2459 2496 2473 2563 2385 2488 2573 2525 2390 2435 2466 2447 2512 2450 2397 2495 2431 2507 2498 2545 2417 2511 2487 2455 2463 2483 2433 2407 2421 2499 2552 2492 2403 2457 2549 2502 2482 2490 2505 2497 2480 2483 2382 2437 2432 2420 2442 2488 2356 2498 2455 2335 2336 2443 2541 2441 2477 2497 2379 2509 2422 2572 2438 2484 2472 2440 2487 2464 2485 2453 2399 2455 2372 2426 2407 2443 2370 2408 2385 2482 2454 2471 2421 2344 2551 2400 2381 2519 2471 2455 2399 2426 2379 2455 2492 2419 2455 2347 2341 2315 2317 2404 2380 2454 2377 2353 2436 2438 2322 2502 2347 2356 2443 2378 2396 2484 2327 2459 2376 2374 2417 2368 2390 2357 2382 2366 2318 2366 2362 2377 2385 2327 2430 2323 2305 2349 2318 2362 2437 2344 2328 2319 2361 2321 2362 2248 2338 2329 2281 2244 2308 2315 2293 2312 2313 2372 2219 2204 2255 2255 2318 2363 2259 2231 2273 2337 2290 2305 2235 2244 2111 2172 2179 2313 2137 2225 2195 2178 2194 2079 2162 2158 2192 2191 2162 2172 2151 2098 2045 2039 2159 2103 2104 2081 2066 2159 2080 2059 2088 1982 2207 2062 2128 2145 2106 2065 2079 2086 2047 2054 2148 2027 2094 2085 1996 2094 2037 2048 1974 1964 2011 1981 2095 1993 2093 2027 2120 2098 2010 2139 2067 2035 1980 2011 2090 1989 2009 2065 1996 1970 2074 2033 2047 1999 1984 1941 2072 2018 2017 1996 2039 1970 2002 2050 2032 2067 1963 2047 2044 2080 2016 1993 2043 2013 2017 2032 1964 2021 2023 2101 2068 2005 2006 1944 1925 2064 2003 2052 1933 1977 1981 2131 2028 2033 2136 2074 2065 2108 2027 2151 2089 2100 2034 1973 1982 2030 1968 1938 1965 1977 1921 1952 1897 1949 1897 1980 1965 1934 1871 1897 1878 1991 1919 1929 1830 1870 1889 2035 1980 1845 1998 2017 1966 1941 1972 1889 1867 1917 1970 1995 1911 1854 1900 1906 1980 1860 1878 1902 1899 1945 1902 1906 1909 1915 1894 1891 1900 1894 2006 1980 1925 1945 1926 2003 1936 1933 1874 1883 1920 1986 1890 1857 1892 1868 1854 1898 1906 1959 1906 1930 1921 1992 1918 1942 1965 1990 1928 1981 1931 1935 1969 1975 1911 1950 1946 1914 1938 1941 1867 1945 1995 1909 1932 1953 1917 1932 1930 1911 1971 1904 1995 1938 1900 1893 1885 1925 1903 1934 1962 1893 1963 1975 1943 1946 1952 1970 1997 1976 1995 2056 2010 1905 1901 1984 1870 2031 1990 1987 1974 1938 1975 1994 1954 1992 2031 1940 1935 1928 1911 1998 1859 1935 1923 1884 1924 1950 1912 1903 1836 1850 1937 1920 2022 1887 1955 1933 1911 1942 1916 1957 1908 1890 1925 1947 1952 2013 1885 1892 1982 1962 1963 1870 1873 1947 1939 1934 1986 1860 1925 2017 1912 1938 2021 2000 1985 1859 2002 1927 1979 1933 1919 1887 1986 1965 1881 1917 1901 1969 1919 1896 1919 1884 1920 1859 1881 1911 1936 1894 1902 2003 1882 1866 1848 1868 1893 1837 1845 1830 1825 1820 1883 1878 1792 1841 1830 1828 1780 1801 1790 1894 1866 1854 1817 1825 1867 1847 1873 1813 1817 1839 1756 1817 1832 1796 1803 1763 1798 1820 1727 1692 1735 1714 1818 1819 1742 1717 1761 1800 1774 1694 1739 1760 1813 1829 1774 1734 1729 1741 1766 1709 1801 1763 1709 1678 1715 1763 1660 1698 1786 1675 1745 1687 1728 1745 1676 1635 1722 1682 1769 1649 1715 1675 1707 1723 1686 1741 1652 1661 1724 1727 1701 1701 1664 1683 1718 1647 1568 1635 1708 1680 1711 1743 1659 1641 1726 1680 1775 1780 1672 1705 1743 1766 1699 1703 1748 1732 1718 1725 1805 1771 1834 1876 1836 1770 1812 1826 1854 1767 1891 1806 1796 1768 1830 1847 1837 1819 1788 1856 1801 1893 1855 1919 1775 1925 1817 1908 2035 1984 2020 1904 1966 1915 1942 2061 2065 2090 2069 2161 2153 2141 2143 2243 2210 2198 2160 2212 2233 2148 2241 2278 2217 2119 2233 2089 2181 2104 2017 1955 1983 1909 1882 1863 1851 1734 1685 1678 1675 1646 1697 1593 1664 1647 1594 1625 1605 1577 1630 1601 1613 1584 1600 1643 1571 1505 1628 1594 1564 1622 1607 1572 1568 1555 1594 1608 1604 1610 1608 1604 1541 1615 1639 1535 1627 1642 1601 1624 1493 1618 1626 1633 1697 1677 1654 1742 1699 1749 1803 1687 1828 1727 1816 1872 1859 1821 1903 1925 1849 1867 1890 1961 1924 1880 1902 1897 1938 1960 2018 2062 1978 1986 2100 2080 1975 2086 2191 2242 2177 2296 2237 2260 2301 2332 2324 2457 2444 2501 2505 2536 2518 2579 2662 2559 2641 2633 2628 2631 2591 2531 2438 2617 2594 2538 2449 2480 2313 2259 2269 2085 2032 1931 1983 1802 1827 1755 1702 1595 1607 1555 1636 1595 1525 1531 1592 1525 1535 1502 1482 1434 1520 1385 1487 1462 1494 1506 1457 1532 1444 1417 1486 1454 1465 1439 1411 1443 1481 1470 1468 1423 1412 1401 1404 1474 1473 1465 1497 1416 1446 1405 1404 1423 1440 1458 1495 1449 1487 1470 1408 1453 1442 1463 1360 1432 1368 1369 1380 1432 1500 1429 1426 1467 1427 1411 1505 1442 1558 1473 1455 1459 1421 1445 1455 1469 1513 1381 1467 1405 1445 1544 1531 1567 1562 1615 1567 1594 1583 1535 1636 1625 1747 1728 1726 1690 1726 1762 1677 1672 1796 1777 1736 1806 1802 1785 1889 1862 1924 2014 1892 2051 2074 2149 2147 2187 2188 2209 2341 2320 2376 2447 2438 2614 2586 2629 2558 2630 2705 2681 2678 2739 2688 2663 2658 2507 2492 2390 2417 2248 2088 1987 1880 1908 1816 1773 1625 1682 1722 1563 1510 1469 1459 1512 1424 1401 1429 1448 1404 1392 1414 1450 1427 1441 1443 1378 1458 1429 1436 1515 1471 1443 1459 1489 1526 1465 1427 1490 1458 1504 1380 1446 1496 1480 1412 1449 1480 1467 1504 1399 1418 1382 1481 1415 1376 1415 1392 1344 1350 1347 1354 1413 1385 1338 1354 1288 1350 1369 1409 1246 1364 1269 1337 1368 1299 1328 1314 1393 1307 1392 1354 1374 1304 1339 1366 1427 1420 1303 1343 1334 1397 1401 1390 1371 1390 1338 1343 1345 1376 1333 1353 1419 1370 1352 1371 1385 1339 1411 1391 1333 1418 1373 1355 1382 1364 1338 1361 1444 1341 1393 1413 1391 1382 1284 1400 1386 1386 1369 1310 1388 1346 1329 1373 1386 1419 1353 1353 1317 1408 1316 1382 1328 1342 1308 1344 1321 1311 1330 1288 1359 1315 1327 1302 1318 1321 1325 1315 1370 1367 1396 1345 1319 1419 1350 1389 1408 1402 1413 1316 1352 1417 1434 1388 1413 1481 1480 1526 1453 1468 1471 1445 1505 1431 1472 1467 1502 1465 1525 1499 1484 1559 1480 1527 1531 1447 1575 1595 1569 1538 1580 1615 1586 1561 1607 1635 1648 1640 1541 1601 1619 1626 1642 1619 1657 1567 1615 1557 1565 1555 1613 1569 1607 1606 1668 1682 1658 1692 1749 1727 1824 1915 1893 1892 1960 2048 1950 2012 2129 2040 2060 2129 2152 2215 2226 2206 2230 2339 2248 2358 2347 2339 2425 2495 2578 2605 2712 2680 2714 2824 2991 2951 3183 3106 3327 3274 3587 3309 3533 3392 3418 3575 3624 3528 3860 3702 3819 3680 3681 3455 3478 3356 3271 3176 3043 3066 2842 2799 2561 2476 2277 2223 2111 2035 1921 1861 1715 1724 1653 1650 1607 1546 1619 1600 1452 1535 1508 1539 1468 1557 1514 1480 1496 1483 1548 1454 1493 1469 1502 1396 1476 1458 1472 1510 1446 1500 1494 1478 1431 1447 1474 1400 1397 1415 1468 1426 1399 1482 1410 1474 1461 1468 1436 1437 1469 1389 1484 1426 1437 1391 1398 1500 1420 1428 1448 1442 1410 1457 1428 1395 1489 1357 1393 1423 1449 1451 1447 1468 1476 1449 1448 1369 1437 1363 1454 1459 1436 1394 1466 1329 1450 1365 1348 1352 1321 1381 1379 1345 1339 1321 1349 1341 1366 1262 1327 1360 1306 1406 1371 1308 1388 1323 1330 1329 1266 1301 1301 1278 1369 1283 1284 1284 1393 1316 1319 1310 1351 1320 1357 1309 1253 1346 1247 1295 1293 1297 1410 1340 1314 1426 1291 1303 1252 1297 1293 1345 1275 1372 1312 1292 1250 1279 1339 1324 1330 1192 1297 1320 1269 1323 1289 1226 1264 1259 1290 1233 1328 1269 1270 1282 1254 1253 1313 1245 1297 1241 1262 1229 1279 1263 1238 1307 1305 1267 1206 1338 1266 1282 1209 1269 1239 1211 1268 1356 1254 1260 1226 1272 1262 1285 1202 1231 1283 1276 1312 1258 1316 1204 1291 1231 1273 1300 1305 1280 1271 1287 1252 1254 1250 1255 1242 1308 1201 1251 1216 1223 1260 1243 1331 1240 1258 1212 1273 1291 1315 1241 1248 1277 1246 1264 1281 1214 1188 1261 1185 1228 1252 1274 1261 1289 1253 1231 1237 1267 1248 1313 1272 1259 1179 1286 1285 1236 1281 1272 1191 1238 1227 1254 1299 1296 1258 1307 1227 1213 1306 1245 1342 1201 1212 1212 1259 1242 1278 1211 1225 1258 1240 1190 1198 1243 1284 1179 1278 1194 1198 1264 1322 1276 1274 1290 1220 1202 1217 1268 1304 1234 1221 1266 1187 1290 1231 1221 1279 1214 1227 1256 1202 1187 1334 1203 1270 1247 1287 1271 1221 1187 1259 1200 1275 1256 1231 1252 1204 1175 1302 1212 1280 1238 1271 1217 1226 1361 1187 1174 1266 1272 1238 1293 1282 1183 1220 1203 1259 1282 1237 1253 1223 1313 1225 1191 1213 1240 1240 1231 1242 1288 1256 1230 1204 1243 1227 1171 1186 1186 1199 1182 1187 1244 1254 1208 1273 1260 1257 1205 1220 1307 1127 1254 1245 1201 1214 1297 1220 1234 1194 1209 1185 1275 1229 1236 1222 1240 1193 1168 1174 1193 1211 1333 1263 1207 1226 1242 1201 1225 1172 1187 1172 1269 1232 1171 1219 1236 1219 1222 1235 1147 1211 1208 1129 1158 1238 1185 1224 1202 1219 1162 1215 1203 1237 1226 1212 1164 1245 1222 1184 1128 1158 1168 1217 1190 1126 1226 1230 1224 1290 1143 1239 1141 1168 1235 1196 1214 1175 1155 1191 1184 1202 1247 1187 1233 1289 1169 1174 1243 1218 1175 1168 1195 1199 1233 1218 1166 1238 1145 1211 1259 1288 1250 1180 1211 1229 1249 1208 1220 1222 1213 1187 1236 1269 1177 1234 1248 1291 1241 1230 1130 1130 1270 1199 1189 1268 1186 1250 1257 1259 1249 1223 1212 1194 1280 1179 1235 1232 1242 1260 1303 1266 1336 1327 1339 1307 1418 1361 1337 1318 1352 1400 1422 1371 1497 1434 1459 1478 1473 1400 1474 1549 1481 1561 1525 1557 1592 1626 1579 1706 1604 1680 1660 1753 1758 1780 1839 1834 1836 1926 1919 1918 1965 1921 1983 2034 1984 1945 2075 2056 1948 2018 2001 1989 1935 1858 1902 1853 1706 1754 1709 1670 1616 1649 1501 1497 1501 1317 1424 1420 1449 1292 1326 1281 1284 1252 1225 1209 1262 1283 1268 1265 1355 1267 1264 1278 1210 1252 1201 1263 1181 1305 1224 1244 1179 1245 1217 1257 1276 1163 1261 1233 1254 1231 1196 1215 1230 1256 1150 1230 1180 1191 1149 1199 1264 1175 1226 1219 1210 1223 1206 1228 1192 1210 1265 1197 1223 1181 1232 1243 1188 1198 1297 1236 1170 1174 1217 1264 1173 1191 1213 1184 1174 1229 1213 1242 1162 1166 1285 1147 1212 1199 1193 1210 1221 1240 1228 1245 1213 1200 1257 1227 1236 1194 1254 1176 1193 1218 1247 1227 1233 1218 1279 1284 1267 1238 1325 1225 1233 1218 1280 1218 1258 1211 1273 1251 1248 1293 1306 1263 1233 1315 1241 1328 1266 1309 1295 1334 1230 1298 1320 1316 1238 1256 1346 1342 1368 1330 1314 1334 1391 1351 1345 1390 1320 1325 1375 1354 1344 1377 1307 1326 1315 1320 1315 1326 1302 1285 1259 1283 1224 1244 1194 1238 1259 1158 1275 1158 1181 1242 1262 1205 1248 1216 1154 1186 1175 1247 1209 1211 1175 1230 1213 1226 1212 1178 1219 1152 1220 1162 1199 1188 1191 1256 1196 1209 1182 1193 1234 1282 1252 1195 1207 1187 1141 1222 1203 1208 1196 1261 1258 1192 1203 1193 1105 1216 1235 1235 1278 1269 1141 1227 1268 1218 1254 1195 1230 1197 1238 1251 1289 1167 1258 1225 1217 1200 1191 1240 1262 1247 1199 1199 1185 1279 1257 1238 1279 1225 1181 1265 1240 1224 1270 1223 1291 1218 1269 1256 1275 1277 1337 1234 1305 1294 1283 1347 1255 1287 1258 1301 1314 1248 1366 1244 1279 1225 1310 1275 1275 1299 1283 1323 1293 1315 1254 1305 1244 1279 1288 1309 1225 1207 1285 1204 1211 1215 1265 1219 1228 1349 1263 1312 1184 1191 1220 1201 1261 1200 1199 1203 1234 1203 1164 1196 1191 1237 1233 1267 1165 1261 1226 1266 1182 1238 1171 1268 1251 1331 1259 1228 1313 1259 1271 1261 1230 1260 1330 1249 1291 1335 1213 1336 1391 1314 1315 1354 1296 1433 1321 1324 1367 1382 1346 1382 1443 1435 1450 1489 1476 1411 1453 1416 1469 1455 1520 1419 1517 1460 1529 1551 1577 1615 1624 1656 1699 1572 1613 1579 1694 1682 1679 1736 1679 1695 1660 1730 1622 1554 1643 1560 1652 1627 1575 1536 1568 1507 1493 1458 1474 1448 1426 1349 1372 1375 1354 1293 1309 1370 1289 1356 1383 1247 1285 1225 1236 1265 1288 1256 1291 1146 1236 1228 1313 1283 1230 1297 1241 1266 1236 1201 1218 1218 1208 1314 1227 1252 1224 1233 1180 1211 1184 1256 1207 1214 1262 1154 1159 1179 1231 1249 1207 1200 1196 1217 1245 1236 1191 1177 1240 1238 1250 1223 1224 1173 1199 1246 1161 1195 1198 1168 1170 1178 1226 1185 1295 1215 1197 1142 1191 1202 1172 1178 1194 1220 1202 1210 1229 1216 1206 1155 1245 1184 1301 1248 1169 1220 1199 1216 1208 1194 1266 1207 1225 1136 1212 1290 1263 1218 1225 1203 1213 1213 1146 1125 1191 1224 1205 1181 1173 1202 1250 1180 1229 1180 1169 1255 1157 1115 1144 1180 1175 1238 1164 1163 1151 1115 1222 1160 1136 1203 1160 1207 1160 1169 1189 1182 1150 1190 1185 1192 1113 1140 1165 1167 1207 1192 1205 1163 1178 1179 1129 1204 1191 1176 1187 1136 1227 1164 1224 1166 1196 1184 1180 1212 1173 1182 1162 1214 1196 1209 1125 1297 1220 1264 1241 1227 1183 1198 1220 1206 1293 1195 1167 1240 1188 1207 1244 1189 1266 1144 1157 1235 1283 1241 1209 1157 1257 1270 1283 1204 1201 1260 1225 1198 1234 1248 1273 1265 1256 1237 1243 1190 1243 1213 1197 1280 1287 1212 1296 1254 1291 1268 1254 1233 1318 1305 1295 1295 1235 1266 1229 1345 1321 1286 1217 1270 1217 1219 1301 1248 1311 1308 1283 1353 1332 1340 1288 1380 1317 1384 1346 1393 1376 1301 1382 1382 1429 1363 1351 1374 1425 1444 1428 1433 1447 1444 1492 1532 1354 1459 1441 1487 1512 1400 1478 1599 1553 1570 1521 1565 1727 1640 1698 1654 1688 1603 1695 1673 1754 1746 1699 1797 1742 1841 1806 1786 1860 1819 1834 1805 1763 1792 1700 1771 1652 1673 1624 1659 1602 1602 1523 1573 1616 1551 1566 1558 1518 1524 1532 1618 1631 1609 1620 1659 1688 1682 1776 1808 1795 1920 1851 1882 1945 1917 1907 1944 2034 2111 2058 2023 2158 2170 2295 2245 2345 2346 2375 2465 2543 2506 2588 2618 2754 2853 2884 3033 2937 3194 3119 3167 3072 3148 3116 3120 3254 3149 3226 3234 3313 3145 3046 3069 3034 2980 2781 2811 2584 2649 2517 2439 2345 2146 2203 2075 2037 2022 1852 1944 1731 1737 1628 1693 1546 1499 1451 1398 1411 1371 1352 1369 1446 1360 1381 1329 1312 1324 1311 1322 1369 1336 1307 1304 1340 1283 1239 1293 1281 1284 1317 1315 1352 1344 1324 1305 1359 1247 1301 1349 1346 1288 1206 1235 1265 1248 1236 1234 1257 1280 1284 1250 1236 1274 1216 1305 1296 1226 1288 1286 1221 1251 1243 1240 1230 1255 1256 1216 1221 1285 1195 1302 1284 1262 1217 1244 1233 1279 1239 1302 1282 1242 1254 1247 1222 1238 1242 1222 1236 1233 1241 1241 1246 1271 1226 1248 1250 1286 1224 1252 1246 1187 1181 1152 1234 1197 1269 1185 1251 1202 1252 1208 1183 1181 1198 1210 1218 1178 1214 1234 1157 1185 1156 1243 1201 1188 1171 1234 1161 1252 1178 1200 1166 1225 1242 1148 1283 1249 1204 1186 1229 1152 1153 1162 1231 1219 1141 1242 1212 1198 1126 1237 1249 1096 1201 1248 1239 1241 1198 1168 1243 1244 1229 1178 1190 1276 1258 1188 1246 1234 1223 1276 1216 1228 1281 1254 1211 1236 1248 1268 1247 1315 1272 1297 1273 1320 1267 1286 1246 1353 1273 1330 1310 1290 1240 1330 1267 1353 1293 1326 1354 1381 1294 1312 1267 1320 1271 1325 1342 1320 1258 1329 1283 1310 1215 1281 1267 1267 1261 1259 1240 1179 1254 1260 1184 1234 1158 1239 1170 1201 1211 1149 1219 1202 1289 1216 1265 1198 1205 1175 1165 1229 1190 1207 1174 1256 1236 1280 1224 1214 1210 1197 1266 1239 1221 1182 1333 1318 1252 1201 1239 1282 1319 1306 1309 1278 1299 1260 1272 1262 1353 1281 1320 1282 1350 1289 1293 1295 1246 1262 1314 1256 1371 1303 1317 1233 1215 1215 1284 1287 1271 1242 1290 1222 1194 1236 1243 1208 1256 1240 1190 1238 1174 1121 1122 1229 1180 1196 1177 1226 1203 1167 1191 1227 1253 1192 1268 1239 1204 1221 1180 1294 1252 1366 1239 1306 1278 1316 1235 1310 1258 1268 1400 1289 1305 1351 1364 1241 1275 1393 1393 1425 1371 1479 1385 1361 1405 1357 1349 1370 1406 1390 1383 1369 1325 1354 1334 1291 1348 1296 1345 1290 1304 1292 1288 1255 1241 1186 1237 1268 1191 1198 1241 1211 1160 1209 1170 1242 1150 1141 1155 1237 1179 1232 1150 1110 1175 1165 1174 1128 1174 1161 1199 1246 1073 1135 1196 1146 1077 1198 1128 1124 1152 1130 1136 1136 1178 1155 1178 1123 1164 1239 1203 1190 1213 1176 1185 1156 1187 1210 1128 1189 1126 1120 1204 1169 1154 1098 1111 1102 1129 1125 1182 1168 1166 1134 1105 1199 1131 1173 1137 1103 1139 1178 1154 1258 1180 1142 1117 1095 1155 1155 1157 1212 1132 1116 1174 1194 1199 1186 1172 1167 1159 1154 1096 1162 1108 1218 1065 1086 1123 1158 1165 1096 1160 1185 1122 1116 1177 1090 1155 1098 1190 1189 1146 1053 1128 1194 1122 1210 1182 1208 1179 1120 1139 1162 1187 1157 1181 1114 1203 1126 1149 1172 1164 1209 1198 1143 1110 1135 1149 1191 1127 1174 1113 1163 1133 1131 1149 1127 1209 1164 1164 1230 1136 1134 1165 1140 1157 1178 1175 1144 1150 1117 1123 1154 1129 1165 1115 1153 1124 1147 1201 1136 1148 1152 1205 1201 1191 1190 1152 1241 1127 1134 1198 1239 1175 1166 1164 1150 1229 1168 1194 1130 1187 1163 1180 1210 1124 1194 1131 1162 1119 1158 1205 1172 1138 1173 1116 1105 1174 1154 1173 1135 1083 1164 1131 1155 1105 1135 1236 1165 1178 1150 1160 1225 1149 1109 1101 1193 1120 1166 1157 1119 1201 1152 1164 1129 1151 1112 1198 1161 1107 1140 1132 1104 1099 1135 1179 1204 1159 1148 1180 1166 1101 1220 1148 1130 1151 1111 1170 1148 1147 1166 1101 1141 1240 1175 1215 1109 1100 1118 1098 1202 1153 1205 1176 1116 1131 1157 1160 1066 1137 1128 1173 1144 1189 1142 1165 1219 1143 1140 1113 1203 1167 1172 1164 1194 1121 1167 1174 1136 1141 1202 1168 1142 1110 1209 1125 1260 1139 1174 1130 1184 1142 1131 1161 1195 1223 1135 1153 1183 1124 1101 1142 1163 1065 1107 1154 1126 1205 1193 1232 1104 1131 1133 1166 1180 1103 1193 1131 1136 1110 1184 1140 1210 1133 1136 1210 1163 1129 1174 1184 1204 1169 1220 1210 1183 1179 1111 1224 1207 1120 1224 1223 1146 1241 1218 1140 1146 1223 1159 1194 1252 1258 1189 1277 1252 1328 1236 1279 1260 1272 1264 1279 1316 1286 1151 1271 1186 1368 1222 1198 1274 1231 1243 1225 1208 1293 1256 1256 1218 1297 1259 1209 1228 1187 1267 1184 1227 1242 1310 1225 1187 1222 1213 1212 1183 1224 1265 1200 1219 1262 1245 1215 1207 1278 1205 1249 1234 1248 1228 1217 1190 1229 1286 1269 1266 1265 1324 1318 1359 1304 1361 1443 1347 1330 1388 1408 1352 1392 1367 1349 1462 1374 1454 1456 1358 1450 1489 1554 1458 1544 1514 1490 1493 1459 1466 1446 1456 1461 1457 1424 1526 1418 1442 1445 1400 1424 1460 1431 1446 1420 1429 1464 1384 1422 1385 1371 1396 1393 1413 1411 1352 1396 1300 1347 1354 1284 1259 1367 1280 1220 1298 1299 1263 1239 1261 1167 1321 1271 1287 1292 1284 1256 1214 1228 1238 1188 1194 1235 1197 1229 1185 1211 1202 1173 1250 1128 1179 1141 1140 1166 1207 1231 1182 1155 1155 1162 1146 1192 1168 1150 1179 1177 1239 1171 1221 1263 1181 1147 1128 1164 1147 1114 1145 1222 1149 1173 1117 1176 1135 1161 1175 1136 1207 1123 1206 1187 1162 1209 1121 1183 1126 1218 1189 1269 1189 1215 1157 1151 1189 1187 1182 1225 1126 1110 1172 1152 1149 1176 1135 1186 1222 1159 1134 1192 1144 1149 1167 1155 1129 1135 1152 1160 1243 1139 1143 1176 1135 1136 1188 1196 1167 1117 1190 1182 1135 1115 1181 1153 1141 1165 1159 1157 1254 1130 1179 1151 1166 1107 1147 1140 1187 1128 1100 1150 1172 1168 1188 1112 1252 1184 1136 1090 1146 1174 1182 1121 1212 1172 1172 1132 1123 1139 1086 1143 1134 1156 1151 1206 1159 1217 1140 1195 1209 1156 1226 1189 1123 1180 1185 1195 1241 1222 1303 1151 1150 1262 1229 1232 1304 1272 1308 1332 1231 1295 1252 1332 1247 1287 1289 1251 1325 1285 1288 1386 1322 1349 1400 1378 1366 1396 1384 1327 1395 1359 1401 1422 1436 1401 1473 1506 1455 1508 1439 1546 1468 1428 1426 1448 1507 1551 1513 1551 1512 1547 1458 1604 1553 1505 1434 1530 1492 1584 1529 1529 1562 1528 1521 1446 1451 1463 1407 1395 1321 1437 1308 1390 1290 1299 1277 1306 1268 1292 1329 1204 1201 1224 1173 1234 1230 1265 1216 1154 1177 1088 1152 1162 1180 1112 1200 1132 1192 1138 1196 1141 1194 1106 1160 1131 1197 1094 1175 1158 1091 1163 1126 1173 1195 1155 1123 1199 1120 1170 1130 1237 1089 1106 1155 1114 1190 1153 1165 1136 1077 1203 1120 1109 1162 1162 1192 1174 1108 1188 1149 1147 1154 1141 1186 1184 1150 1124 1122 1177 1174 1113 1151 1176 1107 1169 1076 1169 1063 1069 1149 1179 1119 1174 1157 1167 1094 1240 1151 1095 1155 1149 1144 1144 1104 1188 1200 1200 1106 1123 1122 1096 1159 1207 1199 1115 1103 1075 1194 1158 1172 1088 1164 1203 1179 1153 1109 1158 1126 1163 1182 1157 1135 1147 1170 1187 1286 1153 1111 1172 1136 1171 1164 1221 1230 1214 1220 1238 1163 1205 1111 1191 1200 1247 1156 1143 1238 1220 1232 1211 1220 1200 1199 1266 1169 1199 1214 1175 1192 1269 1244 1238 1229 1307 1256 1223 1241 1290 1251 1191 1305 1238 1355 1259 1243 1247 1193 1197 1143 1192 1172 1270 1230 1223 1196 1189 1174 1116 1167 1186 1181 1193 1139 1139 1143 1116 1116 1122 1145 1152 1141 1120 1126 1147 1099 1180 1153 1136 1129 1207 1133 1158 1084 1151 1141 1179 1123 1104 1081 1137 1125 1102 1085 1100 1124 1126 1089 1090 1153 1164 1175 1122 1122 1127 1091 1178 1123 1088 1083 1077 1119 1091 1098 1035 1194 1124 1119 1127 1125 1159 1063 1129 1156 1107 1144 1154 1129 1149 1134 1139 1134 1168 1106 1175 1134 1134 1128 1153 1161 1155 1127 1150 1135 1131 1152 1118 1109 1168 1114 1052 1154 1183 1209 1155 1134 1167 1150 1198 1135 1247 1184 1175 1125 1153 1204 1184 1209 1123 1214 1200 1350 1271 1268 1225 1270 1276 1261 1186 1277 1284 1246 1293 1237 1359 1222 1309 1307 1266 1290 1261 1304 1247 1151 1207 1245 1277 1244 1224 1259 1212 1148 1248 1180 1109 1204 1170 1225 1233 1158 1158 1233 1172 1085 1125 1091 1107 1182 1179 1175 1145 1111 1142 1200 1169 1182 1143 1167 1196 1202 1153 1174 1150 1109 1133 1080 1126 1088 1162 1117 1134 1128 1179 1152 1134 1143 1120 1106 1066 1152 1097 1094 1163 1103 1130 1161 1107 1111 1121 1197 1157 1133 1123 1100 1110 1122 1150 1133 1176 1138 1085 1109 1098 1165 1144 1089 1206 1097 1210 1192 1123 1092 1146 1089 1125 1145 1132 1140 1106 1111 1121 1085 1133 1141 1124 1179 1084 1159 1109 1142 1126 1159 1115 1133 1180 1078 1147 1140 1129 1113 1124 1122 1149 1153 1136 1186 1158 1132 1136 1141 1131 1120 1136 1083 1067 1096 1085 1165 1128 1096 1117 1122 1146 1111 1207 1099 1146 1135 1095 1157 1076 1170 1075 1266 1180 1101 1177 1198 1147 1131 1218 1099 1057 1136 1096 1106 1191 1156 1170 1169 1129 1180 1145 1183 1144 1152 1124 1152 1178 1164 1170 1124 1125 1192 1177 1133 1245 1137 1201 1134 1146 1164 1139 1214 1180 1204 1207 1201 1168 1180 1156 1219 1103 1182 1195 1220 1160 1172 1192 1174 1232 1200 1160 1207 1170 1160 1129 1185 1085 1085 1149 1124 1129 1212 1159 1176 1206 1062 1163 1145 1150 1153 1145 1135 1121 1114 1175 1113 1208 1152 1141 1135 1137 1133 1136 1111 1140 1122 1070 1112 1189 1084 1126 1111 1124 1094 1181 1157 1181 1153 1078 1102 1127 1123 1148 1097 1115 1061 1060 1098 1143 1080 1136 1147 1143 1189 1141 1133 1138 1138 1149 1043 1121 1114 1078 1133 1112 1110 1102 1152 1115 1100 1079 1146 1163 1102 1116 1107 1101 1131 1113 1139 1111 1136 1135 1101 1122 1155 1163 1099 1156 1070 1170 1162 1126 1179 1186 1189 1077 1143 1115 1191 1067 1143 1081 1169 1152 1170 1146 1201 1162 1178 1173 1208 1214 1171 1200 1169 1181 1159 1204 1213 1079 1224 1154 1256 1211 1214 1197 1225 1212 1187 1242 1221 1179 1267 1170 1289 1245 1248 1255 1247 1177 1231 1227 1199 1118 1170 1196 1207 1211 1152 1156 1109 1229 1176 1195 1180 1151 1210 1150 1216 1125 1111 1207 1133 1116 1131 1163 1158 1141 1185 1171 1139 1151 1228 1141 1077 1141 1132 1147 1087 1113 1103 1094 1074 1092 1124 1055 1118 1079 1142 1104 1127 1106 1131 1180 1110 1139 1107 1162 1084 1174 1117 1141 1105 1092 1161 1114 1111 1115 1123 1093 1204 1163 1169 1117 1137 1120 1124 1121 1125 1135 1157 1072 1151 1120 1180 1140 1164 1086 1061 1181 1104 1155 1088 1138 1078 1116 1098 1126 1150 1124 1119 1119 1133 1112 1137 1124 1169 1131 1152 1160 1143 1136 1118 1130 1147 1172 1118 1150 1140 1178 1177 1114 1186 1144 1230 1186 1119 1179 1132 1092 1178 1148 1188 1105 1160 1144 1114 1143 1158 1095 1047 1136 1149 1167 1186 1142 1131 1110 1102 1157 1116 1129 1156 1129 1148 1152 1095 1161 1164 1125 1175 1147 1165 1103 1125 1159 1068 1098 1144 1124 1122 1163 1117 1175 1125 1105 1118 1121 1125 1099 1184 1120 1137 1138 1177 1088 1075 1151 1106 1121 1104 1169 1139 1152 1108 1094 1171 1120 1147 1142 1197 1142 1051 1059 1117 1149 1125 1066 1160 1121 1099 1176 1165 1134 1136 1103 1152 1081 1069 1153 1162 1071 1196 1106 1133 1165 1125 1131 1139 1107 1163 1156 1144 1148 1114 1103 1176 1135 1081 1119 1134 1118 1134 1087 1115 1077 1181 1077 1142 1123 1134 1171 1157 1118 1203 1227 1190 1175 1145 1213 1221 1177 1241 1164 1206 1168 1192 1206 1263 1149 1231 1256 1279 1196 1294 1252 1224 1286 1282 1333 1297 1235 1318 1334 1336 1300 1326 1335 1323 1395 1320 1387 1360 1238 1393 1300 1327 1407 1264 1364 1287 1364 1307 1326 1287 1322 1329 1329 1329 1270 1219 1300 1271 1283 1251 1273 1238 1223 1243 1217 1228 1200 1206 1218 1177 1227 1202 1201 1145 1092 1122 1189 1148 1146 1135 1117 1260 1125 1183 1173 1114 1134 1160 1166 1194 1175 1163 1166 1148 1092 1205 1181 1096 1124 1100 1097 1043 1156 1134 1128 1112 1086 1121 1223 1159 1139 1071 1119 1148 1146 1122 1178 1170 1160 1116 1156 1110 1115 1182 1127 1116 1186 1104 1149 1181 1175 1160 1137 1112 1169 1123 1137 1154 1165 1247 1226 1154 1136 1203 1122 1188 1122 1168 1167 1168 1085 1114 1127 1116 1230 1198 1192 1265 1118 1109 1116 1136 1129 1127 1091 1130 1106 1203 1099 1174 1177 1151 1158 1110 1101 1179 1140 1143 1103 1167 1139 1134 1069 1180 1069 1113 1151 1141 1067 1121 1147 1162 1163 1140 1090 1060 1211 1118 1152 1113 1123 1171 1204 1112 1174 1179 1174 1141 1164 1149 1195 1129 1180 1197 1152 1153 1105 1156 1136 1171 1083 1173 1134 1156 1221 1168 1169 1158 1191 1174 1172 1145 1135 1090 1144 1136 1107 1111 1142 1178 1165 1185 1138 1200 1177 1240 1095 1212 1152 1100 1181 1199 1124 1160 1156 1195 1085 1177 1184 1193 1149 1136 1132 1149 1131 1187 1122 1129 1118 1105 1193 1219 1175 1217 1161 1180 1199 1143 1203 1129 1224 1160 1234 1176 1151 1175 1099 1203 1256 1194 1124 1168 1164 1204 1159 1179 1136 1170 1171 1184 1136 1120 1158 1220 1117 1143 1154 1181 1171 1121 1118 1144 1146 1157 1155 1087 1165 1163 1158 1168 1159 1126 1105 1169 1136 1158 1142 1193 1168 1106 1110 1137 1097 1122 1074 1142 1101 1151 1144 1128 1056 1097 1190 1162 1122 1112 1146 1156 1162 1033 1150 1145 1123 1094 1131 1099 1163 1132 1120 1151 1140 1155 1143 1150 1142 1080 1065 1103 1141 1117 1134 1147 1116 1131 1180 1118 1179 1127 1035 1169 1151 1215 1106 1161 1143 1172 1145 1164 1150 1199 1097 1147 1140 1146 1169 1111 1184 1177 1140 1219 1147 1129 1171 1118 1144 1100 1125 1168 1164 1136 1176 1102 1124 1195 1140 1150 1102 1074 1086 1188 1117 1145 1187 1095 1114 1127 1133 1156 1111 1070 1157 1095 1117 1136 1137 1139 1179 1205 1137 1146 1124 1150 1161 1125 1091 1135 1120 1182 1160 1190 1145 1166 1136 1146 1146 1175 1105 1089 1178 1102 1119 1184 1085 1114 1137 1117 1126 1162 1151 1178 1103 1157 1139 1175 1186 1144 1164 1178 1118 1083 1165 1207 1151 1177 1205 1227 1147 1183 1171 1150 1168 1202 1136 1159 1184 1146 1188 1158 1218 1170 1212 1192 1183 1276 1107 1171 1140 1174 1160 1195 1207 1166 1082 1142 1103 1161 1141 1156 1152 1138 1112 1118 1100 1084 1114 1100 1140 1175 1084 1132 1137 1136 1113 1167 1091 1107 1166 1143 1100 1144 1136 1161 1021 1176 1168 1048 1163 1126 1099 1208 1128 1043 1188 1115 1202 1158 1069 1106 1140 1148 1163 1096 1173 1136 1139 1138 1160 1153 1150 1177 1082 1168 1128 1205 1168 1156 1171 1169 1079 1178 1175 1150 1229 1113 1145 1121 1165 1199 1169 1153 1111 1155 1208 1175 1149 1155 1175 1156 1074 1080 1121 1196 1183 1180 1144 1209 1080 1180 1185 1169 1155 1109 1106 1172 1135 1178 1190 1189 1187 1193 1159 1199 1110 1174 1179 1144 1200 1116 1148 1195 1152 1203 1151 1156 1107 1168 1096 1116 1156 1163 1134 1106 1188 1191 1187 1113 1213 1182 1225 1190 1150 1187 1141 1247 1175 1108 1192 1192 1215 1187 1199 1151 1159 1171 1141 1206 1213 1197 1263 1170 1187 1257 1172 1180 1219 1164 1224 1246 1207 1273 1267 1191 1201 1294 1239 1238 1192 1321 1231 1262 1195 1278 1292 1280 1259 1316 1254 1246 1263 1304 1284 1287 1330 1314 1234 1256 1273 1242 1316 1240 1244 1325 1256 1232 1234 1299 1350 1305 1249 1290 1298 1360 1311 1273 1324 1259 1300 1325 1339 1265 1309 1285 1325 1335 1353 1252 1301 1318 1256 1273 1280 1223 1304 1332 1247 1307 1294 1300 1292 1303 1291 1337 1252 1295 1180 1262 1239 1229 1251 1275 1261 1263 1224 1202 1204 1195 1276 1227 1243 1228 1286 1257 1192 1266 1259 1215 1188 1232 1227 1172 1207 1170 1228 1200 1179 1176 1241 1199 1218 1182 1149 1174 1204 1156 1180 1176 1204 1166 1146 1181 1152 1138 1148 1155 1117 1147 1148 1194 1188 1152 1157 1221 1119 1173 1184 1184 1105 1196 1182 1219 1227 1231 1191 1138 1179 1185 1110 1273 1173 1169 1180 1234 1164 1181 1215 1214 1172 1148 1163 1211 1183 1214 1167 1155 1156 1199 1154 1166 1200 1239 1183 1195 1111 1177 1198 1203 1198 1238 1176 1186 1195 1218 1202 1273 1165 1200 1229 1198 1222 1276 1145 1278 1233 1243 1188 1221 1187 1256 1255 1203 1230 1193 1241 1216 1243 1210 1248 1272 1250 1272 1222 1243 1247 1219 1244 1294 1251 1278 1313 1329 1217 1327 1328 1265 1213 1214 1235 1246 1314 1288 1237 1317 1224 1248 1287 1250 1192 1241 1278 1241 1267 1200 1268 1243 1235 1224 1242 1279 1192 1227 1228 1265 1255 1237 1234 1241 1243 1283 1184 1294 1176 1210 1217 1254 1257 1221 1302 1245 1274 1274 1315 1261 1307 1301 1357 1385 1355 1330 1352 1270 1347 1389 1425 1405 1432 1399 1395 1388 1368 1478 1464 1425 1434 1545 1450 1465 1441 1495 1445 1498 1465 1397 1483 1544 1523 1444 1484 1526 1427 1445 1469 1434 1536 1499 1472 1446 1486 1398 1394 1505 1375 1394 1324 1443 1418 1339 1316 1409 1311 1316 1337 1309 1310 1282 1259 1362 1312 1309 1311 1316 1214 1324 1255 1274 1208 1235 1174 1246 1254 1179 1189 1239 1227 1223 1236 1206 1256 1258 1195 1116 1236 1157 1174 1115 1221 1185 1143 1123 1140 1150 1129 1138 1136 1258 1164 1149 1192 1182 1129 1145 1144 1126 1198 1177 1170 1132 1124 1161 1148 1129 1184 1145 1119 1183 1178 1152 1182 1166 1142 1200 1167 1181 1129 1106 1181 1142 1241 1130 1162 1196 1184 1116 1181 1221 1115 1176 1120 1171 1201 1171 1139 1177 1193 1192 1157 1192 1177 1093 1123 1183 1182 1158 1179 1208 1151 1112 1191 1191 1215 1118 1185 1107 1132 1191 1150 1145 1196 1117 1208 1130 1178 1184 1183 1216 1266 1211 1177 1209 1199 1163 1136 1212 1193 1203 1193 1189 1183 1278 1155 1273 1207 1167 1188 1128 1205 1187 1178 1217 1139 1217 1221 1207 1135 1149 1232 1265 1195 1183 1161 1190 1202 1152 1154 1162 1196 1192 1198 1157 1225 1169 1124 1198 1234 1230 1186 1242 1213 1163 1289 1209 1217 1182 1171 1188 1161 1181 1209 1168 1179 1227 1175 1191 1210 1160 1228 1199 1301 1186 1228 1198 1193 1183 1227 1256 1258 1157 1204 1181 1210 1301 1250 1196 1235 1202 1278 1198 1269 1210 1241 1241 1289 1230 1237 1248 1258 1271 1262 1283 1269 1224 1279 1334 1282 1319 1230 1285 1306 1253 1243 1260 1262 1247 1274 1221 1298 1263 1267 1200 1317 1217 1277 1182 1192 1198 1125 1232 1227 1227 1188 1170 1235 1174 1215 1163 1127 1166 1142 1175 1185 1219 1168 1214 1127 1253 1175 1140 1117 1163 1219 1206 1187 1151 1153 1207 1129 1165 1138 1172 1180 1157 1123 1149 1113 1153 1219 1143 1110 1192 1188 1155 1078 1180 1103 1137 1153 1111 1146 1133 1194 1132 1141 1093 1150 1178 1202 1157 1167 1165 1115 1189 1194 1151 1178 1089 1162 1160 1113 1119 1118 1129 1172 1141 1116 1170 1097 1172 1127 1120 1124 1142 1155 1122 1123 1109 1208 1207 1160 1151 1208 1157 1134 1179 1099 1194 1198 1131 1195 1214 1140 1132 1157 1219 1150 1140 1148 1166 1148 1153 1173 1110 1140 1126 1174 1129 1119 1161 1098 1121 1129 1135 1156 1123 1140 1142 1111 1131 1139 1145 1163 1196 1105 1115 1148 1242 1153 1108 1147 1130 1100 1169 1197 1115 1233 1148 1224 1151 1202 1142 1171 1178 1187 1163 1122 1175 1202 1137 1167 1193 1095 1206 1123 1150 1124 1114 1108 1100 1162 1215 1173 1128 1188 1181 1202 1134 1157 1137 1145 1179 1198 1188 1095 1148 1185 1115 1234 1127 1192 1114 1128 1165 1124 1173 1138 1178 1181 1112 1135 1092 1192 1094 1143 1090 1181 1150 1190 1146 1189 1157 1170 1120 1121 1114 1159 1172 1129 1155 1088 1167 1148 1167 1143 1187 1108 1174 1164 1168 1176 1110 1174 1120 1168 1176 1162 1196 1122 1114 1071 1191 1142 1119 1187 1222 1148 1140 1164 1211 1153 1140 1100 1122 1102 1175 1203 1120 1176 1172 1102 1150 1134 1194 1178 1166 1172 1236 1127 1172 1172 1216 1112 1202 1129 1093 1164 1131 1163 1219 1171 1110 1131 1172 1130 1166 1201 1129 1207 1114 1244 1172 1192 1145 1170 1172 1129 1149 1154 1118 1174 1219 1113 1145 1191 1173 1119 1178 1168 1168 1193 1085 1124 1167 1215 1116 1157 1198 1166 1138 1193 1213 1213 1124 1153 1178 1251 1187 1175 1153 1206 1166 1156 1227 1226 1248 1148 1249 1259 1208 1189 1214 1200 1152 1247 1250 1195 1209 1217 1212 1178 1205 1237 1192 1156 1217 1274 1216 1154 1224 1181 1166 1201 1286 1204 1210 1239 1190 1154 1181 1213 1256 1261 1223 1207 1255 1146 1154 1279 1187 1115 1167 1155 1108 1181 1135 1215 1218 1192 1150 1179 1230 1192 1166 1158 1182 1115 1176 1142 1154 1095 1149 1169 1165 1140 1093 1128 1187 1153 1151 1112 1141 1135 1186 1189 1153 1128 1160 1186 1160 1142 1171 1137 1132 1121 1171 1138 1161 1088 1109 1154 1121 1140 1166 1125 1208 1183 1129 1215 1186 1180 1157 1220 1173 1174 1111 1151 1223 1149 1196 1205 1213 1181 1188 1156 1225 1144 1154 1152 1127 1187 1188 1183 1237 1167 1154 1143 1183 1180 1132 1221 1195 1202 1170 1176 1214 1163 1158 1189 1217 1231 1206 1183 1253 1131 1167 1169 1223 1121 1212 1162 1199 1179 1189 1223 1142 1155 1155 1239 1225 1263 1118 1191 1188 1154 1178 1158 1155 1222 1148 1215 1152 1170 1215 1228 1192 1239 1146 1172 1114 1195 1169 1257 1155 1164 1223 1207 1178 1202 1184 1185 1201 1116 1122 1069 1225 1169 1194 1116 1141 1175 1143 1102 1149 1131 1152 1208 1147 1094 1164 1131 1180 1192 1139 1152 1171 1135 1175 1189 1139 1175 1190 1198 1081 1153 1160 1166 1196 1228 1166 1229 1104 1170 1181 1163 1205 1161 1151 1129 1120 1245 1115 1228 1151 1151 1185 1149 1199 1173 1178 1208 1189 1263 1208 1174 1335 1221 1207 1230 1207 1212 1159 1128 1229 1238 1222 1267 1299 1258 1250 1282 1291 1260 1316 1314 1323 1287 1286 1339 1358 1281 1330 1406 1366 1361 1332 1318 1319 1335 1323 1416 1409 1369 1402 1352 1363 1442 1360 1405 1428 1344 1364 1492 1447 1476 1453 1457 1463 1472 1409 1475 1472 1479 1455 1360 1451 1409 1397 1409 1418 1367 1396 1344 1400 1453 1310 1378 1356 1398 1339 1381 1250 1329 1302 1316 1274 1265 1306 1302 1262 1335 1291 1284 1383 1276 1317 1254 1287 1284 1268 1248 1218 1198 1174 1188 1249 1245 1204 1230 1255 1226 1178 1170 1165 1169 1189 1203 1216 1192 1206 1162 1155 1124 1196 1172 1182 1170 1138 1263 1183 1110 1252 1139 1144 1164 1176 1185 1185 1142 1223 1151 1210 1149 1166 1164 1188 1141 1158 1181 1161 1120 1144 1226 1189 1128 1123 1186 1233 1196 1186 1133 1172 1126 1148 1231 1179 1143 1137 1202 1243 1215 1219 1186 1167 1140 1157 1113 1207 1162 1130 1170 1153 1156 1187 1146 1135 1150 1202 1175 1188 1111 1172 1200 1135 1156 1194 1148 1172 1203 1095 1227 1207 1163 1140 1130 1190 1218 1147 1128 1223 1187 1139 1180 1192 1198 1199 1170 1192 1122 1227 1196 1155 1201 1198 1200 1192 1204 1212 1214 1200 1172 1197 1141 1249 1253 1136 1171 1218 1201 1199 1202 1210 1208 1138 1236 1207 1291 1154 1219 1210 1220 1135 1169 1140 1130 1184 1205 1209 1108 1184 1164 1121 1133 1179 1144 1242 1167 1155 1112 1232 1188 1230 1167 1231 1170 1195 1225 1208 1096 1203 1150 1163 1167 1205 1141 1146 1162 1149 1181 1179 1162 1181 1131 1066 1114 1141 1208 1161 1091 1097 1107 1184 1153 1162 1137 1089 1098 1167 1173 1151 1184 1189 1200 1196 1168 1047 1165 1154 1206 1152 1203 1081 1141 1070 1113 1180 1131 1123 1139 1187 1274 1180 1133 1183 1143 1089 1157 1125 1181 1148 1155 1116 1154 1119 1162 1171 1108 1201 1117 1150 1147 1134 1143 1092 1174 1110 1169 1162 1108 1192 1156 1154 1074 1169 1101 1145 1137 1122 1118 1122 1157 1134 1181 1131 1159 1148 1224 1168 1128 1142 1144 1144 1149 1193 1141 1128 1137 1174 1099 1138 1123 1194 1180 1199 1114 1156 1187 1188 1113 1129 1104 1173 1113 1150 1137 1161 1172 1186 1116 1206 1083 1202 1130 1163 1126 1177 1140 1124 1208 1136 1167 1274 1155 1130 1150 1175 1114 1117 1129 1145 1151 1200 1157 1169 1163 1166 1103 1151 1210 1183 1182 1119 1183 1151 1160 1182 1167 1130 1183 1060 1159 1110 1184 1184 1201 1154 1122 1186 1132 1152 1229 1144 1218 1147 1172 1123 1177 1139 1104 1169 1115 1198 1191 1141 1164 1137 1154 1258 1139 1236 1145 1181 1118 1157 1181 1206 1202 1178 1170 1194 1179 1250 1166 1174 1174 1158 1128 1215 1120 1194 1161 1097 1140 1238 1161 1157 1176 1136 1111 1130 1149 1158 1173 1184 1147 1159 1147 1168 1153 1176 1157 1173 1243 1166 1120 1130 1115 1101 1128 1155 1124 1161 1111 1111 1153 1118 1185 1112 1080 1107 1129 1113 1176 1140 1157 1128 1153 1162 1168 1199 1177 1153 1130 1157 1145 1237 1069 1184 1134 1115 1123 1126 1117 1161 1134 1220 1139 1168 1180 1166 1161 1119 1109 1085 1167 1127 1167 1096 1170 1197 1112 1173 1128 1172 1151 1198 1142 1149 1129 1141 1147 1102 1104 1120 1112 1159 1197 1213 1190 1161 1104 1105 1122 1195 1167 1140 1108 1085 1209 1180 1184 1221 1222 1185 1174 1193 1170 1210 1139 1085 1157 1253 1165 1098 1148 1182 1194 1124 1161 1149 1109 1105 1245 1133 1113 1142 1177 1195 1168 1218 1168 1205 1126 1148 1123 1086 1197 1183 1174 1207 1185 1198 1173 1146 1123 1055 1245 1169 1183 1207 1178 1255 1209 1258 1218 1212 1203 1176 1174 1162 1275 1175 1209 1137 1199</counts>
			</dataPoints>
		</scan>
	</xrdMeasurement>
</xrdMeasurements>
