<?xml version="1.0"?>
<xrdMeasurements xmlns="http://www.xrdml.com/XRDMeasurement/2.3" xmlns:xsi="http://www.w3.org/2001/XMLSchema-instance" xsi:schemaLocation="http://www.xrdml.com/XRDMeasurement/2.3 http://www.xrdml.com/XRDMeasurement/2.3/XRDMeasurement.xsd" status="Completed" recordIdentifier="{D8A1D9F3-D500-415F-9284-EB3D0578AE10}">
	<comment>
		<entry/>
	</comment>
	<sample type="To be analyzed">
		<id>GPSS_Li1p6Ni0p6V0p4Cl4_121825_6943d914f4d05ae3d69790a8</id>
		<name></name>
		<preparedBy></preparedBy>
	</sample>
	<xrdMeasurement measurementType="Scan" status="Completed" sampleMode="Reflection">
		<usedWavelength intended="K-Alpha 1">
			<kAlpha1 unit="Angstrom">1.5405980</kAlpha1>
			<kAlpha2 unit="Angstrom">1.5444260</kAlpha2>
			<kBeta unit="Angstrom">1.3922500</kBeta>
			<ratioKAlpha2KAlpha1>0.5000</ratioKAlpha2KAlpha1>
		</usedWavelength>
		<incidentBeamPath>
			<radius unit="mm">145.00</radius>
			<xRayTube id="1010048" name="Empyrean Cu LFF HR (9430 033 7310x)">
				<tension unit="kV">40.0</tension>
				<current unit="mA">15.0</current>
				<anodeMaterial>Cu</anodeMaterial>
				<focus type="Line">
					<length unit="mm">12.0</length>
					<width unit="mm">0.4</width>
					<takeOffAngle unit="deg">6.0</takeOffAngle>
				</focus>
			</xRayTube>
			<sollerSlit id="21010002" name="Soller slits 0.04 rad.">
				<opening unit="rad">0.0400</opening>
			</sollerSlit>
			<mask id="22031000" name="Fixed mask 13 mm">
				<width unit="mm">9.00</width>
			</mask>
			<divergenceSlit id="22120001" name="Divergence slit 1°" xsi:type="fixedDivergenceSlitType">
				<distanceToSample unit="mm">50.00</distanceToSample>
				<height unit="mm">1.52</height>
			</divergenceSlit>
		</incidentBeamPath>
		<sampleMovement xsi:type="spinningSampleMovementType">
			<spinnerRevolutionTime unit="seconds">1.0</spinnerRevolutionTime>
		</sampleMovement>
		<diffractedBeamPath>
			<radius unit="mm">145.00</radius>
			<antiScatterSlit id="22090040" name="AS slit 9 mm (PIXcel)" xsi:type="fixedAntiScatterSlitType">
				<height unit="mm">9.00</height>
			</antiScatterSlit>
			<sollerSlit id="21020003" name="Large Soller slits 0.04 rad.">
				<opening unit="rad">0.0400</opening>
			</sollerSlit>
			<filter id="20030001" name="Large beta-filter Nickel">
				<material>Ni</material>
				<thickness unit="mm">0.020</thickness>
			</filter>
			<detector id="7010019" name="PIXcel1D-Medipix3 detector" xsi:type="rtmsDetectorType">
				<phd unit="keV">
					<lowerLevel>4.02</lowerLevel>
					<upperLevel>11.27</upperLevel>
				</phd>
				<mode>Scanning</mode>
				<activeLength unit="deg">5.542</activeLength>
			</detector>
		</diffractedBeamPath>
		<scan appendNumber="0" mode="Continuous" scanAxis="Gonio" status="Completed">
			<header>
				<startTimeStamp>2025-12-19T10:47:55-08:00</startTimeStamp>
				<endTimeStamp>2025-12-19T10:56:02-08:00</endTimeStamp>
				<author>
					<name>AutomatedUser</name>
				</author>
				<source>
					<applicationSoftware version="1.7b (136)">PANalytical Aeris Instrument Suite</applicationSoftware>
					<instrumentControlSoftware version="3.2.00000000 20240306">AERIS</instrumentControlSoftware>
					<instrumentID>950485</instrumentID>
				</source>
			</header>
			<dataPoints>
				<positions axis="2Theta" unit="deg">
					<startPosition>10.00943322</startPosition>
					<endPosition>99.99442286</endPosition>
				</positions>
				<positions axis="Omega" unit="deg">
					<startPosition>5.00471661</startPosition>
					<endPosition>49.99721143</endPosition>
				</positions>
				<commonCountingTime unit="seconds">12.495</commonCountingTime>
				<counts unit="counts">3217 3141 3172 3265 3157 3129 3253 3205 3211 3198 3175 3215 3314 3167 3183 3210 3210 3212 3202 3268 3256 3288 3165 3255 3324 3241 3156 3258 3242 3232 3207 3337 3300 3228 3236 3220 3137 3220 3192 3286 3297 3311 3205 3101 3222 3297 3206 3276 3223 3165 3208 3276 3395 3243 3237 3242 3329 3282 3277 3156 3241 3248 3209 3198 3263 3168 3312 3300 3225 3296 3365 3340 3272 3335 3364 3271 3318 3402 3389 3228 3228 3357 3364 3385 3374 3427 3329 3409 3348 3351 3457 3349 3429 3356 3500 3414 3387 3435 3396 3430 3553 3451 3398 3416 3379 3436 3471 3481 3462 3465 3461 3552 3407 3549 3529 3473 3596 3484 3545 3527 3491 3564 3517 3511 3498 3431 3367 3413 3447 3462 3581 3444 3388 3349 3451 3485 3463 3381 3423 3302 3430 3285 3339 3273 3497 3367 3353 3403 3298 3283 3286 3294 3302 3262 3292 3245 3327 3354 3320 3353 3265 3286 3170 3397 3209 3358 3448 3337 3221 3194 3406 3327 3294 3214 3291 3283 3347 3305 3287 3227 3299 3303 3384 3288 3323 3284 3252 3339 3219 3278 3114 3187 3278 3248 3220 3342 3191 3232 3271 3188 3338 3233 3158 3332 3266 3242 3264 3170 3211 3290 3220 3240 3248 3226 3264 3257 3253 3200 3201 3238 3265 3216 3131 3199 3191 3235 3196 3157 3177 3201 3292 3124 3082 3071 3181 3269 3121 3117 3275 3185 3159 3207 3204 3211 3105 3189 3230 3131 3096 3125 3237 3197 3091 3136 3232 3233 3184 3250 3092 3343 3165 3190 3130 3165 3163 3238 3262 3263 3271 3129 3125 3187 3129 3151 3208 3102 3092 3246 3061 3288 3177 3154 3142 3156 3193 3164 3127 3234 3160 3230 3169 3250 3218 3204 3221 3230 3265 3141 3220 3139 3286 3210 3246 3138 3226 3313 3254 3219 3265 3248 3124 3243 3232 3218 3257 3214 3184 3315 3306 3357 3259 3271 3248 3439 3304 3209 3312 3280 3315 3389 3364 3369 3370 3316 3315 3238 3429 3407 3392 3440 3343 3339 3314 3460 3393 3335 3367 3437 3468 3524 3421 3325 3380 3385 3440 3393 3470 3387 3478 3415 3499 3516 3488 3555 3400 3588 3503 3401 3504 3474 3497 3492 3515 3595 3568 3627 3548 3462 3595 3495 3582 3605 3624 3594 3528 3599 3605 3806 3515 3729 3553 3564 3688 3644 3614 3689 3655 3595 3565 3615 3560 3444 3604 3672 3558 3659 3637 3613 3752 3748 3687 3812 3764 3614 3834 3786 3815 3856 3802 3715 3832 3882 3783 3869 3804 3961 3914 3727 4110 4059 3984 4117 4105 4224 4295 4302 4273 4410 4404 4615 4610 4780 4711 5018 4932 5146 4968 5159 5107 5302 5233 5376 5238 5277 5328 5280 5444 5431 5701 5621 5769 5944 6023 6134 6054 6264 6155 6389 6365 6251 6428 6497 6641 6645 6746 6648 6817 6610 6731 6836 6552 6499 6455 6260 6199 6173 5959 6017 5997 5961 6017 5995 6059 5908 6072 5931 6097 5968 5997 5927 6020 5915 6047 5736 5932 5739 5654 5714 5479 5291 5388 5320 5199 5009 5040 4804 4653 4580 4386 4417 4309 4122 4054 3879 3792 3831 3812 3747 3700 3608 3540 3476 3530 3462 3428 3424 3419 3498 3445 3380 3433 3444 3403 3444 3460 3345 3373 3263 3305 3355 3419 3359 3306 3359 3309 3299 3319 3255 3326 3335 3349 3237 3277 3273 3289 3332 3270 3245 3216 3234 3335 3209 3294 3285 3241 3243 3261 3228 3147 3176 3187 3273 3191 3283 3280 3254 3178 3221 3212 3224 3207 3150 3248 3206 3038 3173 3209 3204 3061 3117 3173 3144 3163 3237 3221 3169 3166 3044 3158 3135 3197 3143 3110 3147 3176 3276 3144 3185 3137 3192 3075 3192 3172 3204 3164 3141 3057 3174 3157 3178 3176 3226 3101 3179 3079 3165 3187 3202 3183 3137 3134 3072 3162 3207 3232 3236 3281 3266 3357 3188 3311 3272 3352 3322 3248 3342 3354 3354 3270 3239 3488 3337 3424 3315 3322 3375 3374 3471 3448 3392 3391 3268 3432 3435 3437 3484 3373 3515 3384 3487 3439 3483 3419 3386 3301 3360 3280 3348 3292 3241 3316 3321 3278 3217 3278 3094 3138 3110 3084 3183 3052 3152 3047 3173 3043 3081 3142 3086 3064 3156 2972 2996 3089 3035 3056 3017 2936 3035 3019 2967 3083 3062 3069 3039 2990 2977 3027 3120 3031 3014 3071 2979 3044 2966 3016 2895 2903 3011 3021 3047 2983 2989 3123 2864 2957 2906 2948 2876 2940 2980 2980 2999 2979 2993 3032 2945 2997 2910 2986 2933 3056 2957 3043 3023 3011 3021 2960 2983 3101 2994 2928 3028 2936 3033 2987 2940 2975 2875 2972 2975 2898 2879 2973 3116 2950 3102 2986 2935 2905 3051 3008 2949 3087 2985 2966 2923 3018 2985 2987 2917 2966 2989 2905 2885 2839 2899 2929 2975 2830 2856 2970 2951 2896 2904 2917 2969 2969 2852 2997 3003 2984 2904 2855 2893 2898 2970 2971 2888 2949 2899 2853 2911 2958 2975 2997 2937 2970 2862 2856 2904 2878 2884 2899 2896 2930 2942 2913 2929 2842 2902 2860 2943 2768 2794 2847 2904 2903 2920 2829 2951 2841 2884 2791 2902 2927 2919 2810 2851 2845 2792 2947 2879 2824 2888 2883 2799 2827 2873 2833 2874 2764 2888 2865 2804 2749 2967 2753 2876 2818 2851 2834 2869 2931 2801 2832 2863 2837 2823 2874 2828 2831 2919 2754 2752 2816 2881 2855 2752 2846 2885 2852 2811 2865 2813 2820 2787 2881 2853 2832 2721 2788 2909 2751 2790 2896 2724 2831 2786 2762 2753 2813 2808 2699 2798 2782 2727 2728 2922 2783 2873 2728 2768 2752 2687 2851 2763 2660 2737 2808 2752 2809 2768 2773 2826 2826 2752 2786 2826 2767 2785 2769 2848 2806 2716 2786 2808 2769 2840 2732 2784 2790 2679 2797 2865 2720 2715 2828 2833 2845 2755 2775 2857 2841 2673 2733 2802 2761 2776 2716 2848 2772 2861 2771 2775 2711 2748 2761 2781 2806 2802 2787 2793 2736 2716 2722 2743 2763 2738 2821 2795 2797 2728 2772 2798 2820 2721 2821 2770 2715 2651 2770 2787 2723 2829 2807 2851 2838 2809 2792 2774 2718 2695 2744 2693 2630 2776 2752 2740 2720 2756 2812 2803 2836 2708 2833 2739 2765 2776 2741 2774 2791 2834 2864 2709 2777 2776 2770 2784 2760 2708 2701 2927 2752 2755 2789 2793 2861 2792 2720 2779 2801 2771 2791 2751 2837 2844 2734 2823 2760 2770 2788 2739 2772 2778 2819 2807 2828 2732 2689 2710 2766 2810 2818 2752 2815 2791 2690 2867 2775 2795 2823 2732 2770 2779 2741 2740 2753 2732 2750 2750 2733 2745 2746 2750 2759 2802 2694 2788 2696 2734 2703 2860 2717 2734 2732 2600 2753 2698 2756 2665 2718 2652 2691 2670 2721 2674 2666 2802 2584 2750 2696 2720 2606 2763 2561 2727 2625 2657 2659 2640 2603 2548 2658 2629 2579 2613 2690 2666 2538 2595 2674 2677 2591 2684 2724 2622 2544 2595 2565 2606 2516 2565 2662 2539 2596 2556 2533 2453 2542 2581 2515 2513 2560 2526 2520 2482 2574 2528 2481 2496 2539 2552 2483 2445 2457 2463 2493 2602 2466 2503 2511 2487 2492 2488 2488 2485 2478 2420 2375 2460 2486 2545 2456 2526 2396 2414 2444 2403 2422 2382 2389 2364 2354 2496 2346 2431 2329 2446 2425 2412 2495 2446 2294 2370 2350 2329 2276 2382 2352 2395 2323 2337 2419 2295 2344 2344 2420 2336 2426 2311 2353 2385 2339 2274 2246 2354 2210 2247 2237 2297 2273 2306 2243 2333 2251 2188 2264 2315 2239 2200 2225 2247 2175 2300 2208 2263 2251 2286 2273 2269 2292 2177 2244 2177 2257 2206 2213 2223 2125 2197 2161 2241 2267 2172 2251 2107 2183 2215 2220 2213 2244 2177 2237 2174 2187 2204 2288 2217 2215 2240 2238 2129 2228 2168 2197 2199 2176 2199 2251 2298 2336 2225 2193 2284 2224 2279 2287 2280 2291 2336 2379 2331 2285 2319 2317 2378 2247 2313 2374 2307 2432 2377 2344 2322 2303 2331 2321 2466 2265 2336 2338 2423 2365 2466 2426 2368 2399 2433 2307 2426 2405 2405 2389 2349 2319 2265 2288 2289 2316 2349 2272 2241 2315 2260 2270 2316 2170 2235 2232 2197 2216 2265 2201 2285 2225 2078 2169 2261 2208 2232 2241 2240 2238 2154 2246 2126 2190 2203 2174 2196 2088 2145 2215 2121 2176 2146 2178 2190 2215 2143 2156 2199 2088 2146 2212 2162 2157 2177 2127 2160 2127 2224 2101 2183 2120 2135 2095 2141 2191 2129 2158 2221 2157 2199 2179 2227 2115 2136 2220 2188 2178 2216 2169 2197 2164 2225 2269 2188 2141 2273 2172 2084 2166 2180 2220 2177 2274 2227 2242 2193 2109 2199 2166 2203 2235 2181 2143 2240 2268 2228 2337 2320 2383 2286 2378 2212 2280 2256 2249 2228 2251 2357 2292 2386 2321 2289 2325 2349 2329 2308 2279 2308 2316 2359 2352 2308 2262 2359 2191 2251 2299 2125 2325 2247 2234 2315 2212 2373 2207 2236 2184 2255 2205 2221 2156 2199 2149 2210 2132 2228 2184 2192 2141 2075 2109 2186 2003 2058 2130 2057 2057 2025 2152 2185 2097 2147 2051 2066 2058 2034 2074 2114 2137 2085 2045 2067 2081 2120 2038 2032 2022 2065 2071 1998 2021 1982 2036 2096 1969 2032 1950 1971 1975 1947 1903 2001 1973 2035 2053 2045 1964 2002 2034 1951 2013 1992 2082 2060 1902 1911 2036 2025 1981 1977 1937 1939 2038 1930 2043 1972 2003 1976 1976 1924 1832 1972 1919 1922 2003 1937 1975 1942 1995 1954 1914 1908 2005 1936 1798 1917 1909 1882 1871 1910 1892 1892 1852 1931 1825 1793 1857 1875 1915 1837 1865 1837 1845 1885 1880 1814 1833 1817 1921 1814 1782 1793 1797 1800 1883 1806 1815 1818 1812 1785 1893 1846 1823 1834 1827 1773 1806 1853 1814 1828 1747 1781 1893 1802 1778 1789 1816 1771 1830 1813 1763 1761 1776 1839 1894 1878 1744 1748 1790 1726 1788 1764 1818 1773 1752 1785 1788 1729 1759 1807 1711 1737 1829 1737 1769 1738 1696 1712 1727 1842 1738 1844 1789 1728 1725 1738 1756 1695 1716 1690 1726 1777 1796 1761 1802 1770 1823 1811 1851 1786 1871 1874 1890 1869 1933 1951 2038 2067 2020 2008 1976 1976 2048 2033 2030 2066 2045 2056 2105 2122 2030 2059 2037 2021 2067 2006 2098 2109 2054 2100 2093 2121 2118 2004 2037 2155 2158 2129 2107 2146 2087 2081 2146 2094 2073 2065 2106 2037 2111 2038 2101 2075 2056 2084 2148 2101 2010 2005 2087 2167 2072 2060 2031 2001 2123 2029 1936 2076 1950 1939 1947 1899 1856 1905 1798 1850 1853 1779 1840 1916 1768 1805 1726 1835 1808 1809 1793 1762 1740 1657 1816 1828 1744 1753 1791 1816 1803 1836 1792 1858 1828 1848 1829 1851 1912 1867 1939 1959 1957 1983 2080 2077 2272 2259 2262 2339 2471 2505 2715 2837 3058 3248 3455 3596 3841 3860 3842 3962 4043 4118 4192 4265 4099 4153 4158 4067 4025 3912 3974 3841 3929 3747 3831 3847 3781 3670 3748 3778 3740 3700 3617 3796 3599 3514 3458 3467 3397 3462 3227 3152 3084 3169 2966 2909 2875 2795 2888 2812 2593 2534 2573 2479 2481 2434 2341 2327 2307 2195 2271 2171 2166 2143 2142 2019 2019 2025 2042 1980 1937 1959 1818 1855 1907 1756 1815 1800 1782 1699 1781 1668 1785 1699 1739 1684 1734 1717 1703 1681 1672 1683 1690 1660 1632 1676 1630 1612 1690 1636 1655 1671 1624 1642 1604 1669 1675 1589 1602 1608 1679 1669 1659 1605 1668 1635 1628 1642 1592 1578 1584 1615 1625 1623 1597 1621 1661 1618 1567 1584 1658 1674 1581 1576 1573 1610 1542 1626 1632 1586 1538 1536 1584 1569 1631 1555 1516 1541 1571 1474 1471 1537 1605 1559 1540 1551 1549 1588 1492 1569 1524 1573 1599 1501 1503 1586 1592 1543 1412 1602 1522 1524 1544 1588 1569 1521 1530 1507 1505 1560 1546 1530 1439 1507 1542 1541 1566 1540 1500 1527 1481 1522 1516 1498 1511 1561 1578 1491 1506 1563 1548 1459 1602 1511 1461 1496 1544 1497 1450 1498 1462 1535 1518 1543 1481 1548 1541 1502 1565 1526 1521 1537 1569 1560 1579 1479 1563 1543 1504 1508 1578 1546 1582 1562 1544 1663 1550 1630 1535 1495 1523 1574 1484 1447 1554 1558 1586 1500 1568 1544 1597 1525 1521 1562 1534 1595 1530 1604 1546 1485 1580 1578 1559 1562 1582 1601 1668 1568 1532 1503 1572 1519 1561 1528 1524 1603 1588 1550 1522 1525 1524 1512 1534 1525 1497 1621 1616 1497 1485 1530 1523 1497 1571 1528 1527 1582 1584 1503 1491 1535 1530 1585 1545 1492 1559 1516 1469 1477 1497 1549 1546 1542 1507 1507 1507 1520 1566 1487 1509 1506 1578 1463 1547 1522 1504 1483 1481 1537 1547 1534 1588 1519 1498 1485 1560 1482 1500 1502 1589 1503 1532 1540 1483 1526 1535 1502 1529 1570 1543 1624 1539 1562 1578 1602 1588 1542 1601 1520 1484 1499 1518 1510 1510 1540 1612 1646 1546 1599 1608 1561 1601 1530 1546 1592 1589 1538 1611 1600 1547 1615 1561 1531 1576 1556 1626 1524 1644 1609 1546 1584 1583 1544 1596 1575 1518 1594 1566 1641 1573 1608 1545 1637 1622 1700 1706 1607 1620 1641 1650 1675 1632 1669 1677 1675 1656 1743 1641 1683 1703 1706 1779 1828 1781 1702 1793 1845 1806 1812 1860 1874 1980 1949 2049 2074 2110 2221 2214 2367 2563 2690 2988 2908 3218 3298 3538 3624 3718 3880 4174 4197 4248 4487 4530 4625 4730 4876 4974 5172 5086 5068 5130 5255 5303 5322 5289 5451 5430 5644 5541 5565 5587 5654 5443 5725 5520 5439 5198 5314 5120 5263 5230 5177 4991 5062 4830 4785 4608 4499 4359 4287 4176 4241 4142 4123 4013 4120 4090 4042 4060 3987 3932 3972 3903 3876 3778 3651 3625 3624 3526 3428 3478 3273 3236 2993 2927 2860 2748 2693 2654 2577 2388 2322 2219 2198 2158 1961 2104 1972 1972 1873 1976 1796 1854 1834 1728 1794 1728 1649 1669 1737 1790 1726 1797 1754 1663 1691 1767 1744 1804 1729 1797 1888 1839 1846 1901 1844 1943 1960 1911 2071 2028 2079 2171 2276 2170 2178 2188 2197 2340 2321 2392 2358 2467 2455 2383 2441 2393 2457 2505 2506 2444 2475 2399 2393 2463 2285 2401 2367 2416 2362 2279 2254 2240 2278 2195 2157 2093 2127 2055 2080 1972 2033 1928 1913 1950 1837 1844 1800 1876 1703 1723 1694 1710 1725 1582 1737 1726 1700 1563 1588 1525 1572 1603 1589 1480 1496 1571 1538 1554 1548 1487 1517 1561 1577 1531 1521 1442 1506 1425 1459 1447 1429 1465 1501 1391 1531 1444 1382 1448 1423 1504 1467 1447 1486 1386 1504 1523 1478 1488 1507 1429 1459 1376 1458 1461 1471 1485 1468 1447 1451 1447 1442 1487 1463 1456 1419 1445 1426 1430 1433 1479 1442 1431 1379 1395 1496 1410 1456 1506 1424 1444 1435 1436 1416 1489 1445 1455 1428 1452 1361 1393 1427 1443 1478 1516 1449 1441 1435 1399 1364 1507 1378 1401 1425 1414 1453 1455 1434 1480 1447 1399 1419 1401 1417 1468 1461 1448 1468 1426 1431 1479 1413 1466 1425 1406 1419 1432 1440 1435 1387 1468 1414 1501 1532 1460 1424 1360 1377 1374 1410 1419 1478 1438 1475 1460 1474 1514 1441 1477 1449 1437 1507 1403 1452 1431 1464 1467 1372 1448 1576 1503 1468 1529 1488 1516 1536 1459 1467 1507 1440 1531 1503 1562 1540 1343 1427 1477 1433 1397 1514 1428 1429 1439 1413 1404 1401 1398 1495 1371 1356 1456 1389 1414 1440 1401 1334 1374 1378 1349 1331 1348 1344 1337 1368 1374 1412 1319 1385 1385 1390 1352 1418 1394 1343 1319 1362 1274 1321 1378 1317 1255 1338 1340 1349 1363 1344 1453 1322 1321 1365 1333 1403 1359 1324 1313 1367 1404 1437 1347 1338 1324 1405 1356 1376 1360 1393 1373 1361 1423 1374 1424 1395 1414 1481 1366 1465 1481 1388 1441 1428 1430 1391 1466 1453 1504 1366 1451 1460 1492 1429 1472 1562 1491 1445 1465 1439 1433 1459 1497 1488 1469 1447 1423 1510 1432 1378 1438 1423 1405 1393 1338 1402 1390 1463 1404 1407 1385 1287 1386 1377 1295 1329 1311 1339 1344 1263 1248 1283 1291 1276 1283 1247 1332 1241 1293 1280 1278 1247 1236 1267 1248 1271 1101 1276 1305 1288 1241 1265 1305 1280 1238 1313 1230 1220 1228 1233 1192 1309 1183 1218 1235 1218 1208 1190 1256 1214 1245 1167 1254 1253 1185 1245 1229 1192 1232 1251 1259 1307 1192 1297 1249 1230 1217 1263 1206 1197 1269 1244 1224 1211 1274 1161 1255 1219 1261 1207 1252 1212 1278 1204 1224 1206 1222 1283 1214 1231 1197 1245 1152 1198 1144 1250 1211 1201 1302 1209 1221 1305 1249 1191 1309 1209 1216 1187 1168 1179 1163 1246 1234 1159 1194 1225 1296 1251 1188 1180 1239 1211 1324 1188 1213 1177 1251 1221 1255 1200 1235 1162 1256 1257 1213 1176 1219 1253 1153 1216 1304 1245 1255 1291 1220 1231 1196 1210 1221 1217 1238 1155 1174 1274 1257 1211 1187 1166 1226 1207 1244 1186 1198 1250 1246 1194 1190 1192 1241 1164 1210 1233 1210 1138 1227 1256 1209 1156 1215 1232 1206 1245 1206 1217 1124 1237 1182 1219 1167 1200 1197 1217 1228 1211 1226 1219 1207 1213 1177 1239 1172 1200 1179 1194 1179 1188 1190 1168 1165 1247 1219 1227 1203 1184 1203 1218 1168 1218 1260 1185 1230 1200 1141 1244 1235 1240 1194 1164 1237 1143 1163 1192 1173 1180 1166 1191 1197 1206 1197 1162 1217 1210 1215 1208 1092 1159 1182 1231 1115 1231 1183 1166 1189 1160 1192 1253 1133 1176 1196 1154 1171 1190 1223 1218 1193 1193 1202 1200 1234 1206 1192 1154 1190 1185 1269 1174 1130 1183 1238 1296 1181 1256 1226 1191 1182 1159 1092 1194 1061 1107 1188 1213 1226 1198 1172 1173 1239 1240 1244 1192 1246 1270 1190 1261 1181 1243 1234 1313 1316 1245 1264 1264 1246 1271 1274 1309 1307 1284 1311 1277 1274 1251 1266 1209 1239 1217 1246 1317 1279 1265 1287 1285 1280 1261 1244 1268 1288 1219 1165 1219 1234 1171 1267 1171 1186 1201 1169 1250 1170 1198 1188 1187 1167 1210 1203 1151 1194 1216 1204 1146 1182 1193 1158 1249 1212 1178 1193 1160 1162 1208 1162 1181 1278 1209 1208 1167 1184 1157 1168 1134 1149 1182 1186 1208 1234 1221 1170 1215 1197 1241 1204 1117 1179 1142 1193 1081 1217 1195 1178 1128 1126 1136 1246 1211 1165 1171 1112 1175 1057 1177 1176 1155 1151 1143 1131 1143 1139 1166 1209 1073 1138 1113 1111 1118 1135 1151 1126 1154 1155 1142 1157 1122 1133 1205 1164 1116 1120 1159 1195 1134 1122 1197 1144 1117 1184 1104 1158 1153 1045 1104 1132 1104 1155 1133 1218 1158 1106 1060 1181 1176 1167 1178 1098 1094 1146 1136 1137 1107 1163 1069 1179 1102 1098 1203 1173 1181 1121 1169 1168 1141 1082 1139 1210 1175 1095 1173 1237 1207 1153 1122 1095 1170 1167 1154 1161 1114 1119 1121 1092 1131 1107 1190 1131 1154 1112 1160 1117 1091 1168 1166 1137 1173 1118 1146 1165 1108 1136 1189 1126 1174 1167 1216 1163 1132 1145 1134 1173 1157 1232 1099 1155 1172 1152 1135 1171 1123 1143 1193 1263 1252 1277 1218 1206 1285 1250 1326 1275 1331 1299 1309 1304 1378 1355 1324 1424 1386 1353 1450 1422 1384 1508 1433 1514 1473 1506 1474 1467 1463 1494 1486 1573 1496 1550 1515 1521 1540 1465 1461 1427 1443 1527 1435 1394 1452 1508 1421 1485 1431 1413 1386 1422 1400 1406 1372 1458 1411 1381 1430 1348 1424 1354 1429 1401 1403 1438 1379 1341 1380 1337 1327 1321 1351 1262 1241 1257 1291 1213 1255 1295 1269 1321 1211 1225 1214 1242 1209 1177 1184 1207 1166 1215 1235 1147 1172 1120 1165 1178 1147 1177 1189 1184 1128 1178 1180 1232 1165 1105 1212 1199 1125 1148 1109 1187 1204 1162 1261 1088 1199 1204 1226 1141 1212 1185 1192 1159 1239 1216 1198 1136 1217 1184 1140 1219 1118 1256 1150 1225 1233 1209 1261 1180 1194 1242 1267 1181 1226 1207 1308 1241 1307 1290 1302 1248 1288 1342 1250 1290 1235 1270 1287 1276 1334 1273 1255 1269 1247 1343 1180 1226 1321 1318 1287 1217 1270 1228 1242 1325 1257 1281 1260 1225 1217 1203 1269 1204 1258 1233 1159 1251 1227 1235 1194 1221 1161 1194 1165 1175 1172 1157 1162 1157 1233 1167 1193 1196 1149 1185 1207 1192 1152 1169 1186 1101 1199 1209 1182 1190 1171 1168 1094 1168 1155 1221 1196 1208 1178 1240 1173 1185 1126 1240 1183 1171 1244 1166 1141 1181 1232 1216 1201 1153 1229 1216 1238 1222 1225 1172 1261 1212 1231 1194 1178 1245 1158 1230 1179 1195 1182 1194 1112 1146 1169 1126 1188 1143 1133 1165 1181 1140 1145 1153 1182 1169 1209 1208 1157 1214 1148 1216 1147 1160 1178 1189 1133 1130 1134 1128 1144 1205 1158 1098 1117 1231 1143 1168 1145 1186 1097 1160 1218 1205 1098 1175 1124 1218 1160 1188 1179 1098 1195 1116 1149 1164 1141 1244 1131 1177 1083 1153 1165 1173 1112 1212 1144 1227 1158 1164 1158 1112 1098 1152 1194 1123 1203 1144 1191 1144 1144 1131 1227 1116 1155 1145 1167 1150 1150 1153 1128 1182 1155 1166 1215 1211 1158 1176 1180 1186 1112 1156 1145 1160 1076 1171 1203 1151 1178 1190 1181 1242 1261 1165 1232 1214 1229 1171 1169 1206 1206 1205 1261 1245 1188 1227 1177 1253 1199 1194 1226 1237 1205 1259 1216 1188 1312 1305 1320 1332 1363 1379 1413 1478 1561 1512 1619 1607 1706 1827 1857 1908 1948 2050 2110 2127 2129 2187 2144 2218 2341 2269 2499 2496 2584 2683 2594 2820 2787 2811 2853 2892 2926 3046 3031 2933 2988 3001 3046 2970 2936 2984 2921 2921 2832 2904 2948 2989 2922 2885 2783 2718 2716 2636 2605 2486 2586 2419 2337 2372 2288 2167 2116 2075 2030 1998 1926 1804 1818 1756 1645 1646 1717 1513 1579 1598 1478 1444 1466 1491 1363 1350 1379 1387 1283 1293 1279 1367 1398 1363 1305 1403 1367 1353 1332 1346 1389 1394 1396 1358 1341 1384 1421 1457 1422 1456 1384 1472 1415 1403 1418 1324 1371 1391 1394 1411 1371 1332 1313 1331 1334 1324 1313 1217 1252 1295 1233 1325 1265 1178 1205 1261 1197 1181 1217 1228 1149 1172 1242 1223 1225 1239 1239 1236 1186 1137 1209 1189 1214 1222 1190 1181 1205 1254 1232 1347 1242 1219 1209 1273 1318 1236 1301 1311 1335 1347 1332 1357 1375 1324 1485 1356 1333 1416 1321 1406 1344 1448 1434 1427 1449 1396 1433 1391 1398 1394 1557 1376 1463 1347 1445 1401 1422 1390 1411 1407 1441 1328 1412 1519 1531 1539 1524 1612 1551 1524 1494 1583 1542 1532 1554 1590 1665 1701 1673 1645 1609 1687 1603 1649 1691 1737 1759 1664 1671 1719 1753 1697 1701 1698 1725 1689 1730 1594 1709 1660 1666 1693 1671 1629 1635 1618 1688 1595 1555 1608 1606 1576 1587 1586 1565 1492 1538 1528 1529 1470 1569 1476 1537 1507 1487 1494 1454 1517 1432 1475 1468 1423 1459 1451 1347 1421 1431 1410 1444 1304 1394 1374 1309 1349 1338 1357 1261 1258 1196 1301 1313 1218 1200 1252 1277 1221 1189 1221 1236 1275 1213 1185 1199 1121 1159 1127 1141 1142 1144 1189 1218 1209 1144 1225 1123 1198 1116 1189 1167 1223 1174 1164 1184 1192 1160 1199 1133 1133 1133 1202 1156 1189 1232 1260 1122 1195 1158 1185 1280 1172 1195 1226 1220 1165 1197 1195 1199 1156 1231 1170 1182 1193 1181 1141 1141 1058 1120 1049 1171 1138 1099 1137 1147 1137 1102 1201 1080 1130 1166 1106 1118 1087 1092 1037 1074 1045 1046 1071 1124 1069 1074 1132 1053 1101 1027 1124 1061 1058 1099 1083 1097 1080 1073 1088 1084 1067 1129 1118 1106 1079 1014 1077 1071 1059 1096 1092 1104 1155 1063 1090 1077 1072 1083 1070 1106 1089 1135 1155 1147 1029 1124 1129 1042 1058 1146 1189 1072 1111 1108 1100 1098 1098 1141 1123 1148 1163 1127 1130 1154 1143 1137 1189 1181 1182 1234 1170 1206 1182 1220 1236 1185 1231 1225 1196 1259 1264 1279 1313 1267 1215 1319 1288 1304 1244 1297 1269 1291 1247 1300 1272 1239 1271 1259 1250 1193 1254 1236 1212 1185 1235 1238 1216 1244 1230 1180 1121 1161 1104 1117 1101 1138 1198 1155 1115 1160 1069 1138 1145 1096 1069 1162 1117 1131 1075 1071 1029 1058 1054 1034 1091 1081 1121 1061 1076 1058 1058 1086 1111 1103 1117 1066 1054 1038 1025 1023 1078 1049 1044 1029 1109 1056 1037 1082 1035 1014 1029 1045 1065 1045 1086 1042 1037 1036 998 974 1050 1019 1069 1014 1000 1067 1035 1055 1059 1016 1073 1128 1043 1042 1076 1042 1065 983 1014 1028 1044 1004 1042 1040 1026 1022 1042 975 1059 1047 1034 1010 1030 1003 994 1003 1045 1022 1041 990 1049 1056 1036 1041 1045 1034 972 1019 968 1038 990 993 1008 1026 1028 997 1043 985 1104 1035 1029 1003 1032 1109 1023 1008 954 992 950 1002 1020 975 1030 1010 989 1060 1003 998 1015 1072 1074 1045 1032 1066 1106 1081 1037 963 986 1035 1005 1003 1032 1099 1019 1125 1035 1027 1038 1054 1069 1017 1095 1022 1050 992 1075 1096 1031 1041 1044 1012 1021 1008 1037 1043 1005 1060 1037 1059 1096 1064 929 1067 991 1044 998 989 1031 1041 1039 1042 1018 1014 1039 1011 1022 1067 1012 1059 1000 1056 1067 1055 1053 1014 1083 1012 1008 1016 1013 1012 1015 1023 957 1103 988 979 1048 1022 1019 1030 1025 1029 1045 995 1031 996 1029 1065 1011 1024 1017 1087 939 978 1029 986 998 1018 1052 987 1024 1008 981 1000 1066 956 977 1006 978 968 1024 980 976 1050 934 995 1006 981 1021 1034 1009 989 1038 991 1022 1012 964 1074 1037 987 990 1019 996 961 975 1017 1021 975 1012 1004 973 959 1031 957 1050 989 1006 995 1002 1038 1032 1001 988 1013 938 1006 926 968 957 988 1044 977 1014 974 995 1015 1015 1029 1022 1028 984 1029 1001 991 1005 969 990 969 986 1009 979 1034 947 974 928 970 1001 953 1023 1007 950 1071 978 978 974 1042 974 993 1064 1055 1058 1043 1019 1053 1020 1066 1035 985 1026 1077 1053 1075 1053 1026 1058 980 1038 1039 1055 1037 1085 985 1004 966 1025 1068 1050 985 1114 1058 1066 1068 1046 1035 1044 1034 1055 1062 1067 1040 1035 1030 1078 1077 1096 1101 1113 1115 1088 1199 1132 1232 1244 1277 1298 1321 1397 1402 1407 1423 1420 1415 1387 1445 1455 1519 1460 1469 1554 1568 1524 1655 1579 1609 1631 1575 1598 1608 1566 1599 1597 1588 1555 1529 1506 1431 1472 1519 1498 1417 1335 1368 1302 1313 1337 1313 1274 1292 1299 1288 1255 1236 1220 1239 1205 1219 1204 1185 1182 1130 1211 1174 1145 1150 1127 1129 1090 1140 1052 1067 1125 1112 1011 1100 1033 1087 1050 1068 1046 1097 1018 1045 1082 1039 1074 1039 1008 1089 1011 1040 1062 1035 1011 1030 1086 1039 1051 1038 1069 1022 1013 1071 1056 1059 959 1056 1047 1057 1080 1040 1035 1068 1053 1013 1019 1005 1006 986 986 1060 1001 1005 952 1039 975 1019 1015 1014 1068 978 1003 977 1024 992 937 1016 987 969 1013 1048 1030 990 1012 1021 1012 997 1014 970 1072 1021 939 1077 974 973 1047 974 1000 1049 1005 1065 997 1043 1064 1028 1031 1097 1036 1059 1006 1070 1006 1048 996 1031 1064 1056 1015 1020 1041 1028 1036 1002 1015 1019 1065 1055 1008 1002 1006 1086 1060 1031 1049 994 1048 1025 1011 1021 1001 1053 1006 1036 1000 990 1004 1017 1080 1041 1013 1056 1059 1056 1003 1077 1036 1022 1053 1021 964 1008 1088 1009 1005 1010 1073 1002 1016 985 953 979 982 1005 1036 1008 930 1048 1001 954 1052 968 1007 1055 996 1095 998 1045 1033 982 1053 1052 1017 1028 1028 1046 1033 1049 991 1044 1047 997 1031 1041 1039 1029 1052 1061 1032 1050 1096 1052 1083 1067 1062 1090 1139 1162 1177 1222 1257 1164 1253 1239 1286 1312 1377 1334 1394 1274 1376 1415 1416 1399 1402 1439 1446 1389 1416 1493 1487 1411 1513 1458 1382 1378 1441 1519 1477 1465 1462 1472 1414 1393 1417 1400 1363 1399 1361 1308 1369 1402 1258 1367 1257 1224 1230 1216 1261 1294 1186 1249 1243 1174 1212 1155 1201 1187 1107 1176 1139 1177 1149 1146 1140 1092 1155 1177 1162 1170 1141 1195 1162 1199 1161 1157 1143 1185 1194 1182 1205 1216 1164 1197 1171 1159 1096 1223 1201 1175 1115 1169 1086 1164 1150 1087 1118 1116 1095 1141 1094 1106 1027 1026 1062 1087 1065 1035 1069 989 1061 986 1006 1041 1018 1071 1003 987 1031 1006 993 1009 997 993 1008 1064 1046 1000 1026 1036 983 1074 1007 948 915 1042 1051 1005 1059 1066 1064 1052 992 955 1014 1121 1012 1010 1003 979 985 984 1008 1050 1029 1046 1086 1010 1063 978 1003 1078 1095 1008 974 1074 1032 1154 1075 1014 1076 1152 1098 1046 1083 1112 1046 1072 1099 1062 1070 1032 1066 1086 1142 1126 1095 1049 1053 1135 1006 1148 1074 1106 1044 1048 1085 1083 1079 1055 1080 1091 1072 1091 1140 1066 1110 1064 1050 1109 1090 1090 1078 1040 1126 1086 1141 1140 1094 1088 1122 1085 1129 1124 1162 1155 1133 1162 1187 1126 1173 1142 1179 1201 1122 1147 1186 1209 1131 1178 1141 1192 1226 1205 1089 1160 1205 1151 1160 1162 1171 1181 1168 1134 1177 1161 1119 1077 1137 1084 1122 1081 1119 1102 1114 1049 1068 1084 1075 1039 1003 1076 1093 1058 1120 1049 1066 1068 1094 1059 1131 1085 1070 1078 1010 1116 1071 1063 1092 1042 1049 991 1040 1027 1039 1044 1041 1027 1070 1040 974 1050 1033 1013 1011 1066 1046 1082 1135 994 991 1043 969 944 983 1016 1006 1024 961 988 948 1003 997 992 968 926 958 946 1026 920 931 998 976 983 939 935 968 986 997 1003 896 1002 962 966 966 1012 986 998 937 889 947 997 978 965 1002 969 985 955 965 930 988 930 1032 961 979 942 1002 904 1019 979 980 974 929 933 1005 921 965 979 982 995 992 1002 1004 921 1037 964 920 1002 970 984 966 994 977 1036 987 961 1018 892 941 989 1012 960 986 1015 988 969 1005 1015 981 941 962 995 1010 1021 936 1024 964 982 972 1008 992 985 1015 976 947 956 972 991 935 1022 980 978 980 948 933 923 1020 1005 999 1033 940 1023 958 983 956 973 969 952 909 920 1020 981 947 993 985 923 946 936 940 932 956 925 947 983 970 949 940 953 924 944 973 920 948 953 941 1004 971 981 991 953 976 966 955 912 957 938 922 936 949 865 885 964 971 951 929 900 944 923 926 933 915 916 960 929 944 971 941 956 946 964 957 976 901 857 914 893 889 952 906 931 943 960 976 900 909 914 897 956 897 904 917 1004 914 927 961 902 910 899 895 946 968 969 889 948 931 975 948 975 917 933 965 1030 950 977 931 950 915 902 977 958 958 945 925 943 953 869 933 1036 921 1009 981 938 907 970 933 980 913 1049 975 920 917 944 912 969 914 925 955 945 984 907 960 971 911 941 964 917 958 925 957 927 974 957 949 975 899 862 909 905 989 996 956 944 946 950 922 925 928 908 934 923 925 948 949 937 944 920 973 903 886 931 928 945 943 891 942 914 895 906 925 940 931 906 848 891 845 881 915 897 911 891 962 929 899 920 940 868 983 939 881 924 910 917 887 935 953 896 902 908 892 965 914 914 980 947 922 895 905 912 896 870 898 877 919 872 879 917 906 901 923 885 899 903 944 865 894 883 879 958 929 934 938 889 904 925 912 946 893 919 890 891 901 966 883 919 851 963 918 940 880 909 898 907 907 895 917 928 923 946 924 921 943 943 936 926 996 951 929 932 908 891 910 928 937 904 959 958 943 971 961 996 941 947 910 925 922 954 945 974 953 929 896 994 979 942 973 882 934 992 993 970 927 905 951 966 968 940 960 942 979 973 984 940 984 929 951 934 926 953 920 948 981 964 929 960 883 976 965 1045 956 998 941 930 940 955 911 940 957 965 904 939 904 991 921 910 942 882 956 942 902 955 885 872 926 921 942 911 882 936 871 913 845 911 926 915 923 940 920 885 976 892 938 887 906 933 863 946 929 949 882 949 943 938 914 879 915 853 945 862 889 893 954 887 877 898 847 928 939 851 963 876 913 957 912 927 954 955 924 866 968 869 947 877 930 917 858 859 925 912 921 907 864 874 898 893 890 916 884 909 861 911 949 878 985 869 907 983 893 919 864 903 914 894 941 854 947 855 924 893 960 910 890 914 908 942 926 911 939 923 908 893 963 893 871 901 898 889 919 915 936 907 883 877 905 892 875 978 885 898 915 964 931 926 948 896 941 888 927 914 964 897 996 963 977 930 898 940 891 854 911 886 953 885 959 928 936 943 954 835 945 947 958 972 950 950 930 956 927 915 948 941 919 910 966 925 929 954 922 954 1000 995 976 977 1008 931 909 975 918 974 1019 967 943 1040 973 942 1024 994 988 1009 990 990 1014 998 1040 1062 1000 1051 1072 1014 1052 1013 1001 1027 1033 1025 1067 1071 1122 1091 1050 1034 1059 1134 1053 1079 1042 993 1044 1022 1028 988 1073 1033 1015 1045 1038 1085 1076 1044 1067 1074 1037 1106 1058 1014 974 1005 1014 1008 1027 1037 951 1057 1051 968 934 966 966 975 915 988 930 900 924 911 977 938 993 957 912 980 885 970 952 947 935 893 889 930 1040 990 976 904 921 955 979 957 937 1003 990 1003 979 990 972 977 953 1025 969 1003 985 980 1000 999 1026 1007 1004 976 1025 993 1001 990 962 988 984 981 1000 940 948 872 932 941 945 974 969 954 982 939 967 963 916 896 953 919 956 974 960 903 937 931 934 960 901 973 893 942 936 893 896 917 922 920 917 939 897 844 916 896 867 897 894 926 888 893 935 948 950 860 910 928 904 943 880 931 872 935 954 935 861 973 885 927 874 893 946 866 882 834 914 901 900 901 894 879 948 873 870 962 896 882 900 963 888 887 989 876 875 919 918 912 887 885 874 864 918 859 891 882 922 896 908 860 868 855 860 906 877 894 871 920 972 872 909 884 922 903 917 953 891 956 935 890 967 945 907 935 874 936 925 935 852 881 882 893 922 942 874 877 936 945 908 923 909 880 960 902 918 889 875 936 910 910 910 893 952 975 977 919 1001 963 984 934 949 939 950 908 967 906 959 936 933 984 967 937 996 972 994 949 935 958 946 1004 931 947 961 956 990 947 978 950 947 980 955 935 941 950 917 910 943 941 920 907 946 902 961 909 924 907 939 942 940 913 961 964 890 912 899 941 943 890 910 905 943 885 885 902 860 944 937 921 895 903 936 943 932 880 903 892 957 945 927 870 936 905 946 880 934 957 931 897 875 886 891 893 925 912 957 914 869 946 847 950 929 877 890 896 942 895 867 910 845 895 889 916 941 842 899 850 923 900 875 881 883 878 905 893 923 901 929 845 892 926 945 901 873 934 927 909 925 901 927 943 902 863 932 940 905 925 904 909 857 876 897 900 854 936 916 890 896 898 908 886 957 857 978 897 897 871 878 886 848 896 938 897 847 954 919 913 827 907 925 921 845 856 909 898 890 917 890 867 939 880 861 943 892 929 898 891 951 958 919 917 903 887 878 913 949 871 936 892 857 878 908 944 922 845 882 904 886 881 898 931 916 887 904 915 936 910 941 883 954 853 930 842 851 858 930 971 902 930 867 890 885 893 902 863 921 940 845 880 847 906 847 881 947 882 933 892 902 904 891 905 884 859 846 919 938 964 933 895 878 914 849 899 936 869 906 858 890 845 888 917 895 851 887 879 894 877 877 862 901 872 845 906 968 899 914 912 916 897 890 912 858 858 891 910 850 884 900 938 923 874 907 865 900 915 917 878 863 932 961 883 902 885 841 881 884 907 936 850 865 808 927 910 902 937 874 876 859 871 873 953 914 874 897 909 903 848 882 801 898 937 899 903 831 844 921 870 871 871 885 930 899 946 864 891 854 893 868 906 913 847 907 965 884 881 853 867 930 940 892 891 832 870 913 883 893 907 918 891 939 851 916 876 938 883 943 920 879 925 903 918 895 909 935 872 954 900 961 906 877 903 879 913 963 913 938 948 936 940 919 948 882 940 884 959 919 913 958 991 933 967 899 945 938 894 1022 957 1005 953 944 929 954 936 921 966 982 974 997 970 971 1057 999 1009 1047 979 1006 1035 1014 1090 1058 1066 1017 1089 1061 1050 1021 1062 1001 1048 1078 1017 1016 1078 1022 1019 1033 1030 1077 1033 1059 1050 1067 1063 1007 1057 1034 988 1039 1030 1036 956 1005 977 981 988 1058 991 1038 999 944 993 974 1057 1006 931 980 947 975 998 976 1007 996 954 953 987 915 930 947 995 933 881 935 931 926 964 936 943 949 936 917 952 948 965 927 950 943 899 885 951 957 920 949 939 938 911 878 965 889 948 908 877 910 961 986 881 914 877 883 941 948 960 954 911 932 941 958 920 908 918 912 929 914 920 931 875 923 944 958 897 869 910 923 927 922 871 884 912 905 939 941 952 949 949 919 886 937 904 898 918 904 983 965 925 927 926 914 937 901 940 912 888 917 874 891 926 949 917 969 980 911 876 935 911 939 979 958 920 910 940 921 936 869 922 936 879 923 858 892 909 972 923 924 1011 891 970 939 977 914 963 964 918 936 942 1014 966 916 898 939 936 970 938 955 906 951 965 891 924 887 939 960 1015 883 944 935 959 977 1004 1058 948 1004 1043 998 985 1038 1049 1029 1076 1088 1214 1123 1174 1113 1189 1213 1174 1256 1321 1230 1201 1272 1245 1253 1230 1216 1291 1242 1263 1282 1284 1360 1301 1339 1316 1316 1283 1345 1284 1316 1291 1299 1292 1273 1290 1246 1265 1274 1321 1187 1153 1235 1234 1261 1232 1230 1233 1210 1188 1204 1087 1214 1207 1201 1172 1165 1143 1103 1183 1113 1114 1066 1078 1139 1108 1106 1126 1054 1076 1133 1111 1072 1068 1073 1084 1086 1046 1008 1070 1101 1057 1060 1073 1062 1076 1075 1092 1068 1032 1023 1111 989 1085 996 1056 1014 1070 985 1072 1062 1078 987 987 989 999 1014 1069 978 992 1014 988 1003 951 1034 968 1002 1020 918 984 1018 924 1013 977 997 960 1003 964 1006 951 959 962 933 910 954 984 995 985 939 952 910 880 953 965 904 938 931 961 876 977 945 916 930 936 934 927 980 983 965 915 964 951 968 899 913 963 1004 936 963 980 1000 987 946 916 1020 951 958 957 943 921 940 958 924 968 958 955 894 960 882 1028 977 958 933 931 957 933 966 985 988 931 959 895 931 940 962 874 912 927 960 944 954 914 890 904 937 966 877 932 904 974 957 945 934 882 966 940 981 962 957 953 916 907 938 969 1001 931 907 898 948 940 983 938 885 936 917 895 895 984 916 930 959 889 901 923 898 840 942 916 937 950 940 945 921 967 909 1000 946 936 950 931 978 942 933 937 941 940 937 939 953 960 942 906 988 945 927 946 936 909 948 920 915 1041 962 979 1012 1002 909 946 978 952 958 963 992 1054 994 1029 1011 1022 1027 966 1036 987 966 950 947 980 989 1052 923 996 1045 987 1025 1005 971 1025 1060 1053 1011 1017 1009 987 1019 960 991 1013 976 1008 950 1038 1029 979 986 1035 1003 1013 976 1014 1001 980 987 993 1030 986 966 982 992 1031 997 1020 958 979 926 957 965 978 1003 975 989 958 980 1017 906 947 951 996 922 987 971 963 1010 937 995 922 978 902 946 937 935 936 967 968 981 919 951 1016 971 947 943 951 948 988 961 973 939 984 913 985 963 932 891 931 947 969 967 832 916 913 955 919 961 956 952 893 898 925 915 928 946 909 903 894 923 945 955 864 910 888 900 973 892 926 854 920 954 921 909 848 964 883 934 893 922 955 921 954 915 913 920 888 876 931 982 915 907 899 891 968 921 935 882 854 870 961 888 944 888 927 882 828 909 880 854 899 862 868 902 916 909 941 864 831 941 877 953 899 868 958 880 913 942 912 935 909 896 888 917 890 912 907 868 882 940 959 900 903 886 893 895 891 918 922 874 917 936 837 856 884 919 936 915 909 913 897 903 839 903 898 921 929 902 906 881 912 935 934 876 938 922 915 895 911 936 892 861 904 879 899 860 899 913 859 865 889 911 885 918 890 875 862 910 866 862 949 832 876 893 914 912 910 900 889 859 877 909 842 874 873 867 894 886 831 861 817 940 850 892 934 886 852 892 854 917 942 902 867 881 858 893 893 874 889 851 870 858 967 852 885 884 887 859 937 874 901 893 944 890 858 907 836 900 868 927 941 818 809 887 828 901 899 876 852 890 876 815 934 866 850 885 851 842 891 917 908 927 942 863 920 878 892 858 919 890 870 866 935 816 850 828 908 937 895 930 877 985 881 893 887 890 938 895 926 920 862 935 916 961 915 870 880 908 856 931 891 879 919 896 927 889 932 894 977 870 904 912 896 878 903 878 913 899 952 889 899 893 854 898 927 965 891 875 850 922 875 884 903 948 870 904 861 869 913 873 940 923 832 832 878 924 920 902 840 886 908 866 887 824 842 902 824 921 860 942 921 919 896 873 876 938 887 875 892 872 852 890 892 853 903 907 909 883 870 953 890 893 916 879 871 848 865 876 919 876 929 855 816 897 853 888 861 881 898 881 892 895 874 933 885 892 839 898 861 844 914 886 866 939 853 860 864 866 877 886 863 889 864 895 866 866 895 849 919 829 856 879 897 896 894 868 900 828 896 894 894 928 877 910 864 879 907 902 851 928 891 889 884 896 871 899 863 882 856 870 933 848 863 893 882 949 868 880 873 861 906 863 867 898 889 842 838 884 885 919 900 882 891 794 867 837 834 861 854 854 911 858 878 880 874 929 799 859 924 906 850 883 859 947 862 816 837 844 845 822 943 828 841 878 864 894 845 884 869 893 868 850 941 882 900 855 818 870 849 860 949 902 932 892 892 869 862 876 848 899 879 899 920 872 896 922 912 912 902 892 929 948 937 970 916 950 1016 1015 993 1004 979 1003 1005 1062 1015 1061 1045 1055 1104 1037 1010 1036 1010 1023 1026 1028 1048 994 1094 1056 1032 1064 1012 1045 1101 1053 1053 1055 1071 1018 1089 1112 1059 1058 1044 1023 1060 1026 1020 1036 1066 1004 1060 1065 981 1041 1044 981 1012 1090 1007 1001 1054 1045 1079 1056 1052 1049 1078 991 1032 1027 1001 1012 1051 1007 1034 1010 1044 999 1009 964 985 1042 936 968 1026 914 1031 1007 1033 976 979 1031 960 984 944 950 1001 962 943 925 950 914 973 969 897 947 962 910 931 914 890 914 938 841 957 953 933 910 972 965 909 955 875 879 871 908 917 948 913 931 939 923 911 897 926 982 843 920 909 950 856 926 873 935 878 844 868 906 933 893 967 860 938 914 940 950 984 881 953 923 953 947 982 957 851 967 927 968 896 951 925 985 930 969 922 947 871 951 963 871 919 947 870 998 903 932 927 945 977 940 954 918 895 904 908 920 897 925 916 926 899 979 900 917 993 916 966 932 912 942 947 914 922 886 930 910 900 912 893 878 913 922 911 916 880 909 850 910 902 885 880 904 874 934 885 919 862 942 899 873 946 870 875 911 862 872 850 933 883 893 908 889 873 883 880 936 846 844 870 900 930 897 911 878 869 883 882 943 812 918 877 877 878 887 881 885 926 814 838 887 840 837 870 910 810 858 902 859 862 896 885 873 887 868 911 841 871 911 850 937 921 851 855 885 856 889 884 888 925 923 860 892 961 896 884 888 867 918 909 933 894 861 925 842 907 880 882 857 914 870 922 861 934 926 886 933 957 849 914 853 900 883 884 959 897 837 843 908 912 960 874 873 883 889 908 911 903 901 869 852 859 907 889 869 861 877 832 873 875 866 911 927 860 864 903 861 910 917 898 916 869 906 857 886 881 897 876 906 878 895 872 906 887 899 908 879 868 916 902 875 839 880 933 892 818 872 839 868 886 880 877 863 880 875 862 888 881 867 861 903 888 845 863 936 846 928 891 899 893 893 901 874 902 885 862 901 875 909 977 949 912 954 936 932 917 826 897 905 933 897 859 1005 914 934 884 930 912 858 913 852 919 933 948 869 924 932 917 914 917 966 952 867 917 893 975 880 869 916 934 844 939 953 871 967 929 860 921 911 907 947 880 916 919 942 849 970 894 899 853 940 876 900 929 913 907 920 944 983 920 899 935 913 928 954 916 929 888 863 894 876 892 904 900 907 943</counts>
			</dataPoints>
		</scan>
	</xrdMeasurement>
</xrdMeasurements>
