<?xml version="1.0"?>
<xrdMeasurements xmlns="http://www.xrdml.com/XRDMeasurement/2.3" xmlns:xsi="http://www.w3.org/2001/XMLSchema-instance" xsi:schemaLocation="http://www.xrdml.com/XRDMeasurement/2.3 http://www.xrdml.com/XRDMeasurement/2.3/XRDMeasurement.xsd" status="Completed" recordIdentifier="{802DDF87-F33D-4A1E-B28E-0A4111D9B446}">
	<comment>
		<entry/>
	</comment>
	<sample type="To be analyzed">
		<id>GPSS_Li1p4Mn0p1Ta0p1V0p5Fe0p2Cl4_122125_69474145f4d05ae3d697aef3</id>
		<name></name>
		<preparedBy></preparedBy>
	</sample>
	<xrdMeasurement measurementType="Scan" status="Completed" sampleMode="Reflection">
		<usedWavelength intended="K-Alpha 1">
			<kAlpha1 unit="Angstrom">1.5405980</kAlpha1>
			<kAlpha2 unit="Angstrom">1.5444260</kAlpha2>
			<kBeta unit="Angstrom">1.3922500</kBeta>
			<ratioKAlpha2KAlpha1>0.5000</ratioKAlpha2KAlpha1>
		</usedWavelength>
		<incidentBeamPath>
			<radius unit="mm">145.00</radius>
			<xRayTube id="1010048" name="Empyrean Cu LFF HR (9430 033 7310x)">
				<tension unit="kV">40.0</tension>
				<current unit="mA">15.0</current>
				<anodeMaterial>Cu</anodeMaterial>
				<focus type="Line">
					<length unit="mm">12.0</length>
					<width unit="mm">0.4</width>
					<takeOffAngle unit="deg">6.0</takeOffAngle>
				</focus>
			</xRayTube>
			<sollerSlit id="21010002" name="Soller slits 0.04 rad.">
				<opening unit="rad">0.0400</opening>
			</sollerSlit>
			<mask id="22031000" name="Fixed mask 13 mm">
				<width unit="mm">9.00</width>
			</mask>
			<divergenceSlit id="22120001" name="Divergence slit 1°" xsi:type="fixedDivergenceSlitType">
				<distanceToSample unit="mm">50.00</distanceToSample>
				<height unit="mm">1.52</height>
			</divergenceSlit>
		</incidentBeamPath>
		<sampleMovement xsi:type="spinningSampleMovementType">
			<spinnerRevolutionTime unit="seconds">1.0</spinnerRevolutionTime>
		</sampleMovement>
		<diffractedBeamPath>
			<radius unit="mm">145.00</radius>
			<antiScatterSlit id="22090040" name="AS slit 9 mm (PIXcel)" xsi:type="fixedAntiScatterSlitType">
				<height unit="mm">9.00</height>
			</antiScatterSlit>
			<sollerSlit id="21020003" name="Large Soller slits 0.04 rad.">
				<opening unit="rad">0.0400</opening>
			</sollerSlit>
			<filter id="20030001" name="Large beta-filter Nickel">
				<material>Ni</material>
				<thickness unit="mm">0.020</thickness>
			</filter>
			<detector id="7010019" name="PIXcel1D-Medipix3 detector" xsi:type="rtmsDetectorType">
				<phd unit="keV">
					<lowerLevel>4.02</lowerLevel>
					<upperLevel>11.27</upperLevel>
				</phd>
				<mode>Scanning</mode>
				<activeLength unit="deg">5.542</activeLength>
			</detector>
		</diffractedBeamPath>
		<scan appendNumber="0" mode="Continuous" scanAxis="Gonio" status="Completed">
			<header>
				<startTimeStamp>2025-12-23T11:47:24-08:00</startTimeStamp>
				<endTimeStamp>2025-12-23T11:55:31-08:00</endTimeStamp>
				<author>
					<name>AutomatedUser</name>
				</author>
				<source>
					<applicationSoftware version="1.7b (136)">PANalytical Aeris Instrument Suite</applicationSoftware>
					<instrumentControlSoftware version="3.2.00000000 20240306">AERIS</instrumentControlSoftware>
					<instrumentID>950485</instrumentID>
				</source>
			</header>
			<dataPoints>
				<positions axis="2Theta" unit="deg">
					<startPosition>10.00943322</startPosition>
					<endPosition>99.99442286</endPosition>
				</positions>
				<positions axis="Omega" unit="deg">
					<startPosition>5.00471661</startPosition>
					<endPosition>49.99721143</endPosition>
				</positions>
				<commonCountingTime unit="seconds">12.495</commonCountingTime>
				<counts unit="counts">3187 2999 3129 2937 3056 3072 3160 3086 3087 3110 3101 3125 3095 3080 3150 3229 3161 3212 3091 3188 3149 3098 3173 3271 3144 3166 3089 3186 3043 3236 3166 3257 3125 3139 3267 3088 3113 3198 3120 3259 3056 3196 3052 3185 3244 3230 3264 3177 3207 3254 3297 3254 3221 2998 3155 3199 3229 3171 3213 3224 3225 3269 3302 3172 3283 3188 3194 3177 3261 3195 3269 3149 3252 3305 3278 3315 3206 3291 3287 3349 3193 3343 3404 3282 3267 3382 3261 3365 3149 3336 3243 3257 3363 3323 3388 3264 3386 3240 3365 3397 3335 3371 3336 3332 3364 3482 3323 3409 3406 3298 3371 3386 3400 3397 3330 3355 3388 3379 3419 3402 3398 3316 3342 3329 3366 3381 3264 3346 3346 3443 3443 3423 3381 3447 3467 3481 3432 3348 3414 3407 3444 3437 3419 3470 3483 3393 3502 3424 3396 3507 3426 3372 3445 3509 3369 3474 3509 3464 3343 3346 3455 3427 3425 3318 3410 3470 3376 3487 3401 3568 3432 3380 3294 3444 3351 3446 3424 3380 3488 3543 3368 3384 3360 3411 3424 3359 3385 3399 3394 3308 3443 3445 3504 3333 3412 3428 3344 3352 3343 3314 3328 3387 3390 3310 3363 3361 3378 3422 3430 3386 3411 3407 3437 3325 3383 3372 3326 3391 3400 3395 3373 3392 3461 3325 3422 3311 3342 3334 3346 3306 3263 3393 3255 3351 3176 3293 3168 3239 3405 3332 3259 3270 3344 3317 3247 3281 3304 3276 3305 3271 3334 3378 3183 3233 3184 3401 3323 3281 3287 3230 3378 3222 3300 3321 3347 3233 3216 3231 3291 3205 3221 3253 3155 3319 3254 3242 3229 3264 3288 3268 3170 3275 3169 3369 3285 3271 3243 3206 3331 3277 3204 3352 3283 3329 3159 3279 3316 3232 3389 3393 3254 3327 3251 3343 3256 3377 3420 3399 3431 3346 3300 3274 3326 3423 3312 3296 3376 3386 3378 3405 3325 3510 3370 3405 3350 3383 3376 3396 3419 3423 3318 3528 3440 3374 3435 3445 3492 3412 3503 3321 3423 3478 3379 3440 3332 3435 3503 3471 3428 3421 3538 3547 3526 3438 3470 3425 3499 3490 3569 3551 3671 3606 3486 3549 3516 3614 3541 3551 3590 3562 3555 3629 3610 3705 3630 3624 3565 3514 3521 3647 3564 3572 3749 3594 3673 3560 3647 3711 3578 3467 3548 3704 3511 3725 3619 3693 3750 3585 3799 3669 3605 3579 3691 3734 3743 3656 3706 3680 3774 3732 3838 3808 3604 3758 3667 3845 3797 3770 3772 3748 3759 3834 3875 3822 3795 3847 3775 3923 3792 3853 3825 3876 3867 3926 3851 3956 3808 3944 4107 4096 4003 3995 4104 4015 4082 4135 4080 4180 4184 4300 4282 4145 4144 4174 4138 4223 4240 4302 4325 4472 4383 4447 4346 4314 4420 4503 4489 4583 4473 4604 4692 4667 4723 4878 4779 4833 4849 4898 5010 5231 5162 5340 5366 5444 5433 5523 5573 5572 5619 5502 5274 5448 5079 4824 4597 4278 4111 4083 3976 3798 3751 3737 3616 3512 3589 3544 3486 3588 3442 3529 3414 3405 3471 3438 3425 3418 3440 3370 3404 3322 3421 3426 3284 3436 3301 3388 3243 3306 3283 3196 3399 3268 3293 3299 3160 3361 3297 3230 3217 3169 3227 3201 3192 3257 3199 3079 3233 3185 3078 3098 3223 3130 3207 3202 3184 3163 3078 3143 3067 3167 3127 3074 3194 3134 3099 3147 3043 3077 3001 2962 3105 3117 3063 3101 2989 3071 3061 3048 3075 3077 2998 3051 3047 3080 3073 2959 2979 3077 2847 3063 3023 3076 3048 2984 3065 2956 3021 2961 3041 2943 2942 3016 2902 2959 2935 3002 3080 3049 3003 2929 3023 2987 2998 2879 3110 2990 2968 3090 3044 3048 3072 3055 2984 2974 3059 3082 3001 2901 3044 2913 2993 3055 2975 3016 3103 2882 3201 3035 3110 3010 3045 3032 3075 2974 3077 3167 3057 3123 3035 3089 3022 3087 3097 2910 3153 3050 3127 2967 3046 2973 3063 3031 2955 3080 3012 3027 3044 3032 2998 3031 3068 3069 3063 3063 3036 3033 2948 2972 2860 3052 3015 2994 2991 3080 2985 2940 3008 2997 2953 3023 2893 2993 2898 3055 2890 2886 3004 2947 3029 2907 3049 2948 2981 2947 2953 2938 2944 2964 2971 2916 2926 2936 2928 2971 2874 2887 2858 2946 2955 2973 2969 2859 2960 2900 2929 2981 2987 2876 2847 2877 2961 2916 2924 2832 2871 2899 3005 2927 2897 3003 3030 2844 2854 2879 2930 2863 2850 2926 2969 2784 2888 2928 2946 2977 2825 2963 2858 2926 2965 3008 2991 2894 2827 2842 2985 2844 2953 2919 2784 2934 2865 2909 3001 2944 2887 2875 2842 2911 2828 2938 2910 2939 2882 2888 2795 2877 2790 2846 2897 2763 2933 2912 2761 2921 2768 2912 2832 2989 2817 2846 2806 2803 2797 2790 2875 2875 2770 2700 2828 2883 2820 2920 2794 2809 2768 2730 2772 2743 2881 2824 2688 2804 2795 2753 2820 2775 2849 2958 2756 2788 2814 2788 2709 2706 2750 2819 2765 2804 2863 2730 2792 2754 2738 2809 2695 2801 2602 2782 2803 2724 2740 2719 2721 2735 2748 2743 2749 2708 2675 2755 2655 2749 2717 2711 2842 2697 2663 2666 2653 2638 2800 2711 2627 2574 2681 2725 2696 2722 2657 2653 2661 2684 2612 2600 2640 2759 2603 2720 2668 2610 2615 2641 2666 2668 2679 2663 2646 2602 2652 2557 2632 2662 2701 2608 2617 2649 2579 2607 2721 2608 2616 2741 2689 2656 2653 2589 2647 2642 2563 2589 2641 2582 2670 2599 2548 2640 2675 2654 2598 2545 2587 2691 2621 2673 2631 2689 2591 2515 2565 2563 2643 2580 2631 2515 2615 2573 2615 2600 2564 2514 2602 2520 2562 2514 2496 2538 2534 2565 2567 2604 2531 2517 2523 2628 2578 2562 2707 2515 2489 2438 2539 2561 2584 2504 2629 2516 2565 2559 2531 2659 2508 2607 2546 2611 2517 2613 2600 2629 2556 2578 2521 2519 2612 2485 2456 2634 2595 2547 2482 2427 2457 2478 2612 2597 2597 2531 2617 2548 2645 2539 2562 2574 2489 2571 2520 2564 2648 2565 2443 2484 2546 2547 2558 2631 2552 2537 2595 2665 2522 2530 2655 2530 2561 2548 2524 2601 2568 2598 2602 2710 2598 2582 2503 2556 2497 2562 2535 2554 2613 2572 2559 2427 2588 2547 2633 2640 2647 2578 2586 2634 2582 2560 2585 2569 2624 2495 2590 2619 2729 2554 2529 2593 2531 2598 2546 2631 2546 2649 2610 2526 2550 2580 2641 2517 2584 2459 2510 2509 2557 2568 2608 2499 2511 2599 2567 2542 2522 2540 2438 2504 2485 2526 2430 2530 2593 2486 2481 2487 2448 2540 2585 2508 2563 2448 2565 2488 2463 2497 2392 2498 2478 2506 2487 2489 2509 2497 2535 2492 2442 2428 2423 2553 2425 2547 2420 2422 2453 2440 2531 2595 2471 2485 2443 2397 2436 2426 2383 2496 2470 2413 2494 2344 2407 2361 2296 2336 2421 2398 2440 2265 2271 2333 2341 2354 2294 2320 2302 2367 2336 2315 2317 2352 2322 2389 2333 2216 2291 2255 2298 2378 2300 2340 2318 2427 2222 2299 2349 2295 2262 2198 2275 2230 2173 2212 2264 2217 2239 2177 2169 2152 2199 2179 2251 2155 2207 2222 2209 2275 2219 2211 2176 2205 2209 2161 2246 2197 2152 2230 2115 2325 2168 2096 2189 2122 2127 2203 2129 2087 2159 2087 2091 2082 2090 2012 2122 2071 2076 1989 2153 2110 2075 2199 2056 2118 2098 2077 2110 2012 2047 2075 2065 2056 2061 1950 1991 2113 2058 2071 2013 2112 2071 2033 1994 2015 2001 1986 1955 1962 2039 1955 1926 2006 1984 2048 2036 2040 2016 1969 1955 1917 1964 1934 1918 1948 1926 2023 1927 1946 1961 1971 1958 1972 1930 1919 1978 1867 1866 1912 1937 1943 1910 1964 1967 1927 1964 1964 1949 1977 1923 1931 1978 1900 2022 1816 1867 1971 1969 1880 1925 1995 1912 1889 1908 1874 1911 1908 1960 1961 1999 1839 1942 1961 1998 1912 1906 1956 1884 1908 1971 1905 1887 1923 1933 1942 1978 1840 1941 1896 1880 1859 1913 1916 1830 1878 1919 1926 1895 1908 1878 1891 1874 1796 1862 1853 1923 1896 1853 1878 1872 1877 1976 1903 1817 1801 1874 1906 1808 1921 1863 1873 1812 1879 1798 1879 1901 1938 1860 1893 1806 1830 1860 1884 1822 1877 1901 2002 1851 1826 1832 1878 1833 1915 1868 1751 1866 1833 1911 1857 1887 1892 1896 1869 1846 1900 1853 1902 1970 1835 1886 1838 2004 1793 1928 1914 1874 1863 1918 1845 1885 1895 1900 1882 1927 1849 1872 1917 1926 1907 1936 1851 1880 1946 1884 1817 1952 1845 1926 1818 1910 1940 1868 1955 1842 1854 1926 1908 1918 1916 1971 1893 1860 1872 1880 1832 1833 2032 1882 1936 1932 1874 1844 1810 1897 1901 1885 1897 1813 1897 1845 1842 1890 1847 1846 1860 1863 1856 1853 1794 1897 1853 1889 1887 1840 1859 1775 1883 1796 1884 1850 1836 1905 1828 1868 1842 1891 1906 1826 1813 1819 1839 1792 1871 1812 1782 1810 1836 1812 1891 1912 1751 1853 1712 1843 1753 1760 1833 1800 1828 1835 1831 1809 1728 1852 1885 1762 1864 1800 1828 1845 1728 1770 1740 1797 1780 1775 1804 1816 1796 1737 1772 1628 1839 1749 1838 1891 1816 1681 1718 1753 1732 1772 1681 1738 1737 1788 1739 1664 1765 1721 1646 1713 1705 1713 1662 1686 1623 1675 1746 1673 1665 1691 1700 1631 1668 1693 1637 1759 1651 1705 1662 1704 1661 1625 1578 1655 1687 1595 1697 1630 1635 1701 1614 1607 1621 1615 1600 1638 1590 1636 1628 1654 1618 1538 1632 1605 1623 1570 1594 1569 1546 1573 1555 1567 1648 1574 1651 1567 1599 1575 1705 1573 1620 1488 1486 1545 1560 1585 1521 1570 1540 1573 1538 1571 1546 1598 1551 1552 1481 1564 1491 1509 1561 1536 1462 1521 1545 1527 1507 1547 1518 1605 1588 1498 1529 1544 1545 1507 1540 1536 1545 1528 1570 1574 1555 1504 1532 1643 1585 1480 1556 1576 1575 1673 1603 1635 1503 1509 1600 1625 1503 1618 1666 1626 1621 1595 1603 1585 1618 1621 1580 1553 1562 1603 1575 1634 1704 1592 1648 1592 1594 1630 1595 1591 1606 1533 1583 1543 1614 1604 1517 1521 1538 1549 1564 1483 1533 1508 1533 1475 1466 1465 1539 1530 1641 1470 1469 1468 1481 1480 1513 1439 1516 1434 1376 1464 1476 1498 1499 1472 1445 1446 1441 1436 1462 1420 1412 1375 1316 1452 1325 1414 1415 1469 1382 1386 1427 1415 1363 1337 1442 1359 1386 1444 1385 1429 1389 1399 1418 1402 1408 1396 1316 1374 1472 1400 1376 1386 1322 1441 1405 1439 1422 1459 1416 1479 1411 1540 1463 1546 1441 1556 1482 1596 1450 1519 1510 1512 1581 1563 1626 1577 1627 1618 1617 1757 1694 1720 1704 1728 1674 1773 1815 1752 1896 1834 1876 1860 1891 1976 2010 1942 2059 2073 2198 2267 2233 2323 2376 2389 2513 2549 2419 2500 2613 2430 2551 2551 2630 2538 2509 2542 2376 2432 2445 2298 2154 2159 1987 1925 2026 1894 1890 1753 1715 1641 1587 1484 1532 1430 1469 1430 1437 1411 1395 1337 1395 1373 1423 1321 1411 1329 1445 1416 1456 1493 1454 1457 1457 1428 1400 1472 1478 1386 1471 1467 1438 1498 1486 1483 1497 1604 1476 1609 1535 1604 1610 1597 1623 1520 1584 1576 1521 1615 1540 1459 1545 1453 1375 1421 1449 1342 1327 1326 1257 1337 1270 1233 1241 1257 1241 1250 1299 1272 1227 1222 1262 1181 1206 1268 1226 1230 1220 1328 1227 1232 1243 1192 1334 1292 1220 1242 1297 1169 1195 1294 1250 1297 1258 1219 1222 1251 1229 1255 1221 1217 1253 1231 1138 1209 1225 1213 1275 1211 1272 1247 1247 1178 1250 1204 1261 1259 1222 1288 1240 1282 1266 1206 1267 1317 1224 1195 1225 1270 1253 1199 1146 1228 1215 1270 1201 1211 1280 1285 1267 1208 1244 1201 1323 1235 1197 1269 1287 1272 1282 1277 1194 1319 1217 1269 1259 1242 1168 1233 1234 1269 1194 1274 1115 1222 1194 1209 1268 1295 1201 1236 1253 1279 1250 1222 1271 1235 1278 1309 1298 1235 1249 1240 1218 1179 1223 1305 1290 1308 1268 1318 1263 1229 1282 1281 1294 1222 1248 1254 1283 1282 1333 1262 1262 1305 1318 1257 1215 1250 1321 1366 1256 1344 1315 1283 1233 1265 1233 1309 1274 1286 1318 1255 1258 1330 1337 1323 1336 1369 1339 1356 1342 1336 1406 1309 1319 1326 1327 1388 1411 1368 1399 1442 1385 1386 1431 1376 1429 1483 1452 1432 1384 1495 1465 1415 1584 1547 1520 1539 1514 1670 1492 1613 1579 1678 1686 1682 1689 1701 1677 1713 1725 1730 1733 1780 1823 1820 1810 1742 1895 1908 1853 1900 1915 1830 1994 1942 1930 1929 1929 1937 1934 1977 1975 1967 1875 1820 1872 1886 1732 1903 1753 1710 1671 1732 1607 1734 1708 1660 1587 1674 1618 1689 1627 1567 1539 1523 1538 1520 1467 1466 1421 1536 1409 1469 1441 1454 1449 1439 1475 1454 1407 1447 1449 1467 1416 1383 1429 1392 1437 1413 1426 1383 1419 1438 1443 1414 1410 1425 1373 1463 1483 1455 1439 1410 1486 1521 1480 1491 1557 1485 1570 1522 1528 1640 1510 1609 1534 1685 1665 1777 1753 1773 1778 1853 1865 1879 1974 2040 1976 2010 2058 2075 2138 2144 2184 2174 2191 2249 2312 2340 2311 2343 2330 2456 2369 2508 2486 2423 2418 2428 2553 2525 2494 2439 2492 2594 2643 2789 2683 2802 2852 2952 2810 2880 2914 2885 2911 2936 2936 2914 2904 2988 2998 3022 2872 3077 2908 2788 2817 2685 2681 2655 2536 2476 2416 2282 2249 2142 2046 1897 1892 1800 1772 1682 1663 1509 1547 1492 1449 1385 1428 1390 1332 1303 1406 1341 1292 1311 1215 1293 1291 1213 1248 1226 1200 1280 1247 1217 1217 1214 1232 1177 1187 1149 1196 1148 1261 1130 1195 1164 1148 1163 1155 1185 1176 1148 1187 1096 1098 1092 1190 1150 1196 1159 1121 1180 1182 1170 1185 1140 1125 1125 1144 1137 1094 1175 1112 1167 1114 1158 1157 1070 1123 1124 1088 1146 1141 1097 1120 1159 1130 1127 1164 1118 1132 1093 1078 1116 1107 1138 1032 1114 1168 1091 1123 1099 1143 1021 1080 1148 1117 1116 1163 1070 1105 1092 1087 1056 1126 1062 1078 1076 1102 1040 1089 1072 1114 1101 1070 1040 1083 1083 1093 1069 1092 1075 1072 1025 1068 1042 1082 1057 1073 1063 1055 1048 1040 1044 1056 1065 1083 1048 1125 1049 1029 1030 1081 1064 1105 1024 977 1101 1072 1080 1067 1102 1078 1082 1050 989 1063 1082 1042 1063 1022 1065 1053 1083 1040 1067 1090 1024 1000 1039 1086 1073 1007 1051 1047 1078 1034 945 1000 1048 1047 984 988 1059 1068 996 1018 1063 1027 978 1008 1099 1022 1014 1046 1102 1056 998 1034 975 1079 1022 1025 1100 1066 1057 1018 1057 1037 1020 1024 1013 1017 1011 1009 1042 1034 1046 1013 1018 949 993 1008 1020 994 954 1058 1041 1008 970 1049 1035 1009 1037 999 1024 1032 1035 995 1005 1021 915 1002 1011 1021 1056 1077 1008 1023 999 1014 985 1028 962 1059 1079 992 985 964 1082 1016 1065 1008 1039 964 1051 1021 1073 1027 1026 1037 1007 1009 962 970 1029 985 1033 955 985 1059 1000 988 957 979 1004 996 1026 1019 995 1023 1044 996 989 993 987 1013 950 1031 1007 1002 985 910 956 985 975 995 1004 984 1009 928 923 998 937 983 948 1005 970 1063 992 1031 963 970 921 954 929 972 969 916 968 978 937 935 936 919 941 946 952 1032 987 964 937 942 940 936 1030 958 933 986 987 926 946 985 930 967 921 911 960 901 959 892 973 1010 964 989 972 973 993 957 976 952 1037 997 924 913 903 1017 994 1000 948 989 946 909 993 995 1000 916 921 937 908 904 968 932 922 932 897 916 920 961 935 984 944 916 939 927 923 943 951 935 936 926 922 936 969 940 930 888 924 916 901 866 892 936 992 875 894 952 996 899 901 931 961 933 940 937 936 887 950 921 888 903 936 919 892 873 959 907 955 921 971 951 1022 867 908 960 948 874 916 913 875 896 903 904 924 897 864 914 932 905 888 906 920 966 902 887 954 961 919 954 948 909 922 894 897 972 898 911 974 920 888 935 934 931 924 942 917 926 957 917 949 959 933 927 977 943 994 1001 923 930 926 921 919 923 879 937 908 877 934 941 942 915 964 890 945 871 920 898 919 962 998 948 960 872 951 931 903 920 868 897 967 914 935 946 894 911 1002 902 944 913 990 936 926 937 901 957 899 906 982 926 959 944 893 941 913 925 986 914 944 892 940 896 920 880 912 937 974 910 866 918 916 974 930 949 886 930 915 928 940 951 885 919 920 858 926 1005 879 941 951 914 942 912 976 904 894 923 961 929 882 873 881 925 930 944 991 947 889 933 908 948 964 1039 943 940 920 964 966 969 916 940 930 941 921 956 922 985 935 944 925 943 873 888 956 919 976 972 970 954 1002 978 956 889 901 937 953 949 938 920 922 922 960 914 983 939 909 949 981 936 983 996 936 1005 959 978 971 956 977 953 925 964 923 976 971 946 1000 991 966 938 995 979 1007 962 960 1039 967 955 934 956 962 1008 1033 991 985 1041 969 1049 953 1040 1029 1011 939 1034 1039 1063 1005 1004 999 1025 1056 1091 1099 1052 1092 1089 1138 1115 1115 1072 1102 1072 1145 1117 1116 1086 1088 1113 1123 1165 1058 1180 1157 1137 1072 1105 1128 1167 1065 1083 1134 1076 1081 1077 1026 1069 1047 1103 1061 1023 1084 1018 1056 998 1015 1016 1020 968 1049 974 980 1010 1005 983 1024 946 1016 957 1008 1031 962 940 990 1034 965 921 966 1003 957 1016 909 941 929 942 924 924 960 966 967 979 961 914 949 967 924 910 987 918 892 896 939 902 880 902 953 925 868 884 849 918 869 930 930 930 948 949 825 937 890 827 927 925 931 937 859 919 839 853 937 911 869 913 919 970 856 850 875 962 861 862 842 872 895 933 869 876 905 941 890 899 905 873 946 967 886 839 886 813 909 867 903 884 900 871 903 851 839 876 880 881 930 834 862 901 879 869 907 884 861 894 911 892 882 917 879 866 871 856 883 879 915 920 869 891 886 795 895 926 889 855 934 939 956 912 935 848 861 901 885 928 909 880 956 954 953 910 937 949 892 972 930 982 945 942 1005 888 989 957 994 984 927 926 900 972 934 989 996 905 1002 947 957 928 953 884 914 928 914 921 967 910 930 934 932 889 920 924 899 901 969 913 931 915 926 909 963 928 980 866 900 876 992 962 949 964 889 934 924 965 934 904 957 879 933 929 924 903 896 913 950 948 854 934 917 896 925 917 945 859 938 953 903 951 870 895 924 859 927 903 945 981 873 812 896 922 897 900 894 929 875 901 908 879 869 901 904 889 892 936 938 916 918 925 909 880 898 906 933 879 849 885 852 890 865 900 861 894 928 880 866 847 950 919 897 826 915 901 867 838 910 872 870 886 882 905 888 874 883 820 853 828 827 890 872 828 831 850 872 882 926 882 840 838 904 850 904 872 850 893 856 858 855 840 838 882 821 853 824 807 841 808 821 839 878 835 804 889 788 821 796 848 839 872 832 847 852 870 840 870 832 888 840 895 822 863 876 854 857 799 858 837 804 813 826 770 826 834 823 839 843 860 794 851 858 839 864 916 856 830 850 836 850 830 829 862 802 820 818 874 864 835 812 859 829 832 834 847 850 813 864 774 900 848 840 843 843 819 858 849 784 834 848 836 814 864 787 800 825 805 843 833 811 836 812 844 830 856 844 748 830 831 819 835 856 890 843 810 811 792 902 792 810 845 853 841 862 885 895 841 836 869 862 849 828 865 832 808 828 865 814 821 821 804 869 820 801 773 814 819 851 846 858 818 813 824 853 799 847 887 894 858 873 839 851 841 839 838 800 828 831 803 869 859 781 873 840 896 817 835 939 843 879 904 861 869 891 865 889 947 949 907 934 949 900 932 950 930 999 969 936 994 992 984 1058 1009 1066 1016 1048 1034 1041 1098 1034 1057 1076 1112 1132 1110 1158 1146 1182 1077 1163 1158 1115 1191 1217 1208 1276 1244 1271 1315 1294 1250 1257 1216 1252 1288 1301 1317 1292 1252 1286 1222 1353 1295 1235 1280 1263 1225 1285 1241 1170 1227 1169 1209 1196 1187 1122 1164 1187 1237 1165 1125 1123 1126 1227 1197 1137 1160 1209 1238 1238 1334 1283 1317 1282 1366 1357 1404 1419 1452 1538 1513 1566 1588 1549 1566 1542 1635 1671 1565 1607 1482 1497 1465 1481 1450 1472 1405 1367 1365 1296 1218 1255 1143 1170 1134 1111 1089 1185 1064 1074 1054 1017 1003 1004 1046 1046 1014 973 984 964 963 940 1015 951 979 981 999 977 1054 982 956 982 1012 991 973 994 984 1053 1032 909 968 1015 904 910 989 989 952 879 973 915 944 847 959 919 925 881 867 917 862 922 856 825 865 892 845 868 794 794 880 810 841 916 896 825 779 829 852 784 820 844 873 876 845 857 828 872 903 818 830 802 863 818 826 827 865 800 850 815 919 799 864 889 833 881 833 849 790 867 869 853 827 871 822 842 860 873 812 858 892 828 799 868 874 837 809 899 826 883 892 864 857 863 837 842 912 901 897 895 874 931 900 905 922 914 923 885 874 895 937 920 931 909 909 977 952 994 997 931 993 1033 1048 1047 1080 1061 1151 1140 1184 1250 1223 1252 1233 1294 1322 1391 1392 1391 1419 1361 1400 1409 1446 1471 1464 1438 1344 1416 1445 1445 1405 1413 1354 1331 1328 1270 1308 1212 1187 1085 1157 1151 1174 1101 1077 1067 1042 1032 1009 939 946 932 965 935 955 891 929 879 920 894 945 866 878 919 920 830 882 892 882 873 779 858 818 870 821 855 741 866 809 830 830 791 849 861 846 866 836 852 831 814 857 812 835 842 862 911 861 821 907 849 872 807 832 820 954 855 851 923 877 794 859 877 861 869 856 849 847 834 843 862 847 838 879 807 820 836 849 864 839 834 821 775 803 858 779 806 772 801 816 801 799 791 849 825 804 833 823 798 867 800 782 768 815 812 832 796 799 765 772 865 813 785 798 805 862 738 831 765 832 768 775 753 761 743 783 791 806 857 783 751 785 815 867 814 820 763 778 795 782 810 786 784 805 792 827 798 751 778 831 778 764 816 772 800 855 817 764 754 786 762 755 871 800 794 832 805 872 793 800 827 829 787 841 850 856 841 792 845 813 848 841 850 871 892 917 830 900 845 928 902 915 879 946 923 903 915 922 982 945 981 979 950 970 945 935 948 960 990 909 959 934 903 975 906 889 887 815 889 858 823 879 869 889 839 798 788 867 801 751 834 837 807 839 845 837 758 797 814 819 787 810 807 807 780 791 781 774 804 825 829 807 777 807 759 810 738 797 809 814 788 816 803 798 783 794 772 777 833 837 814 814 809 860 826 753 785 800 781 824 781 744 799 764 821 809 796 900 818 790 838 757 791 853 819 829 816 883 794 817 797 805 808 780 826 822 862 817 815 824 829 797 818 857 842 824 826 807 817 851 792 833 796 787 829 809 825 820 813 874 942 851 903 820 840 847 904 890 828 877 862 841 837 850 857 797 857 849 826 872 839 832 874 811 838 805 786 835 781 822 862 789 820 814 816 823 822 784 801 813 746 836 826 879 760 797 769 789 740 807 759 785 804 825 795 798 806 800 830 759 756 742 749 713 771 778 756 774 796 723 744 818 717 726 720 730 728 742 738 751 748 756 718 774 741 778 746 775 747 747 711 768 757 706 707 711 777 733 747 711 766 777 746 714 738 760 684 761 743 751 738 742 608 736 736 746 737 704 779 727 767 779 753 735 761 729 778 748 752 738 710 734 714 757 743 728 743 718 732 735 776 707 754 756 710 753 693 739 722 795 770 754 725 764 810 750 767 765 763 753 741 770 732 707 775 745 753 715 712 708 756 738 699 724 695 732 703 751 703 693 718 730 727 707 738 797 710 811 721 793 721 752 739 744 732 715 806 703 732 696 708 738 772 755 736 747 733 725 730 735 773 729 721 761 776 731 677 725 751 760 736 751 738 741 739 737 743 740 772 780 717 756 771 777 766 798 807 799 833 751 745 733 737 735 812 781 785 759 746 764 753 747 779 767 752 734 785 781 772 722 739 767 736 785 802 819 791 751 789 748 812 825 781 764 800 772 724 793 799 793 751 777 761 742 796 766 766 762 785 774 781 790 773 747 804 785 810 802 829 826 879 870 858 927 927 903 925 982 1008 1055 1050 1105 1202 1179 1181 1266 1278 1223 1209 1164 1183 1137 1145 1081 1089 1101 1145 1086 1106 1062 1067 1072 1048 1056 985 931 908 901 920 854 856 851 886 824 823 813 774 760 755 749 772 719 754 742 720 758 811 749 732 744 725 737 703 779 738 716 687 735 714 668 725 715 694 743 690 689 748 773 707 764 726 712 674 670 694 725 683 684 738 701 696 698 761 741 648 710 724 724 708 713 734 714 644 713 665 684 727 778 748 683 685 698 734 720 739 692 728 725 695 697 717 638 706 717 687 710 754 738 690 746 710 661 704 712 711 697 688 677 672 747 706 700 692 717 748 745 742 754 712 731 689 669 680 726 711 746 751 717 700 727 682 723 714 768 725 725 787 736 734 727 739 750 705 768 725 781 782 736 716 754 738 722 811 781 746 750 776 807 779 811 782 747 774 752 769 780 808 826 726 810 888 827 798 793 817 801 795 838 873 820 863 825 875 856 859 889 833 862 862 865 844 838 803 875 892 863 880 846 896 847 870 883 866 848 789 840 799 837 808 838 815 809 782 822 786 813 822 823 773 757 745 850 829 771 766 764 778 774 748 779 807 744 752 766 764 743 772 769 733 828 797 781 750 804 870 826 834 813 854 885 883 926 906 896 928 934 965 930 936 937 900 960 984 952 917 871 896 921 883 907 915 852 913 875 817 859 829 834 843 795 760 751 790 793 765 753 775 729 697 752 724 740 764 766 717 726 732 752 721 740 797 738 788 713 760 757 790 759 770 734 752 825 741 741 703 768 708 740 814 748 807 779 793 763 755 763 795 777 784 823 813 805 812 813 839 767 838 842 779 861 822 862 848 793 879 889 852 866 825 825 859 829 807 840 861 849 931 849 873 847 864 793 880 865 883 864 861 868 831 820 882 897 869 882 950 951 849 891 972 879 850 830 907 855 891 931 846 893 926 826 927 829 802 805 822 791 847 831 828 846 804 787 826 837 843 736 797 830 750 774 781 844 814 773 732 780 771 778 754 769 785 729 746 774 760 703 790 800 770 705 779 716 809 800 724 739 771 797 733 765 756 765 720 760 701 786 778 756 759 771 749 720 708 743 710 701 748 753 739 738 728 706 697 729 722 735 762 728 698 733 721 725 715 709 723 676 718 706 675 683 689 714 703 701 681 677 688 721 704 712 678 740 718 650 695 710 714 678 677 683 700 661 690 679 712 693 742 707 671 682 665 712 684 696 711 705 710 668 741 653 685 668 746 657 672 721 672 686 698 708 691 629 684 686 704 698 656 667 712 672 712 685 702 692 678 683 677 679 717 661 730 682 689 674 657 681 666 659 690 644 702 650 692 651 686 691 667 739 658 651 681 667 695 657 672 654 656 684 645 669 708 670 644 685 671 686 698 676 695 683 647 713 703 642 703 666 629 673 683 652 702 655 680 696 687 646 679 678 623 637 717 711 689 691 652 653 608 611 724 681 651 658 634 687 667 677 700 673 643 677 699 672 726 651 698 683 667 690 674 650 667 665 680 630 660 643 647 613 697 611 650 639 648 669 602 657 671 620 668 682 696 663 692 627 635 653 671 640 684 647 674 600 668 700 644 677 724 653 650 675 632 696 627 652 624 682 655 661 670 638 622 667 612 716 628 629 618 718 706 658 662 671 641 645 684 663 628 707 669 659 618 604 624 698 679 612 693 635 685 701 661 702 633 658 717 622 675 681 697 650 676 654 667 692 621 655 651 685 650 657 636 671 656 728 679 648 677 665 652 660 701 616 676 665 671 671 673 664 735 637 677 672 662 645 666 659 702 627 634 663 611 694 676 666 665 696 638 660 656 721 692 671 657 658 675 669 698 692 626 684 663 666 681 651 667 591 686 690 589 668 695 668 705 666 689 645 645 653 656 653 669 667 670 709 646 656 608 647 678 650 675 652 644 632 646 644 604 661 621 625 638 615 669 645 620 661 639 645 677 667 678 627 688 637 671 691 627 706 665 672 662 692 623 706 688 661 658 653 654 610 644 655 651 632 681 670 663 643 662 686 699 729 680 652 652 641 709 634 667 691 656 673 665 681 686 672 675 681 660 702 686 635 714 663 670 675 673 698 678 664 677 701 649 718 708 710 675 624 672 696 684 729 616 686 692 648 647 707 729 657 673 678 686 666 697 750 697 686 657 707 688 680 652 712 638 689 653 678 692 699 698 675 688 746 710 737 689 712 656 677 709 671 720 714 655 716 666 713 717 728 680 633 678 676 697 691 672 650 675 647 656 684 692 621 661 678 704 677 706 616 693 661 692 683 653 673 633 648 696 665 712 629 656 641 672 696 627 679 660 647 664 631 666 663 634 639 632 687 645 674 691 624 720 566 657 704 634 679 636 687 627 642 699 679 669 692 628 676 623 655 671 682 677 673 615 665 658 698 675 681 627 650 630 621 661 680 676 697 647 678 670 640 692 647 618 633 678 641 630 638 629 633 671 647 655 673 627 676 609 660 679 633 619 641 638 634 632 658 653 666 642 646 650 650 628 657 663 627 645 668 663 666 645 649 653 648 660 646 665 611 680 621 636 682 640 607 658 707 656 662 626 634 602 671 662 619 665 639 686 618 630 638 694 642 609 686 670 676 702 661 672 667 646 688 625 608 646 642 618 691 645 674 616 681 649 666 671 686 636 685 681 697 690 653 655 677 698 681 690 701 718 718 669 678 647 688 662 683 695 686 647 648 671 663 678 675 652 684 654 678 666 745 680 641 641 681 652 701 670 723 702 696 702 728 709 706 690 703 709 680 666 697 642 655 696 725 684 679 695 631 695 643 679 663 750 705 720 701 667 717 662 725 719 674 632 730 692 648 692 654 682 669 697 698 720 655 697 662 665 647 745 735 708 720 681 713 701 677 654 733 694 691 654 657 686 649 726 694 673 763 713 742 694 720 699 680 704 731 727 760 801 747 763 731 785 767 781 741 765 760 777 754 777 775 745 694 723 720 703 700 722 729 735 771 703 677 711 703 703 693 708 651 696 700 734 696 685 657 621 667 705 664 663 712 682 671 613 668 626 730 675 623 604 615 631 649 619 647 663 651 628 648 639 609 700 642 635 670 666 601 660 626 664 627 598 673 638 626 621 633 620 623 628 663 695 648 676 620 647 672 627 621 645 640 630 623 700 623 673 651 591 608 598 673 600 655 621 619 657 622 651 638 622 608 645 588 647 647 649 649 669 677 636 605 629 629 605 644 639 633 643 599 605 667 605 674 624 617 623 632 678 657 626 661 643 611 634 635 653 648 668 655 679 668 638 648 632 680 632 642 645 613 656 590 623 598 608 645 607 633 674 640 626 643 598 612 615 620 649 648 642 619 645 639 636 642 661 617 571 617 654 665 635 645 584 628 629 602 604 627 627 628 617 642 641 683 616 659 621 655 633 626 674 595 608 666 618 647 629 618 613 643 636 665 614 663 592 672 668 674 655 643 611 638 667 667 632 623 644 686 676 636 672 608 698 658 650 635 672 633 612 643 571 669 634 651 652 638 590 651 621 648 671 638 634 642 653 637 658 655 633 636 627 625 649 600 639 648 636 585 661 645 598 672 631 629 662 644 640 620 653 606 638 624 658 647 638 635 649 653 616 629 636 607 677 641 627 644 637 629 593 648 650 620 606 631 645 667 615 638 615 701 645 629 674 691 617 626 615 593 613 638 664 634 644 691 609 626 661 618 659 673 663 634 631 643 632 676 621 665 647 619 587 645 631 655 685 630 654 654 608 676 650 679 603 657 642 622 637 634 626 655 634 653 682 582 649 643 664 699 623 612 640 638 597 578 625 662 643 647 604 643 658 638 637 628 614 613 641 620 629 665 649 600 669 646 670 618 640 706 639 660 675 660 627 642 647 619 573 599 654 652 610 632 654 640 585 652 585 610 605 622 618 614 641 647 659 620 619 639 622 656 599 638 663 601 606 633 588 681 645 614 610 602 656 636 608 631 622 630 611 623 626 680 605 593 614 653 652 637 650 645 611 694 663 624 659 587 657 659 685 598 635 618 635 658 641 638 631 649 658 633 654 651 645 625 654 664 715 606 673 649 674 640 660 644 628 664 675 661 635 630 654 601 622 671 641 649 662 619 597 610 621 653 634 635 675 688 668 657 660 649 701 686 643 652 620 643 682 606 651 625 650 615 621 656 655 661 585 672 639 662 656 677 629 646 686 670 631 641 647 691 668 652 668 587 642 672 684 682 658 634 642 644 642 676 691 690 662 654 687 694 638 685 651 696 632 688 668 644 665 694 677 676 650 652 666 697 643 647 674 642 649 645 675 676 650 670 697 691 673 681 682 652 691 670 691 661 681 651 690 687 708 639 639 657 653 674 686 653 712 626 631 634 682 663 633 661 639 655 707 682 668 674 663 663 663 629 662 633 723 670 690 651 699 639 654 669 625 635 621 631 618 682 686 666 657 669 635 680 706 669 664 641 687 660 622 652 637 662 639 660 651 659 641 628 683 624 638 680 652 632 641 638 704 602 628 685 628 628 668 646 655 663 646 685 672 646 670 645 626 674 653 641 634 681 705 679 666 704 681 669 713 748 766 706 714 736 729 741 795 782 750 775 781 788 800 844 771 830 750 760 740 797 711 795 730 717 744 735 712 749 740 742 694 708 716 701 721 727 717 706 760 717 648 664 689 729 698 674 648 742 659 657 691 660 673 672 664 685 697 657 678 601 665 675 632 674 686 642 643 657 652 624 614 690 739 640 672 655 635 659 679 656 661 651 656 671 661 657 691 637 675 646 690 662 711 639 677 661 664 700 700 682 668 665 705 695 732 712 673 680 686 689 691 719 701 737 655 687 669 676 689 683 695 736 749 712 747 677 718 727 694 731 687 695 742 697 724 703 714 700 716 691 668 735 695 767 715 724 687 681 712 671 704 723 707 705 695 716 729 704 681 730 715 689 670 739 632 718 721 678 723 694 709 652 690 679 705 695 716 682 680 735 710 714 700 692 692 688 702 713 635 693 754 703 705 682 689 690 697 782 668 689 709 670 678 697 731 705 671 739 701 670 724 677 718 677 697 747 701 715 693 721 719 695 674 680 720 699 719 757 688 768 726 752 771 813 819 830 778 825 878 813 902 873 948 928 927 1096 1059 1130 1107 1129 1179 1102 1061 999 969 960 957 929 929 939 839 863 818 802 813 845 861 806 853 829 961 927 927 942 856 919 912 842 815 781 829 756 740 753 814 731 686 753 748 722 716 713 741 722 693 715 707 742 715 700 705 697 679 670 656 638 684 705 640 602 693 661 643 678 654 701 660 683 711 679 665 682 641 658 636 629 685 608 683 669 630 656 691 628 670 654 685 669 662 669 638 650 636 649 661 681 674 647 638 686 673 672 646 632 695 620 677 635 699 667 692 660 647 626 640 688 648 629 653 658 672 669 661 679 677 717 655 723 707 705 658 643 637 683 691 679 680 658 696 668 727 634 641 693 654 665 627 668 699 652 667 686 679 682 670 690 656 683 663 669 687 689 677 638 654 653 703 684 656 695 660 667 660 647 685 656 678 679 637 629 663 648 662 646 723 685 679 681 722 675 633 671 660 647 724 680 694 666 693 700 699 609 745 690 644 677 688 712 680 673 700 697 728 692 684 643 776 687 726 700 736 672 729 763 779 735 665 734 723 749 751 720 760 731 748 742 722 757 726 721 774 770 774 776 727 823 760 794 833 763 731 798 765 786 746 738 742 769 816 791 779 726 743 746 710 738 705 821 771 738 795 750 766 746 764 740 736 733 741 750 727 696 745 717 733 707 716 684 676 715 701 698 719 695 671 741 640 676 610 661 683 650 672 667 701 662 689 697 634 667 638 696 663 645 607 689 661 636 669 695 651 633 674 665 630 620 641 682 673 670 672 672 652 651 657 600 641 633 670 669 659 669 719 618 648 648 648 646 675 649 657 648 632 665 685 658 609 664 633 697 637 643 607 627 654 621 661 673 650 647 634 674 629 650 666 605 643 654 675 690 619 647 617 657 655 670 667 656 623 652 638 617 582 670 613 599 617 667 651 631 663 636 574 647 641 660 654 665 680 630 627 597 651 637 629 656 612 636 714 619 690 658 619 593 655 665 648 659 678 625 666 603 578 627 642 635 632 645 629 653 596 630 613 603 678 592 616 647 631 606 595 602 632 629 627 622 665 641 612 628 618 653 612 625 654 710 681 637 586 592 691 625 619 652 662 696 647 686 644 641 663 617 607 662 647 654 664 596 653 629 606 662 669 635 646 677 652 663 661 624 639 648 616 636 650 639 594 602 634 591 608 659 666 584 601 653 672 650 659 660 640 635 649 657 664 653 656 666 644 625 610 595 647 610 660 624 615 645 613 654 603 635 621 614 656 706 677 648 660 584 680 681 623 665 663 623 596 643 643 645 626 641 657 636 647 674 650 641 656 622 624 609 657 665 666 687 679 668 657 659 684 671 655 658 656 649 632 615 599 665 665 625 625 659 656 639 640 696 660 636 625 701 633 665 640 668 657 621 648 624 655 660 646 614 670 654 717 645 653 623 642 613 612 645 658 628 672 660 603 654 650 657 656 659 645 651 673 619 675 644 676 634 618 634 626 653 624 652 635 648 645 633 628 585 631 624 614 597 631 633 660 627 656 592 593 635 651 671 653 654 588 654 683 674 564 643 638 611 639 662 627 642 644 647 625 589 580 648 668 602 679 679 651 600 634 662 623 658 618 600 609 636 673 615 612 609 605 659 643 672 600 618 629 626 654 624 601 644 612 615 609 626 685 642 604 621 644 723 691 654 650 680 602 637 623 632 667 635 640 626 675 653 629 633 659 660 673 661 672 634 631 632 656 667 682 644 667 633 670 682 660 758 622 678 643 652 737 715 664 686 628 702 668 738 670 708 691 696 707 645 652 692 647 676 639 699 701 697 677 646 650 697 680 674 696 676 695 674 663 695 687 697 706 696 647 694 696 694 660 695 730 682 738 686 679 715 716 693 680 700 706 719 710 756 688 731 683 737 671 697 707 664 721 689 670 737 743 704 655 718 655 697 701 705 659 686 651 683 715 627 669 636 704 673 732 663 645 677 713 663 689 659 657 626 659 639 666 633 650 601 640 668 626 699 711 699 666 679 651 624 687 686 636 688 704 664 670 661 653 662 605 684 616 645 645 681 652 693 685 689 658 699 660 615 661 670 668 659 653 690 644 676 636 637 676 661 689 654 696 696 693 687 674 656 648 669 652 661 739 677 682 674 699 728 757 708 692 735 771 723 711 756 707 756 746 768 801 793 733 808 791 804 777 783 783 729 772 761 771 813 740 793 730 743 695 730 714 674 728 702 699 690 662 744 725 703 697 793 724 719 753 660 701 726 676 715 684 683 656 667 704 683 684 641 684 658 626 630 652 644 602 660 629 593 595 689 682 620 629 673 620 611 634 711 670 661 615 673 619 599 651 697 599 644 635 586 671 683 670 622 612 657 603 596 633 624 638 611 677 647 639 675 638 621 648 638 618 623 669 626 642 593 606 585 646 661 668 609 637 638 655 648 575 637 619 603 587 634 588 617 669 645 659 660 622 611 607 645 681 633 596 625 610 636 615 605 671 605 635 615 645 649 582 622 643 581 638 640 659 618 604 648 620 634 615 662 634 684 663 654 639 622 640 604 613 611 633 627 630 641 630 619 638 600 617 674 604 619 631 623 618 608 597 599 615 607 666 627 655 627 651 643 621 601 657 637 636 636 620 632 610 651 612 657 627 568 580 626 604 623 649 602 607 648 599 636 582 638 624 643 571 644 622 662 649 632 637 579 661 662 620 627 602 579 609 635 620 600 656 671 588 593 588 616 679 637 594 607 649 622 665 611 613 598 603 591 628 651 648 653 596 561 579 634 623 667 676 609 607 654 623 626 606 603 637 563 636 606 612 613 598 623 558 601 625 623 626 600 600 601 584 643 616 628 647 636 573 583 616 608 615 606 627 611 666 630 625 620 600 633 642 631 601 613 605 647 593 644 627 644 595 630 615 635 651 592 607 626 645 601 629 607 587 611 593 625 630 648 618 676 636 632 627 606 609 660 601 603 621 615 592 660 636 619 611 596 639 609 586 641 561 594 634 630 585 656 601 681 647 613 614 621 587 609 619 587 674 561 598 612 606 631 618 641 618 579 586 659 613 672 588 582 606 626 633 615 614 643 620 655 623 635 683 644 589 638 561 644 614 622 619 654 637 617 653 620 681 593 623 592 626 630 685 600 640 640 620 630 641 613 661 618 629 621 670 655 648 649 663 712 657 695 678 684 704 636 724 695 677 646 665 654 636 699 669 746 697 683 642 690 722 671 661 614 650 681 651 693 655 630 675 670 682 634 625 667 619 676 673 624 669 632 742 703 659 664 678 622 657 644 667 637 690 612 607 637 669 635 650 648 675 654 670 629 666 612 660 690 633 623 656 605 658 650</counts>
			</dataPoints>
		</scan>
	</xrdMeasurement>
</xrdMeasurements>
