<?xml version="1.0"?>
<xrdMeasurements xmlns="http://www.xrdml.com/XRDMeasurement/2.3" xmlns:xsi="http://www.w3.org/2001/XMLSchema-instance" xsi:schemaLocation="http://www.xrdml.com/XRDMeasurement/2.3 http://www.xrdml.com/XRDMeasurement/2.3/XRDMeasurement.xsd" status="Completed" recordIdentifier="{A1C14859-B71C-410B-84E0-EC8E2BC636C3}">
	<comment>
		<entry/>
	</comment>
	<sample type="To be analyzed">
		<id>GPSS_Li1p6Mg0p6Ni0p2Hf0p2Cl4_121325_693cb366f4d05ae3d69752ba</id>
		<name></name>
		<preparedBy></preparedBy>
	</sample>
	<xrdMeasurement measurementType="Scan" status="Completed" sampleMode="Reflection">
		<usedWavelength intended="K-Alpha 1">
			<kAlpha1 unit="Angstrom">1.5405980</kAlpha1>
			<kAlpha2 unit="Angstrom">1.5444260</kAlpha2>
			<kBeta unit="Angstrom">1.3922500</kBeta>
			<ratioKAlpha2KAlpha1>0.5000</ratioKAlpha2KAlpha1>
		</usedWavelength>
		<incidentBeamPath>
			<radius unit="mm">145.00</radius>
			<xRayTube id="1010048" name="Empyrean Cu LFF HR (9430 033 7310x)">
				<tension unit="kV">40.0</tension>
				<current unit="mA">15.0</current>
				<anodeMaterial>Cu</anodeMaterial>
				<focus type="Line">
					<length unit="mm">12.0</length>
					<width unit="mm">0.4</width>
					<takeOffAngle unit="deg">6.0</takeOffAngle>
				</focus>
			</xRayTube>
			<sollerSlit id="21010002" name="Soller slits 0.04 rad.">
				<opening unit="rad">0.0400</opening>
			</sollerSlit>
			<mask id="22031000" name="Fixed mask 13 mm">
				<width unit="mm">9.00</width>
			</mask>
			<divergenceSlit id="22120001" name="Divergence slit 1°" xsi:type="fixedDivergenceSlitType">
				<distanceToSample unit="mm">50.00</distanceToSample>
				<height unit="mm">1.52</height>
			</divergenceSlit>
		</incidentBeamPath>
		<sampleMovement xsi:type="spinningSampleMovementType">
			<spinnerRevolutionTime unit="seconds">1.0</spinnerRevolutionTime>
		</sampleMovement>
		<diffractedBeamPath>
			<radius unit="mm">145.00</radius>
			<antiScatterSlit id="22090040" name="AS slit 9 mm (PIXcel)" xsi:type="fixedAntiScatterSlitType">
				<height unit="mm">9.00</height>
			</antiScatterSlit>
			<sollerSlit id="21020003" name="Large Soller slits 0.04 rad.">
				<opening unit="rad">0.0400</opening>
			</sollerSlit>
			<filter id="20030001" name="Large beta-filter Nickel">
				<material>Ni</material>
				<thickness unit="mm">0.020</thickness>
			</filter>
			<detector id="7010019" name="PIXcel1D-Medipix3 detector" xsi:type="rtmsDetectorType">
				<phd unit="keV">
					<lowerLevel>4.02</lowerLevel>
					<upperLevel>11.27</upperLevel>
				</phd>
				<mode>Scanning</mode>
				<activeLength unit="deg">5.542</activeLength>
			</detector>
		</diffractedBeamPath>
		<scan appendNumber="0" mode="Continuous" scanAxis="Gonio" status="Completed">
			<header>
				<startTimeStamp>2025-12-17T10:58:25-08:00</startTimeStamp>
				<endTimeStamp>2025-12-17T11:06:32-08:00</endTimeStamp>
				<author>
					<name>AutomatedUser</name>
				</author>
				<source>
					<applicationSoftware version="1.7b (136)">PANalytical Aeris Instrument Suite</applicationSoftware>
					<instrumentControlSoftware version="3.2.00000000 20240306">AERIS</instrumentControlSoftware>
					<instrumentID>950485</instrumentID>
				</source>
			</header>
			<dataPoints>
				<positions axis="2Theta" unit="deg">
					<startPosition>10.00943322</startPosition>
					<endPosition>99.99442286</endPosition>
				</positions>
				<positions axis="Omega" unit="deg">
					<startPosition>5.00471661</startPosition>
					<endPosition>49.99721143</endPosition>
				</positions>
				<commonCountingTime unit="seconds">12.495</commonCountingTime>
				<counts unit="counts">3089 3008 2922 3041 2975 2983 3028 2926 3037 3096 3001 2992 2982 2925 2958 2993 3009 3014 2967 3064 2856 3027 2976 2951 2998 2989 3019 2899 3004 2962 2976 2988 2938 3017 2970 3001 2926 2995 3015 3010 2996 2934 2999 3043 3040 3073 2989 2981 3039 2923 3008 3012 2988 3017 3017 2889 2997 2998 3126 2934 2993 3048 2976 3050 2986 2996 2964 2995 3060 2973 3042 3024 3056 3128 3017 2886 3039 3051 2996 3038 2992 3019 3040 3079 3096 2909 3032 2976 3034 2926 2987 2961 3010 3014 3072 3012 3070 2978 2972 2986 2992 2984 2994 2904 3008 2927 3072 3004 3019 3080 3038 3003 2951 3061 3057 3057 2996 3004 2963 2942 2996 2960 2956 2948 3047 3103 3057 3068 3039 3015 3024 2974 2992 3032 2986 3071 3012 2967 2997 3088 2857 2962 3090 2898 3042 2988 3020 3064 2947 3012 3121 3000 2899 3000 3008 2981 3016 3067 2926 3050 2974 2947 2895 3036 2978 2940 2882 2992 3046 2984 3127 3015 3009 3048 2913 3001 2955 3026 2990 3015 2867 2998 2980 2902 2839 2955 2924 2922 2989 2951 3061 2947 3042 2942 2990 2918 2901 2907 2948 2828 2978 2931 2792 2834 3019 3011 2931 2962 2979 2939 2888 2927 2832 3040 2965 2789 3067 2913 2882 2870 2848 2959 2904 2903 2867 2981 2893 2876 2855 2902 2885 3001 2864 2899 2835 2834 2846 2872 2877 2940 2896 2842 2872 2820 2894 2860 2949 2883 2863 2880 2880 2945 2896 2827 2826 2989 2782 2869 2887 2993 2864 2893 2869 2891 2790 2868 2853 2935 2776 2805 2796 2780 2948 2838 2879 2967 2955 2960 2944 2888 2941 2884 2878 2924 2845 2920 2808 2858 2923 2905 2874 2900 2829 2892 2719 2878 2907 2864 2914 2844 2880 2843 2977 2904 2929 2859 2868 2859 2822 2929 2934 2983 2918 2832 2906 2935 2856 2941 2867 2964 2837 2933 2926 2963 2985 2930 2979 2890 2973 3029 2990 2948 3073 2995 2971 3013 3003 3048 2972 2876 3051 3053 3022 3017 2927 3042 2946 2955 3102 3024 2991 3062 2998 3111 3056 3095 3060 3059 3258 3099 3040 3108 3174 3050 3136 3208 3130 3135 3123 3209 3189 3177 3138 3036 3164 3166 3172 3018 3193 3188 3245 3230 3198 3137 3245 3189 3197 3161 3344 3198 3303 3281 3209 3232 3181 3191 3194 3159 3281 3295 3280 3279 3300 3283 3265 3280 3198 3384 3427 3326 3303 3409 3286 3507 3325 3343 3306 3354 3466 3431 3410 3424 3436 3441 3372 3458 3565 3416 3412 3543 3553 3591 3477 3616 3498 3529 3556 3593 3617 3614 3662 3798 3800 3655 3803 3926 4057 3963 4117 4171 4199 4435 4208 4422 4416 4461 4616 4715 4729 4992 5044 5187 5235 5267 5347 5411 5553 5489 5256 5393 5409 5310 5293 5203 5069 4940 4903 4818 4839 4793 4942 4892 4883 4906 4994 5030 5052 5175 5133 5076 5169 5112 5094 5203 5173 5125 5076 5023 4822 4804 4688 4692 4562 4528 4531 4447 4481 4488 4394 4635 4487 4477 4494 4640 4528 4511 4456 4500 4401 4341 4187 4200 4096 4102 3961 3908 3787 3733 3600 3638 3509 3503 3431 3396 3361 3367 3333 3270 3225 3207 3158 3210 3185 3352 3278 3202 3327 3282 3143 3152 3066 3150 3142 3130 3199 3128 3131 3101 3137 3117 3056 3094 3022 3124 3042 3003 3111 3008 3054 3039 3021 3116 2911 3166 2938 2987 3082 3135 2974 3088 3058 3068 3056 3114 3040 3033 2940 2989 2987 3062 3063 2912 3012 2995 3043 3043 3014 2940 2996 3037 2962 2963 2985 2980 2944 3147 3000 2969 3052 3014 2888 2990 2877 2838 3017 2868 2988 2940 3034 2953 2972 2875 2930 2821 2874 2981 2911 2962 2893 2869 2992 2862 2948 2859 2894 2905 2859 2843 2828 2767 2898 2904 2994 2907 2897 2925 2908 2869 2794 2841 2915 3008 2742 2872 2869 2900 2921 2884 2938 2838 2766 2857 2875 2881 2868 2784 2925 2891 2810 2819 2898 2857 2891 2817 2807 2818 2871 2899 2864 2973 2913 2976 2930 2947 2869 2875 2861 2810 2821 2853 2807 2861 2869 2790 2842 2938 2856 2961 2881 2892 2885 2983 2821 2813 2893 2864 2828 2905 2821 2933 2804 2760 2768 2734 2794 2843 2792 2787 2807 2840 2818 2847 2837 2768 2731 2829 2772 2738 2751 2771 2878 2904 2848 2773 2753 2815 2883 2791 2749 2656 2776 2735 2790 2807 2800 2689 2837 2757 2736 2781 2783 2840 2718 2716 2803 2837 2746 2766 2763 2777 2837 2823 2692 2825 2713 2825 2794 2802 2774 2813 2743 2669 2769 2758 2845 2843 2717 2769 2719 2788 2777 2745 2765 2841 2642 2739 2693 2708 2802 2823 2773 2833 2740 2799 2720 2788 2713 2699 2743 2721 2737 2747 2752 2720 2761 2821 2836 2754 2675 2746 2681 2741 2723 2674 2743 2785 2873 2819 2700 2752 2782 2753 2690 2765 2622 2730 2654 2610 2678 2758 2700 2811 2697 2722 2718 2760 2819 2752 2698 2706 2678 2640 2737 2650 2658 2604 2641 2674 2715 2782 2712 2699 2755 2739 2679 2702 2736 2586 2689 2726 2631 2641 2604 2661 2721 2754 2597 2723 2593 2638 2604 2624 2608 2669 2675 2691 2684 2721 2626 2675 2782 2712 2720 2677 2642 2658 2665 2657 2694 2609 2745 2625 2680 2620 2574 2637 2634 2738 2627 2585 2573 2639 2649 2691 2669 2679 2627 2617 2633 2648 2541 2579 2668 2559 2606 2587 2700 2621 2616 2538 2539 2610 2568 2649 2588 2564 2574 2577 2542 2560 2524 2706 2527 2562 2610 2533 2515 2571 2511 2580 2628 2603 2528 2531 2520 2618 2517 2566 2539 2585 2563 2659 2586 2497 2539 2651 2534 2497 2618 2595 2556 2548 2623 2546 2601 2493 2590 2605 2626 2527 2572 2556 2615 2553 2589 2628 2493 2531 2411 2537 2531 2536 2582 2670 2515 2533 2602 2551 2506 2502 2558 2511 2591 2538 2627 2534 2636 2564 2587 2525 2619 2554 2498 2641 2509 2407 2533 2569 2506 2427 2521 2483 2542 2612 2520 2624 2496 2474 2591 2464 2507 2585 2563 2563 2678 2620 2501 2581 2537 2559 2677 2555 2491 2548 2637 2629 2445 2580 2495 2540 2492 2577 2653 2574 2614 2608 2554 2509 2545 2591 2625 2507 2635 2468 2630 2639 2528 2595 2643 2583 2723 2527 2559 2564 2505 2583 2551 2522 2684 2501 2579 2591 2558 2584 2553 2542 2580 2540 2493 2596 2583 2533 2594 2528 2535 2589 2576 2685 2623 2597 2491 2534 2531 2507 2540 2592 2507 2611 2561 2563 2527 2527 2523 2490 2498 2532 2646 2538 2598 2597 2621 2549 2567 2480 2594 2432 2572 2470 2674 2572 2673 2635 2515 2628 2587 2553 2653 2620 2519 2510 2524 2540 2437 2525 2544 2566 2537 2534 2533 2576 2592 2463 2494 2559 2581 2483 2460 2622 2505 2477 2450 2565 2427 2424 2433 2377 2418 2521 2542 2518 2559 2439 2390 2442 2482 2414 2480 2464 2475 2550 2495 2419 2484 2410 2544 2412 2410 2522 2387 2439 2333 2457 2446 2438 2422 2491 2426 2406 2428 2380 2365 2384 2372 2377 2384 2416 2425 2388 2361 2293 2388 2420 2309 2368 2244 2352 2238 2252 2303 2316 2392 2269 2171 2337 2254 2207 2399 2208 2269 2342 2295 2237 2266 2304 2203 2249 2286 2264 2222 2295 2300 2227 2267 2134 2302 2196 2245 2182 2192 2168 2211 2224 2261 2229 2260 2235 2212 2292 2159 2183 2162 2179 2172 2221 2265 2175 2260 2255 2199 2071 2228 2117 2143 2261 2146 2101 2168 2110 2097 2156 2077 2158 2085 2155 2169 2165 2047 2172 2141 2095 2106 2097 2113 2216 2016 2090 2072 1961 2131 2060 2042 2037 2000 2093 2094 2045 2010 2050 1990 2022 2096 2112 2109 2088 2013 2095 2103 2032 2024 2121 2064 2149 1991 2074 2078 2029 2080 2070 1998 2068 2079 2145 2071 2165 2072 2124 2096 2077 2062 2097 2003 2144 2035 2068 2086 2079 2086 2075 2026 2064 2041 2049 2052 2078 2047 2055 2083 1991 1974 1982 1944 2001 2073 2086 2001 2104 1997 2032 2010 2071 2032 2046 1981 2011 2074 2009 1966 2013 2023 1944 2042 1982 2005 2003 1997 1993 2014 1994 1967 2024 1979 2037 1994 2045 1949 2008 1962 1950 1955 1981 1900 1996 1947 2089 1998 1849 1933 2008 1933 2068 1989 1931 2016 1981 1958 1937 1999 1888 1955 1884 1940 1976 1981 1996 2035 1969 2047 1989 1980 1914 2011 1987 2039 1956 1953 1986 1926 1957 1981 1909 1999 1967 1949 1951 1915 1883 2036 1977 1942 1996 1955 1994 1943 2010 1954 1985 2047 1959 1979 1901 1989 2038 1967 1960 2072 1970 1981 1948 1959 2028 2000 1916 1999 2017 1999 1926 1927 1922 1946 1926 1936 1970 1998 1944 1988 1957 2006 1936 1975 2013 1968 1991 1963 1953 1936 1960 1955 1929 2016 1986 2045 2012 1921 1972 1969 1964 2014 1925 1913 1939 1874 2000 1885 1921 1957 2020 1967 1948 1997 1986 1949 2007 2003 1930 1906 1950 2002 1913 1982 1957 1923 1921 1844 1960 1961 1893 1931 1928 1949 1954 1900 1839 1991 1893 1846 1972 1897 1846 1839 1877 1838 1908 1969 1899 1874 1948 2018 1876 1935 1878 1878 1927 1877 1843 1815 1996 1854 1917 1795 1930 1876 1798 1925 1826 1943 1898 1886 1870 1845 1825 1876 1899 1854 1873 1884 1841 1903 1819 1812 1825 1850 1835 1872 1808 1814 1876 1893 1973 1820 1853 1846 1865 1760 1904 1859 1764 1911 1787 1851 1901 1844 1764 1822 1738 1850 1869 1721 1875 1760 1802 1778 1780 1828 1776 1794 1843 1810 1779 1780 1810 1738 1778 1842 1766 1784 1726 1810 1717 1697 1768 1771 1764 1867 1708 1848 1815 1769 1788 1830 1722 1782 1798 1803 1728 1752 1756 1746 1732 1802 1760 1847 1776 1719 1756 1711 1834 1679 1831 1796 1825 1838 1801 1748 1768 1776 1797 1819 1753 1762 1822 1693 1802 1751 1815 1745 1779 1821 1850 1912 1875 1802 1767 1826 1890 1823 1889 1877 1895 1934 1873 1923 1854 1941 1826 1830 1843 1905 1940 1873 1957 1952 1929 1976 1975 1965 1934 2027 2020 1992 2075 2031 2058 2048 2105 2061 2105 2187 2239 2273 2187 2197 2294 2287 2326 2341 2390 2273 2395 2368 2344 2282 2306 2269 2125 2282 2143 2077 2102 2034 2091 1942 1902 1860 1937 1972 1919 1887 1924 1828 1899 1815 1888 1845 1861 1932 1786 1884 1867 1807 1865 1860 1797 1778 1889 1851 1793 1770 1894 1772 1785 1789 1804 1844 1873 1802 1846 1864 1799 1860 1829 1811 1792 1799 1795 1780 1867 1810 1794 1839 1842 1842 1840 1674 1891 1809 1820 1835 1895 1877 1920 1844 1853 2101 1920 1980 1990 1984 1969 2051 2132 2141 2190 2079 2200 2140 2277 2304 2317 2423 2486 2686 2680 2883 2939 3232 3222 3526 3701 3946 4224 4396 4812 5055 5630 5842 6393 6825 7380 7873 8072 8732 8745 9311 9442 9436 9633 9626 9592 9416 9357 9042 8734 8100 7959 7533 7122 6764 6453 5948 5778 5724 5571 5501 5496 5432 5551 5552 5688 5659 5801 5756 5788 5846 5730 5655 5476 5478 5289 5137 5014 4854 4680 4561 4383 4310 4165 4123 4068 3903 3959 3858 3774 3698 3625 3672 3624 3536 3603 3383 3436 3313 3328 3194 3209 3272 3035 3029 3020 2963 2931 2788 2850 2724 2641 2607 2619 2627 2505 2387 2423 2472 2398 2346 2349 2450 2302 2264 2243 2268 2217 2133 2109 2177 2093 2216 2157 2141 2053 2096 2044 2092 1949 2013 1972 1960 1977 1853 1970 1901 1948 1919 1982 1951 1920 1900 1924 1802 1842 1893 1889 1833 1810 1812 1846 1788 1832 1789 1862 1810 1773 1808 1820 1844 1754 1746 1846 1785 1773 1752 1796 1708 1802 1711 1735 1755 1742 1765 1782 1743 1734 1875 1867 1819 1754 1748 1723 1833 1715 1723 1798 1784 1796 1760 1755 1746 1782 1738 1779 1723 1783 1690 1790 1740 1740 1729 1701 1747 1706 1637 1704 1701 1648 1683 1692 1702 1650 1664 1677 1674 1621 1699 1677 1671 1613 1614 1574 1572 1586 1588 1558 1512 1598 1565 1594 1601 1596 1533 1606 1530 1550 1595 1535 1568 1534 1449 1552 1463 1469 1549 1548 1475 1499 1445 1547 1534 1578 1585 1562 1458 1488 1465 1475 1565 1461 1545 1482 1564 1509 1514 1481 1498 1427 1435 1512 1443 1516 1475 1456 1525 1531 1466 1471 1426 1363 1474 1468 1481 1469 1498 1542 1474 1457 1394 1499 1492 1481 1511 1496 1511 1469 1508 1479 1473 1399 1422 1483 1392 1494 1445 1480 1376 1400 1438 1456 1503 1413 1456 1415 1485 1417 1369 1395 1413 1378 1415 1448 1337 1515 1405 1420 1386 1420 1405 1449 1504 1478 1400 1378 1468 1452 1458 1410 1365 1381 1416 1414 1413 1444 1428 1446 1451 1413 1322 1456 1441 1491 1497 1505 1409 1433 1478 1504 1427 1443 1499 1438 1401 1498 1502 1418 1511 1451 1417 1442 1440 1459 1498 1444 1372 1467 1399 1518 1473 1487 1488 1379 1501 1501 1570 1520 1588 1474 1539 1513 1547 1518 1550 1536 1544 1536 1532 1542 1481 1520 1566 1505 1625 1628 1652 1545 1580 1526 1585 1620 1604 1614 1694 1665 1655 1643 1671 1688 1646 1764 1719 1756 1733 1811 1759 1856 1821 1895 1841 1882 1967 2008 1926 2033 2119 2146 2201 2186 2352 2438 2497 2636 2586 2797 2891 2965 3234 3298 3562 3749 3969 4176 4449 4807 5149 5491 5874 6166 6576 7039 7495 7849 8078 8336 8596 8957 9013 8921 9085 9070 9031 8700 8450 8195 7938 7790 7211 7006 6692 6310 5968 5715 5562 5279 5156 4960 4919 4864 4911 5011 4947 5199 5113 5334 5542 5519 5585 5829 5620 5574 5505 5445 5351 5360 5077 5051 4920 4728 4442 4344 4065 3806 3656 3493 3280 3243 3094 3066 2841 2756 2795 2626 2565 2653 2467 2449 2436 2308 2290 2185 2311 2313 2273 2183 2127 2219 2174 2058 2158 2089 2064 2003 1973 2055 1910 1926 1967 1941 1849 1940 1891 1917 1867 1866 1783 1767 1809 1719 1818 1780 1699 1688 1766 1680 1791 1630 1700 1676 1620 1581 1663 1616 1526 1624 1672 1600 1545 1553 1554 1607 1426 1586 1531 1586 1544 1484 1482 1528 1505 1497 1511 1409 1444 1514 1425 1529 1447 1451 1473 1474 1439 1517 1427 1526 1490 1457 1435 1432 1400 1484 1461 1419 1426 1422 1433 1400 1387 1353 1444 1357 1439 1356 1467 1473 1456 1447 1448 1452 1416 1459 1412 1404 1461 1393 1465 1412 1426 1400 1403 1461 1375 1423 1298 1307 1424 1318 1407 1403 1370 1410 1312 1359 1312 1320 1412 1328 1282 1252 1348 1363 1370 1313 1317 1251 1370 1256 1390 1259 1316 1296 1289 1273 1243 1246 1325 1219 1299 1313 1290 1306 1277 1255 1259 1271 1281 1264 1239 1239 1214 1280 1293 1261 1202 1258 1314 1271 1214 1279 1258 1222 1208 1242 1174 1263 1240 1219 1259 1256 1287 1207 1299 1180 1311 1220 1222 1255 1302 1322 1230 1247 1240 1186 1262 1243 1201 1275 1273 1203 1230 1285 1237 1263 1266 1203 1322 1218 1253 1214 1253 1213 1207 1279 1173 1295 1211 1297 1306 1232 1193 1239 1270 1270 1282 1208 1235 1246 1236 1237 1313 1236 1226 1234 1291 1275 1270 1180 1188 1176 1267 1215 1232 1216 1255 1155 1258 1201 1227 1203 1269 1284 1240 1288 1191 1238 1219 1198 1201 1253 1257 1174 1155 1219 1212 1225 1236 1209 1159 1181 1228 1174 1135 1176 1172 1217 1235 1216 1182 1225 1225 1167 1245 1193 1261 1259 1228 1178 1179 1205 1177 1220 1181 1205 1201 1156 1210 1200 1169 1224 1167 1197 1151 1244 1241 1237 1151 1204 1225 1158 1233 1247 1243 1218 1180 1192 1177 1137 1127 1176 1137 1164 1201 1194 1236 1241 1163 1180 1159 1158 1206 1159 1230 1197 1165 1199 1168 1145 1183 1173 1183 1123 1185 1198 1106 1232 1288 1223 1137 1181 1176 1220 1097 1202 1120 1166 1149 1197 1196 1202 1146 1208 1148 1199 1144 1126 1157 1165 1154 1146 1172 1139 1122 1126 1142 1172 1124 1144 1178 1101 1142 1160 1174 1086 1178 1141 1204 1141 1063 1171 1115 1139 1165 1104 1100 1132 1159 1144 1120 1112 1140 1168 1113 1082 1146 1055 1114 1089 1189 1105 1113 1168 1200 1135 1132 1117 1160 1146 1129 1052 1144 1086 1071 1112 1091 1080 1109 1081 1099 1076 1080 1107 1116 1066 1095 1151 1001 1103 1127 1138 1074 1101 1126 1068 1113 1100 1094 1119 1119 1135 1139 1114 1117 1128 1038 1096 1039 1173 1051 1102 1160 1129 1059 1045 1067 1062 1105 1077 1124 1082 1078 1110 1108 1085 1119 1045 1126 1098 1107 1103 1116 1121 1114 1094 1081 1209 1060 1131 1137 1104 1092 1093 1088 1092 1106 1036 1121 1054 1154 1063 1105 1158 1050 1147 1107 1112 1067 1150 1095 1149 1124 1069 1085 1091 1049 1136 1115 1136 1122 1126 1105 1100 1088 1145 1087 1146 1108 1168 1113 1185 1110 1134 1112 1092 1080 1083 1103 1059 1146 1144 1129 1106 1121 1049 1123 1128 1081 1138 1103 1063 1106 1036 1093 1067 1078 1063 1128 1094 1110 1007 1129 1069 1095 1140 1052 1039 1072 1102 1041 1057 1084 1033 1166 1081 1090 1089 1071 1071 1077 1109 1096 1048 1111 1144 1038 1119 1048 1077 1051 1004 1021 1014 1062 1085 1079 1025 1032 996 1117 1079 1083 1052 1065 1109 1065 1052 1002 1080 1049 1088 1036 1082 1045 1028 1089 1041 1013 1065 1012 1090 1055 1118 1142 1053 1062 1061 1073 1046 1064 1079 1093 1072 1065 1065 1013 1098 1017 1078 1050 1034 1001 1030 1015 1039 1045 1019 1001 1087 1068 1028 1016 1117 1068 977 1031 1010 1019 1112 1055 1089 1029 1042 1057 1062 1041 1018 1003 1010 1135 1052 1031 1035 1048 1059 1056 1067 1005 1056 1053 1040 1061 999 1060 1007 968 1001 1011 990 1076 1001 1063 1049 1069 1025 1037 946 1064 1090 1107 1067 1045 1055 992 1025 1075 1010 1031 1085 1037 1026 951 1028 1004 1018 1036 1005 976 1038 1039 1052 982 1065 1025 1066 990 1025 1030 1026 1052 1050 1006 1036 1039 1045 1020 1013 1062 1047 1055 1014 971 1093 1055 1039 1065 1070 1031 987 1012 1016 1012 993 1088 1016 1051 988 1045 1068 994 1062 956 1089 993 959 974 1043 1015 979 992 1009 1055 1055 1008 980 964 1017 983 971 994 1057 1058 1007 1011 1058 1045 1017 1032 1050 990 1038 1020 1026 1001 1044 1023 1065 1033 1035 1044 998 1000 1024 1008 1000 1009 1045 1034 1005 956 1074 1020 989 1033 1037 1029 986 1047 1005 997 991 1028 967 1009 994 1043 1031 1011 1043 947 975 1016 1018 1014 1040 1000 1065 1015 1031 1027 1066 980 1008 1039 958 1067 998 1003 1025 1118 1014 1040 1074 1025 1045 994 1029 998 1046 1047 1009 1026 969 1045 1120 1032 1083 1002 1027 1024 996 1061 1053 981 1050 1041 1018 1088 1076 1010 970 1066 978 1088 1054 1009 1044 1074 1006 1036 1056 1048 1051 1111 1029 1069 1046 1071 1090 1083 1114 1041 1056 1079 1099 1129 1092 1126 1129 1105 1116 1079 1151 1193 1185 1222 1250 1263 1279 1292 1334 1389 1417 1437 1470 1480 1480 1443 1540 1601 1562 1634 1632 1668 1621 1652 1639 1584 1606 1593 1562 1591 1615 1531 1530 1405 1419 1375 1357 1284 1301 1385 1247 1324 1216 1207 1141 1119 1187 1147 1113 1152 1068 1172 1058 1080 1129 1127 1086 1089 1086 1052 1076 1131 1083 1046 1132 1085 1125 1095 1081 1082 1101 1088 1038 1122 1044 1079 1148 1119 1103 1113 1118 1103 1121 1074 1038 1074 1071 1091 1090 1062 1076 1032 1034 1078 1011 1128 1003 1093 1072 1070 1048 1027 1152 1031 1065 1049 1033 1053 1134 1020 1074 965 1058 992 1053 1043 986 1028 1017 1046 1035 1038 1072 981 939 1064 995 1032 985 1008 1026 1000 999 1048 996 979 938 982 1008 1059 1043 993 1025 984 1030 996 998 951 985 1030 1000 1030 1036 1008 1029 934 969 1003 971 953 952 939 995 1014 1008 1017 1071 1015 1000 1065 1019 1005 1033 995 974 1059 977 980 1034 1003 978 1035 984 1062 947 995 978 1088 974 1037 1004 1006 1025 1028 968 965 958 1032 1010 989 1011 1014 1042 952 1053 1020 1031 1097 1038 984 1034 1014 1017 1001 1027 1051 1021 1039 1039 984 1018 1026 984 1057 991 1063 977 1030 1059 1002 1013 1010 1078 968 1028 975 1028 1022 1046 1043 1044 1081 1021 1018 1076 1065 994 1016 1045 1015 1049 1056 1017 1082 1043 995 1026 1044 978 1034 1039 981 1023 1029 1053 1130 1051 1013 989 1032 988 1113 1070 1001 1060 1037 1051 986 1019 1039 1119 1097 1104 1130 1050 1052 1073 1085 1028 1074 1077 1021 1054 1085 1057 1079 1048 1031 1060 1076 1008 1029 1088 1037 1024 1058 1084 1079 1057 1046 1034 1104 1077 1087 1084 1092 1120 1111 1087 1086 1062 1071 1103 1054 1060 1097 1077 1084 1135 1074 1050 1122 1084 1072 1075 1119 1070 1119 1018 1090 1109 1071 1086 1140 1084 1119 1122 1114 1091 1161 1113 1111 1144 1147 1157 1099 1146 1139 1144 1196 1177 1213 1222 1251 1275 1159 1215 1277 1250 1274 1231 1294 1305 1307 1312 1295 1308 1381 1385 1372 1374 1452 1432 1500 1481 1540 1626 1630 1694 1751 1835 1836 2010 1897 2138 2142 2308 2429 2476 2720 2912 2981 3328 3473 3687 3833 4176 4211 4406 4581 4787 5018 4946 5032 5086 5187 5345 5268 5141 5164 4902 4831 4659 4388 4310 4177 3984 3829 3715 3559 3321 3335 3134 2905 2857 2686 2588 2544 2455 2364 2311 2359 2248 2263 2183 2220 2313 2344 2327 2319 2497 2416 2595 2615 2690 2717 2855 2843 3062 2912 2973 2988 2947 2901 2961 2805 2922 2875 2862 2776 2884 2718 2578 2717 2558 2633 2394 2413 2371 2366 2272 2347 2290 2152 2189 2139 2133 2050 2105 2027 2116 2057 2024 2043 2010 2003 2003 1890 2022 1953 1888 1984 1905 1913 1888 1799 1840 1881 1746 1768 1788 1749 1744 1700 1733 1705 1701 1727 1701 1669 1663 1673 1631 1664 1642 1637 1617 1635 1549 1539 1499 1527 1563 1537 1509 1479 1513 1486 1468 1558 1469 1447 1455 1399 1446 1310 1392 1368 1402 1450 1338 1334 1351 1363 1296 1282 1294 1314 1317 1329 1281 1274 1178 1248 1238 1231 1206 1258 1271 1188 1213 1228 1250 1232 1219 1169 1187 1185 1204 1168 1143 1138 1120 1133 1135 1230 1156 1267 1164 1205 1163 1154 1148 1179 1107 1135 1119 1123 1137 1122 1165 1122 1097 1145 1148 1138 1161 1087 1219 1103 1134 1059 1121 1142 1163 1120 1132 1174 1147 1173 1193 1236 1286 1243 1215 1256 1232 1225 1246 1320 1330 1287 1358 1327 1318 1330 1386 1346 1358 1420 1332 1425 1393 1377 1368 1332 1343 1342 1301 1303 1354 1344 1320 1239 1263 1276 1215 1204 1278 1249 1350 1291 1288 1235 1235 1181 1262 1249 1267 1222 1237 1255 1235 1280 1246 1281 1286 1288 1249 1266 1292 1280 1328 1302 1271 1343 1283 1266 1387 1299 1353 1302 1303 1297 1340 1318 1284 1328 1195 1230 1148 1193 1269 1159 1230 1188 1215 1143 1146 1160 1173 1133 1127 1089 1137 1169 1139 1040 1112 1084 1046 1021 1037 1083 1081 1060 1012 1141 1010 1008 987 997 987 1043 1022 1047 1050 1066 1030 962 1022 974 1038 1060 1011 993 1001 1057 1009 963 969 981 1035 1021 958 1049 1001 1018 1023 990 1037 986 1040 1033 991 978 940 976 1029 1003 1005 991 991 1019 1022 1003 986 993 1007 984 1008 1040 1029 903 1015 984 974 950 993 945 1042 952 1003 1016 979 993 1034 1014 1017 999 961 962 992 966 990 1036 962 960 1005 969 939 947 1019 1018 1017 990 983 1080 1021 976 1072 1000 1043 1068 997 1029 973 1097 1011 1023 994 964 956 1038 953 981 1030 985 1081 1006 965 987 1032 974 1035 990 1048 1001 967 1051 993 1041 1014 981 1081 940 984 1017 1036 1011 984 1031 1032 1032 981 945 1011 1022 1015 1026 1025 953 1030 1031 977 1001 1055 970 1032 1002 963 1068 1009 1031 990 1032 1009 1003 1014 1023 1053 1019 1006 1071 1037 1038 1022 1091 1131 1107 1062 1067 1021 1078 1131 1079 1136 1085 1068 1036 1036 1060 1075 1100 1047 1079 1097 1054 1130 1075 1083 1061 1031 1117 1064 1053 1040 1039 1058 1061 1053 1038 1031 1046 1081 1065 1122 1072 1066 1047 1031 1011 1083 986 1076 1130 1053 1047 1055 996 991 1082 1027 1021 1008 1017 1054 998 1034 1031 985 997 983 950 1015 968 986 1033 1047 1031 936 963 940 1000 986 1047 970 965 990 971 1000 921 979 1002 971 977 958 982 963 968 957 958 1023 956 1001 960 1013 1016 949 992 1063 986 969 1007 965 994 973 961 1045 984 1012 1020 989 933 1006 931 944 978 954 972 969 1036 981 920 958 952 923 993 946 951 938 971 989 968 986 952 984 1019 981 956 923 1004 1030 957 968 957 940 967 1043 1007 985 947 1000 1009 939 945 966 1033 910 921 908 972 958 946 918 950 934 929 995 962 943 981 909 972 936 998 948 981 992 980 983 934 965 1022 958 971 1001 972 1000 944 1013 958 1005 963 978 933 981 991 916 968 969 962 999 956 954 950 950 953 954 980 955 961 917 942 989 976 949 946 968 929 970 974 982 892 999 941 967 994 950 946 1030 978 918 980 889 1019 955 907 981 926 946 986 986 879 938 875 953 1001 923 961 919 955 942 954 983 962 953 1053 965 982 974 974 996 922 977 935 919 983 996 946 893 1016 1002 988 1020 915 987 972 971 988 943 1060 1025 953 1036 948 943 970 993 970 1033 1006 1034 990 1026 968 1097 1051 972 960 1037 1043 1040 1055 1019 1086 1053 1005 1007 1097 1092 1077 1094 971 1068 1044 1060 1068 1049 1080 1116 1062 1048 1076 1060 1066 1066 1103 1110 1099 1088 1088 1078 1062 1128 1110 1108 1116 1094 1135 1102 1080 1163 1167 1182 1246 1234 1201 1211 1339 1350 1370 1343 1370 1426 1533 1540 1589 1619 1679 1691 1717 1800 1819 1903 1867 1964 1923 1980 1957 2016 2047 2034 2052 2112 2076 2014 2113 1896 1970 1985 1942 1874 1836 1789 1791 1759 1743 1652 1586 1646 1618 1596 1612 1548 1458 1435 1380 1402 1365 1405 1390 1402 1366 1359 1343 1325 1345 1345 1401 1411 1442 1398 1476 1566 1553 1589 1576 1641 1627 1656 1629 1757 1743 1859 1779 1759 1854 1775 1916 1806 1857 1797 1777 1802 1795 1707 1709 1800 1649 1711 1629 1687 1596 1599 1623 1650 1517 1547 1526 1527 1511 1482 1441 1391 1434 1427 1343 1411 1393 1403 1313 1322 1348 1300 1318 1351 1322 1284 1352 1324 1404 1417 1273 1330 1333 1309 1313 1334 1301 1380 1326 1342 1342 1282 1331 1329 1376 1292 1386 1315 1341 1361 1307 1332 1342 1304 1338 1382 1337 1329 1377 1281 1260 1314 1316 1317 1222 1296 1379 1275 1278 1269 1320 1287 1308 1305 1265 1296 1199 1242 1208 1185 1281 1237 1257 1135 1229 1100 1209 1138 1180 1161 1167 1101 1139 1165 1161 1155 1181 1110 1136 1126 1125 1198 1125 1113 1156 1096 1039 1055 1129 1110 1112 1081 1018 1007 1117 1139 1035 1093 1031 1105 1045 1033 1035 1073 1048 1031 1100 1059 1076 1048 1027 1040 1047 1068 1065 1041 1031 1046 1055 999 1069 1075 1000 1082 1113 950 1123 1034 1081 1018 1043 1048 996 1060 1048 1064 1075 1112 1094 1054 1049 1073 1058 1025 1089 1048 1142 1101 1133 1139 1194 1201 1233 1221 1211 1244 1304 1376 1389 1454 1435 1528 1523 1598 1629 1686 1738 1834 1830 1885 1946 2029 1992 2082 2073 1945 2025 1987 1970 1996 2025 1936 1988 1921 1971 1836 1770 1759 1782 1689 1635 1588 1609 1579 1611 1475 1554 1391 1369 1369 1285 1309 1324 1245 1228 1215 1182 1165 1164 1154 1178 1214 1125 1105 1126 1186 1149 1242 1168 1188 1150 1164 1267 1229 1253 1283 1254 1228 1322 1387 1295 1329 1326 1347 1368 1434 1419 1373 1376 1379 1318 1372 1395 1328 1324 1309 1293 1319 1271 1259 1276 1236 1300 1245 1247 1270 1209 1229 1201 1218 1137 1162 1155 1151 1193 1156 1174 1154 1150 1146 1133 1129 1154 1193 1146 1211 1167 1169 1163 1138 1171 1222 1092 1189 1165 1145 1246 1109 1169 1127 1178 1172 1177 1193 1103 1228 1087 1191 1157 1124 1147 1114 1107 1113 1117 1149 1057 1059 1077 1030 1071 1028 1052 1096 997 1077 1002 981 1022 974 1065 1061 1000 1033 1007 1026 1034 965 999 1019 978 971 1037 1025 997 984 1053 1056 954 938 997 1058 984 1049 1065 980 1036 993 1085 1060 978 1025 1057 1010 971 1067 1086 1063 1005 1083 1081 1095 1084 1171 1081 1177 1056 1119 1116 1142 1183 1140 1093 1098 1137 1134 1085 1103 1090 1071 1108 1154 1098 1117 1060 1097 1004 1056 981 1056 1044 1057 1000 1019 1002 1038 1046 1058 983 1032 976 1029 989 1005 983 996 1010 1009 972 1008 969 1020 956 973 958 972 990 964 928 995 958 1053 1054 939 983 958 920 988 974 953 903 904 1038 971 976 931 907 922 895 864 904 931 929 969 946 964 902 918 912 905 905 907 910 968 933 922 898 967 945 977 927 952 962 925 967 938 980 977 950 979 890 951 965 960 954 918 946 953 948 936 926 924 924 914 922 931 927 973 977 943 908 949 921 950 946 902 943 898 860 934 919 930 943 947 956 933 905 914 900 911 960 908 937 914 981 928 928 877 947 997 916 922 904 918 899 875 862 853 899 914 907 908 918 891 909 864 880 906 875 958 936 978 896 938 896 891 881 867 905 954 963 900 919 917 882 924 876 955 852 887 879 899 861 895 914 959 903 883 910 867 919 926 823 890 873 883 892 875 899 948 930 888 934 872 952 881 914 845 897 853 871 884 933 838 860 845 853 899 887 848 882 855 948 887 920 830 839 902 870 906 922 899 860 887 847 894 821 876 821 833 805 824 831 848 863 828 859 831 890 896 882 852 898 872 895 827 841 887 898 868 869 868 828 829 867 864 894 846 836 840 877 871 859 882 864 872 879 873 831 881 868 833 884 852 886 905 874 885 893 824 853 852 881 866 889 798 882 904 881 852 809 848 862 853 899 796 885 846 851 802 860 846 816 839 806 808 897 891 823 842 837 861 860 861 856 852 854 871 815 842 809 879 860 868 816 811 815 876 804 805 863 864 860 818 886 889 863 804 829 795 847 815 795 839 837 799 810 877 858 852 854 893 863 828 812 838 821 832 888 904 795 827 857 859 905 825 807 850 824 805 891 832 884 816 821 856 860 843 776 807 827 863 791 825 834 841 823 771 792 806 863 823 867 776 846 859 857 788 791 879 852 814 813 847 864 839 842 850 788 836 844 848 817 845 838 808 870 806 861 839 830 799 818 811 843 839 837 786 779 834 831 806 862 774 845 807 823 866 784 887 816 796 830 800 801 840 851 876 881 837 809 902 871 886 879 821 857 824 898 865 866 853 809 903 874 878 885 879 890 859 847 881 846 920 904 879 929 880 891 973 957 913 954 957 954 926 903 964 927 905 935 949 969 934 960 863 895 954 925 890 866 869 860 891 877 854 909 849 846 921 876 890 826 901 833 841 828 827 826 861 816 851 877 843 849 826 828 844 870 820 826 843 818 826 859 836 828 839 795 861 820 872 836 832 827 820 830 785 806 857 812 832 804 803 806 880 857 841 823 795 873 835 803 831 844 844 873 881 900 830 857 855 817 846 830 864 823 827 800 841 832 825 827 811 875 795 880 879 854 805 868 885 813 835 869 781 844 801 865 800 824 880 847 827 798 768 903 824 792 847 808 780 847 869 823 846 856 833 799 804 862 840 849 847 823 835 836 839 760 825 830 850 859 792 801 799 848 838 857 858 850 853 890 843 829 792 832 844 854 808 880 780 777 804 761 821 878 829 839 888 804 895 857 819 806 843 816 810 841 821 779 850 814 807 860 845 834 859 793 823 846 834 847 854 783 812 799 793 815 787 801 792 813 819 833 839 843 809 852 811 893 866 776 868 820 842 823 854 857 844 842 858 841 817 846 844 861 788 850 865 871 829 897 861 803 820 888 861 873 824 822 898 883 883 791 834 863 802 819 903 845 877 868 808 893 835 912 855 893 870 870 865 859 865 818 822 933 881 865 907 902 839 946 901 942 866 902 929 907 925 965 978 948 925 995 911 1053 1012 1054 1045 1064 1043 1091 1077 1082 1101 1083 1118 1080 1106 1150 1105 1146 1123 1107 1101 1140 1120 1174 1051 1119 1058 1025 1054 1120 1093 1077 1047 1075 1066 1020 1056 1036 1003 1002 1015 1025 983 988 954 982 1026 928 995 940 964 921 884 882 902 910 903 927 942 877 893 917 913 915 906 936 906 875 904 886 834 952 949 888 882 922 923 925 913 932 963 974 931 992 982 1010 957 1014 982 971 1065 1019 986 1030 1001 1027 981 962 1012 1010 1003 1017 1018 992 1028 925 985 982 1028 969 888 970 901 956 938 1023 987 933 901 893 969 965 953 908 947 913 950 963 872 874 845 874 868 819 873 897 869 859 921 872 837 822 822 916 902 841 851 859 831 886 885 905 874 863 847 859 903 910 875 859 860 812 892 910 857 896 854 835 844 864 853 838 855 906 846 882 826 900 872 847 910 881 904 817 905 860 846 902 847 909 837 877 900 924 833 920 908 902 904 922 891 892 890 893 898 908 800 869 900 857 897 925 894 889 871 905 915 869 867 926 893 923 859 884 869 893 915 838 913 814 877 850 868 903 836 870 869 858 857 794 871 846 840 841 894 781 867 857 877 817 855 846 826 870 862 838 810 865 858 872 880 824 800 875 845 816 867 876 773 822 790 854 817 878 837 807 900 799 862 880 829 848 816 871 864 814 900 840 881 826 822 853 875 782 817 829 804 800 816 919 881 821 832 836 814 871 837 847 840 807 853 856 837 797 838 850 852 879 872 826 829 852 841 822 819 774 820 803 835 803 850 790 812 824 799 918 772 810 927 810 833 838 790 803 831 866 800 829 803 868 814 825 823 824 812 787 783 825 787 828 800 830 777 809 794 792 845 819 784 799 846 811 775 867 787 795 758 836 852 827 789 846 815 844 788 767 843 834 819 815 873 776 808 802 813 870 770 794 836 822 854 812 821 780 838 828 834 894 854 815 840 796 827 833 841 815 868 841 823 799 853 869 766 805 783 802 873 809 882 865 866 828 829 819 821 781 778 854 830 863 823 859 785 790 805 856 828 834 838 899 859 816 829 830 824 787 800 805 824 805 834 787 791 785 802 819 841 843 892 835 825 794 801 799 784 830 843 815 837 851 862 841 823 822 837 886 838 823 830 838 825 853 816 740 836 802 824 800 769 822 861 834 807 852 876 831 830 836 867 835 845 834 782 797 854 821 777 822 784 814 797 853 832 790 853 809 866 793 817 795 820 843 773 810 810 762 752 862 815 828 851 855 823 803 811 826 775 811 787 847 868 803 831 808 773 814 816 827 764 800 864 794 858 786 815 816 835 812 783 804 805 846 865 849 828 863 825 839 845 893 851 779 837 848 793 849 851 873 868 793 844 830 843 859 833 767 839 821 837 879 860 809 862 808 824 819 847 827 799 852 821 800 845 830 835 781 821 824 855 822 829 782 786 826 872 837 786 820 848 862 760 803 855 835 851 833 823 782 791 836 821 852 807 853 828 781 842 856 863 883 823 803 913 876 850 875 836 866 872 807 904 912 905 896 868 886 890 888 923 862 885 910 884 870 922 861 869 948 884 947 878 908 921 863 958 875 919 926 900 878 939 923 844 911 947 873 869 975 855 904 900 909 911 893 937 906 916 947 939 929 952 961 954 972 986 977 1030 999 1005 1016 1079 1032 1088 1071 1059 1039 1058 1062 981 1154 1079 1074 1102 1081 1089 1087 1076 1018 1070 1119 1132 1005 1059 1049 1044 1005 934 1055 1019 994 955 1099 974 993 948 953 969 945 1025 1001 992 950 1021 949 918 945 922 970 918 941 906 941 960 955 910 922 910 937 908 875 959 920 854 915 920 948 916 982 920 918 907 978 939 934 937 970 975 992 1012 905 991 991 1026 998 985 1039 1025 1005 1089 1059 1026 1126 1109 1003 1080 1059 1082 1056 1074 1052 1089 1077 1127 1097 1035 1104 1036 1098 1076 1067 1036 1078 1014 1078 1094 1056 1022 1076 1003 964 1006 1007 978 982 986 1018 936 1027 998 971 973 989 1002 1012 945 987 994 1031 949 944 952 948 957 978 985 974 904 980 936 988 959 972 983 926 982 953 969 976 888 953 1003 997 995 956 946 990 1014 917 966 980 1002 979 936 987 974 964 1011 970 966 935 971 949 976 957 1009 959 1011 995 895 988 991 1017 990 1059 966 1040 1007 1057 1007 992 967 1037 1026 1023 985 1055 1006 997 1081 1038 1066 1043 1080 1115 1045 1080 1131 1035 1120 1116 1155 1201 1199 1186 1189 1219 1280 1290 1286 1330 1272 1352 1382 1356 1385 1340 1438 1433 1427 1484 1471 1442 1499 1465 1539 1516 1458 1471 1534 1465 1520 1441 1516 1500 1494 1450 1440 1397 1449 1357 1416 1403 1354 1369 1339 1287 1382 1283 1304 1284 1288 1230 1228 1253 1267 1191 1164 1155 1161 1190 1117 1188 1098 1100 1151 1058 1070 1023 1036 1073 1058 1031 1032 987 989 1024 1032 1060 945 1005 972 1031 1005 996 989 992 1023 1034 991 1129 1072 1086 1097 1055 1117 1098 1123 1087 1066 1092 1144 1066 1186 1066 1184 1112 1122 1196 1174 1258 1226 1192 1239 1208 1153 1141 1255 1189 1198 1242 1168 1209 1187 1244 1238 1160 1124 1169 1225 1124 1169 1176 1079 1161 1186 1180 1110 1138 1129 1096 1107 1091 1058 1086 1153 1081 1149 1011 1115 1064 1061 1009 1003 1022 1043 1013 1033 1037 1074 977 967 1021 974 998 983 992 1014 988 1021 980 974 1012 1033 1033 1017 975 976 960 991 1050 1008 971 986 990 1028 1013 1026 1012 988 1000 1008 973 1002 980 996 957 997 985 1025 1017 1024 1037 1041 1016 1014 966 938 946 965 1000 1015 994 1044 924 982 984 954 1031 1025 1005 943 938 995 919 941 997 987 962 985 975 1007 963 960 985 934 952 975 1033 898 953 935 951 947 862 848 962 913 912 895 963 875 906 870 919 896 929 929 921 905 873 923 890 923 943 893 941 858 883 892 897 896 942 889 937 944 837 936 896 818 921 903 849 894 899 884 840 872 844 884 883 946 901 891 955 862 853 912 921 869 871 870 871 832 896 882 918 894 902 846 837 887 910 931 845 883 837 863 829 860 883 849 894 884 870 859 887 858 853 884 872 889 883 881 896 859 857 889 855 837 854 867 827 865 855 900 907 905 858 897 853 882 836 914 860 932 804 895 877 856 888 855 861 906 872 892 848 827 872 839 825 871 852 829 864 891 789 923 869 864 888 830 890 845 849 843 862 834 853 873 932 896 878 858 858 858 911 851 881 827 879 861 815 851 921 855 879 884 848 887 896 878 868 850 906 864 835 835 864 849 871 858 903 856 886 859 872 840 812 867 906 887 947 866 877 916 901 895 896 851 866 861 823 915 857 904 871 900 895 883 860 917 924 871 866 869 903 820 876 879 908 926 831 860 848 852 899 871 908 909 898 938 795 816 864 873 850 899 882 852 863 882 894 876 893 857 829 838 877 862 886 843 883 849 832 862 886 868 838 856 868 877 871 894 916 867 849 824 835 832 860 894 853 842 850 824 905 875 887 891 878 867 890 829 875 888 834 890 845 877 861 907 858 808 853 886 842 828 827 868 872 848 873 830 903 872 864 776 837 812 842 855 880 878 902 876 864 847 853 860 834 890 838 826 866 842 848 858 901 871 888 826 825 862 873 816 847 857 856 871 814 812 890 859 838 835 773 876 831 831 866 854 872 854 858 842 882 860 922 834 833 834 845 895 893 840 808 841 857 892 842 825 819 848 842 861 881 903 858 861 854 876 911 782 890 867 842 806 851 877 916 807 845 882 885 921 857 855 929 875 879 899 943 881 920 851 866 895 877 883 860 904 863 875 876 885 899 923 951 870 832 897 891 886 930 886 969 879 915 924 881 872 894 938 892 912 877 891 840 858 911 836 831 826 888 868 931 879 849 893 872 896 860 910 860 891 837 838 857 900 830 824 905 837 861 882 901 807 847 824 816 840 835 868 827 846 842 819 859 823 836 806 829 843 817 819 884 846 875 880 891 830 807 807 858 827 801 830 821 826 832 820 783 916 842 827 834 858 830 882 811 822 836 843 859 879 864 843 845 874 866 821 826 821 844 903 825 852 864 869 820 776 870 820 821 868 821 773 829 808 819 852 842 825 819 784 884 803 841 799 806 872 862 826 838 866 791 834 819 805 818 834 857 855 779 860 839 896 831 783 852 776 781 842 874 828 811 847 849 811 806 784 818 816 796 857 813 781 853 850 834 855 889 821 806 816 844 795 818 863 850 835 823 840 779 827 816 863 874 823 863 845 832 882 866 816 806 794 855 776 828 798 869 919 823 778 812 830 866 871 819 837 831 795 840 872 789 808 777 814 768 819 808 881 803 821 834 866 921 868 936 858 822 855 844 890 858 834 831 773 823 879 859 899 856 870 889 878 860 938 943 910 894 917 905 928 897 924 913 914 977 917 925 950 980 1029 1043 977 1028 1011 1038 1030 1025 1051 1077 1079 1094 1078 1185 1124 1191 1192 1193 1229 1195 1194 1174 1208 1172 1252 1293 1262 1201 1201 1244 1245 1276 1259 1244 1245 1234 1203 1210 1229 1172 1236 1186 1280 1233 1167 1135 1167 1183 1119 1125 1127 1121 1132 1137 1111 1118 1149 1070 1111 1082 1042 1028 988 1057 1028 1038 1021 1044 1040 1074 967 1031 936 1016 956 989 951 978 897 949 919 963 901 923 955 898 950 888 933 893 927 858 863 936 904 924 943 893 941 975 945 911 958 912 918 941 928 914 983 928 961 936 983 934 1002 950 959 921 981 977 943 991 981 1001 993 1020 1001 1010 1029 1085 1073 1020 1069 1056 1029 1057 1083 1060 1144 1036 990 1086 1004 1057 1006 1042 1046 1092 1039 1014 1035 991 1027 985 1000 982 1007 1021 978 997 1043 1036 1018 1023 980 997 925 962 984 957 1001 1011 979 1068 993 956 975 972 949 941 963 938 916 951 926 951 944 965 943 975 903 976 933 928 1013 959 958 986 912 976 957 925 929 938 942 940 977 918 968 1036 913 993 941 967 978 997 1039 938 926 962 967 981 962 923 916 917 1002 923 910 943 900 1000 926 921 914 922 952 991 947 973 903 1005 916 895 941 901 915 928 930 956 886 908 949 922 929 937 915 901 875 896 904 936 892 919 887 926 946 943 864 883 887 918 906 913 950 933 923 953 887 955 867 890 882 898 916 919 967 943 936 919 941 937 884 887 864 865 919 914 896 899 898 915 825 885 878 868 892 890 879 925 886 895 898 920 831 924 878 910 878 862 880 876 827 907 880 904 905 832 902 880 926 857 912 856 972 926 839 917 898 869 913 869 887 882 859 811 905 841 816 884 824 867 847 859 895 858 879 773 846 864 855 874 856 848 927 867 881 847 831 877 838 886 882 884 873 870 865 860 827 893 875 821 842 842 919 882 905 854 858 856 888 828 853 854 870 846 909 891 871 868 920 929 855 840 894 918 795 878 827 881 859 870 863 815 891 919 920 861 887 862 882 839 904 809 844 831 829 805 846 852 800 830 880 927 881 844 907 844 859 834 862 824 820 835 868 870 859 828 840 822 848 796 811 809 832 834 893 869 825 827 805 856 882 863 835 867 811 820 911 797 800 776 856 862 819 814 888 871 900 780 809 855 810 802 800 807 849 856 837 821 831 839 861 846 845 895 859 851 797 834 863 856 849 774 913 851 826 865 885 825 886 890 840 829 884 835 814 818 857 788 886 763 865 854 868 859 825 914 821 845 882 838 814 798 877 846 871 824 844 799 853 830 822 817 842 871 882 821 816 866 872 827 852 878 819 861 798 859 849 856 860 886 857 849 822 846 863 843 857 834 871 891 844 868 854 816 922 810 887 856 884 863 832 869 865 844 903 844 850 828 867 826 879 849 876 906 901 852 908 854 840 895 777 834 897 885 842 847 907 849 831 894 808 837 896 885 911 915 906 876 863 895 886 883 897 885 855 894 884 858 879 899 906 857 881 853 900</counts>
			</dataPoints>
		</scan>
	</xrdMeasurement>
</xrdMeasurements>
