<?xml version="1.0"?>
<xrdMeasurements xmlns="http://www.xrdml.com/XRDMeasurement/2.3" xmlns:xsi="http://www.w3.org/2001/XMLSchema-instance" xsi:schemaLocation="http://www.xrdml.com/XRDMeasurement/2.3 http://www.xrdml.com/XRDMeasurement/2.3/XRDMeasurement.xsd" status="Completed" recordIdentifier="{79D3782F-38D8-4AEF-B43A-6778D1DF8575}">
	<comment>
		<entry/>
	</comment>
	<sample type="To be analyzed">
		<id>GPSS_Li1p5Mn0p5Y0p2Bi0p3Cl4_112425_69248ac4f4e53d1f723993c9</id>
		<name></name>
		<preparedBy></preparedBy>
	</sample>
	<xrdMeasurement measurementType="Scan" status="Completed" sampleMode="Reflection">
		<usedWavelength intended="K-Alpha 1">
			<kAlpha1 unit="Angstrom">1.5405980</kAlpha1>
			<kAlpha2 unit="Angstrom">1.5444260</kAlpha2>
			<kBeta unit="Angstrom">1.3922500</kBeta>
			<ratioKAlpha2KAlpha1>0.5000</ratioKAlpha2KAlpha1>
		</usedWavelength>
		<incidentBeamPath>
			<radius unit="mm">145.00</radius>
			<xRayTube id="1010048" name="Empyrean Cu LFF HR (9430 033 7310x)">
				<tension unit="kV">40.0</tension>
				<current unit="mA">15.0</current>
				<anodeMaterial>Cu</anodeMaterial>
				<focus type="Line">
					<length unit="mm">12.0</length>
					<width unit="mm">0.4</width>
					<takeOffAngle unit="deg">6.0</takeOffAngle>
				</focus>
			</xRayTube>
			<sollerSlit id="21010002" name="Soller slits 0.04 rad.">
				<opening unit="rad">0.0400</opening>
			</sollerSlit>
			<mask id="22031000" name="Fixed mask 13 mm">
				<width unit="mm">9.00</width>
			</mask>
			<divergenceSlit id="22120001" name="Divergence slit 1°" xsi:type="fixedDivergenceSlitType">
				<distanceToSample unit="mm">50.00</distanceToSample>
				<height unit="mm">1.52</height>
			</divergenceSlit>
		</incidentBeamPath>
		<sampleMovement xsi:type="spinningSampleMovementType">
			<spinnerRevolutionTime unit="seconds">1.0</spinnerRevolutionTime>
		</sampleMovement>
		<diffractedBeamPath>
			<radius unit="mm">145.00</radius>
			<antiScatterSlit id="22090040" name="AS slit 9 mm (PIXcel)" xsi:type="fixedAntiScatterSlitType">
				<height unit="mm">9.00</height>
			</antiScatterSlit>
			<sollerSlit id="21020003" name="Large Soller slits 0.04 rad.">
				<opening unit="rad">0.0400</opening>
			</sollerSlit>
			<filter id="20030001" name="Large beta-filter Nickel">
				<material>Ni</material>
				<thickness unit="mm">0.020</thickness>
			</filter>
			<detector id="7010019" name="PIXcel1D-Medipix3 detector" xsi:type="rtmsDetectorType">
				<phd unit="keV">
					<lowerLevel>4.02</lowerLevel>
					<upperLevel>11.27</upperLevel>
				</phd>
				<mode>Scanning</mode>
				<activeLength unit="deg">5.542</activeLength>
			</detector>
		</diffractedBeamPath>
		<scan appendNumber="0" mode="Continuous" scanAxis="Gonio" status="Completed">
			<header>
				<startTimeStamp>2025-11-27T09:50:07-08:00</startTimeStamp>
				<endTimeStamp>2025-11-27T09:58:14-08:00</endTimeStamp>
				<author>
					<name>AutomatedUser</name>
				</author>
				<source>
					<applicationSoftware version="1.7b (136)">PANalytical Aeris Instrument Suite</applicationSoftware>
					<instrumentControlSoftware version="3.2.00000000 20240306">AERIS</instrumentControlSoftware>
					<instrumentID>950485</instrumentID>
				</source>
			</header>
			<dataPoints>
				<positions axis="2Theta" unit="deg">
					<startPosition>10.00943322</startPosition>
					<endPosition>99.99442286</endPosition>
				</positions>
				<positions axis="Omega" unit="deg">
					<startPosition>5.00471661</startPosition>
					<endPosition>49.99721143</endPosition>
				</positions>
				<commonCountingTime unit="seconds">12.495</commonCountingTime>
				<counts unit="counts">2989 2943 3016 2930 3005 3047 3044 2976 3096 3029 3038 2943 3138 3102 3075 3048 3007 3164 3066 3131 2990 3124 2861 3037 3042 2970 3067 3092 2989 2982 3014 2966 3044 3080 3088 3181 3001 3114 3205 3025 3080 3027 3033 3064 3025 3143 3116 3097 3067 3060 3120 3134 3039 3156 3239 3068 3114 3042 3104 3110 3164 3118 3133 3117 3173 3083 3128 3152 3117 3098 3117 3106 3120 3221 3184 3093 3160 3141 3184 3225 3257 3180 3289 3183 3235 3211 3189 3278 3251 3158 3211 3225 3150 3240 3180 3254 3157 3325 3265 3214 3263 3354 3249 3271 3288 3355 3309 3342 3187 3286 3402 3239 3272 3309 3150 3296 3343 3335 3283 3247 3361 3378 3331 3232 3319 3277 3300 3355 3214 3335 3452 3318 3339 3416 3376 3415 3333 3376 3294 3412 3368 3367 3380 3331 3182 3330 3352 3332 3414 3316 3373 3423 3371 3432 3429 3278 3399 3283 3435 3327 3506 3344 3333 3475 3387 3242 3299 3403 3353 3387 3407 3522 3474 3450 3336 3385 3471 3366 3348 3389 3342 3302 3471 3441 3480 3464 3348 3339 3406 3308 3401 3354 3317 3309 3391 3356 3355 3402 3401 3356 3404 3395 3338 3400 3369 3380 3431 3265 3351 3318 3443 3504 3386 3472 3431 3440 3379 3470 3301 3334 3337 3409 3324 3371 3271 3370 3302 3301 3264 3409 3418 3249 3373 3314 3253 3507 3295 3392 3377 3355 3383 3296 3317 3255 3433 3339 3270 3350 3248 3248 3303 3333 3371 3290 3258 3349 3344 3374 3250 3311 3275 3301 3419 3326 3395 3364 3332 3316 3272 3363 3316 3272 3333 3354 3334 3434 3343 3308 3237 3385 3375 3326 3347 3258 3426 3341 3335 3224 3372 3291 3414 3322 3220 3267 3324 3314 3303 3181 3397 3252 3424 3416 3409 3316 3402 3326 3262 3376 3315 3316 3388 3498 3447 3335 3222 3339 3373 3359 3413 3293 3355 3438 3445 3463 3494 3419 3511 3276 3458 3479 3564 3421 3503 3506 3395 3454 3467 3323 3477 3429 3477 3557 3443 3465 3556 3615 3470 3540 3443 3593 3631 3512 3521 3425 3446 3416 3558 3595 3525 3668 3635 3503 3516 3543 3590 3445 3543 3640 3623 3646 3589 3705 3664 3635 3628 3578 3659 3670 3739 3598 3630 3526 3611 3502 3595 3744 3704 3643 3718 3567 3742 3721 3745 3771 3806 3776 3728 3832 3784 3871 3927 3979 3889 3981 3956 3990 3863 4029 4027 4132 4167 4344 4214 4205 4158 4170 4248 4188 4408 4217 4387 4270 4313 4245 4384 4297 4259 4403 4402 4277 4288 4251 4407 4293 4304 4329 4246 4374 4308 4212 4311 4243 4340 4237 4131 4090 4074 3954 4052 3869 3979 3909 4036 3892 3880 3802 3862 3873 3941 3907 3983 3882 3866 3786 3892 3839 3911 3775 4008 3803 4039 3879 4061 3967 3940 3904 4113 3977 4047 4041 4073 3992 4149 4113 4127 4241 4291 4222 4121 4130 4264 4185 4265 4162 4196 4299 4292 4175 4262 4251 4327 4175 4335 4108 4151 4176 4192 4228 4100 4151 3990 4026 3941 4023 4061 4001 3906 3923 3937 3777 3812 3920 3835 3800 3721 3739 3809 3684 3844 3693 3661 3713 3809 3711 3703 3730 3635 3551 3777 3611 3720 3803 3713 3632 3749 3621 3750 3674 3692 3626 3631 3719 3497 3597 3493 3604 3673 3511 3452 3376 3504 3387 3404 3448 3436 3467 3328 3347 3301 3372 3378 3359 3327 3324 3260 3335 3306 3355 3254 3308 3283 3294 3313 3227 3211 3311 3264 3294 3240 3219 3304 3202 3243 3398 3152 3207 3279 3279 3267 3192 3156 3227 3201 3187 3144 3217 3213 3182 3234 3301 3213 3283 3196 3276 3199 3281 3186 3018 3324 3229 3218 3260 3184 3144 3215 3110 3210 3092 3142 3238 3160 3218 3063 3074 3190 3169 3147 3171 3164 3092 3162 3112 3168 3115 3248 3198 3078 3279 3169 3105 3195 3186 3167 3230 3139 3194 3202 3212 3175 3248 3100 3250 3174 3198 3259 3173 3223 3225 3220 3336 3282 3210 3190 3274 3222 3231 3282 3243 3247 3196 3251 3224 3260 3407 3157 3313 3221 3328 3223 3151 3277 3190 3238 3164 3237 3154 3105 3215 3192 3213 3199 3164 3197 3162 3156 3186 3044 3188 3162 3184 3160 3116 2999 2998 3009 3097 3053 3102 3058 3076 3094 3220 3186 3200 3182 3094 3107 3107 3182 3106 3049 3112 3024 3092 3069 3091 3143 3049 3043 3094 2974 3127 3108 3085 3086 3056 3110 3067 3111 3107 3131 3077 3147 3029 3098 3036 3103 2948 3063 3068 2967 3121 2965 2988 2960 2932 3082 2985 3080 3015 2932 3086 3062 3014 3070 3015 2968 3157 3011 2988 2977 2955 3039 3016 3000 3049 2981 3021 2963 2930 3012 2997 2997 2970 2998 2912 2968 2903 2980 2894 2995 3031 2944 3064 3013 3066 2987 2976 2953 2906 2920 2971 2899 3018 3033 2925 2847 2864 2912 2952 2913 2854 2845 2932 2847 3019 2942 2857 2881 2902 2872 2888 2847 2882 3078 2887 2898 2866 2919 2915 2858 2902 2936 2862 2926 2845 2934 2868 2907 2903 2829 3007 2898 2850 2814 2889 2804 3001 2925 2898 2846 2858 2907 2887 2831 2845 2864 2841 2925 2826 2847 2873 2921 2889 2972 2789 2840 2777 2839 2834 2921 2837 2850 2833 2953 2752 2877 2828 2835 2782 2821 2880 2790 2933 2758 2828 2732 2896 2764 2713 2767 2794 2751 2897 2674 2795 2844 2752 2730 2794 2794 2813 2846 2671 2819 2790 2873 2771 2795 2824 2822 2679 2831 2725 2764 2749 2773 2832 2789 2687 2793 2782 2741 2757 2691 2850 2794 2857 2718 2831 2829 2745 2814 2812 2863 2635 2786 2757 2782 2728 2867 2774 2803 2822 2755 2702 2844 2771 2775 2809 2687 2722 2789 2908 2792 2838 2806 2815 2773 2789 2899 2754 2810 2764 2794 2848 2758 2862 2912 2782 2761 2691 2824 2702 2744 2774 2835 2695 2738 2788 2783 2792 2668 2722 2756 2815 2628 2693 2835 2744 2759 2721 2794 2744 2728 2763 2610 2738 2666 2703 2696 2724 2726 2700 2793 2632 2773 2671 2718 2721 2739 2662 2753 2699 2777 2733 2754 2707 2716 2684 2686 2658 2698 2837 2629 2718 2741 2643 2709 2678 2740 2727 2697 2575 2787 2671 2761 2734 2772 2717 2714 2723 2708 2743 2788 2672 2754 2740 2616 2794 2765 2727 2746 2718 2694 2734 2677 2708 2773 2736 2632 2745 2796 2658 2727 2677 2762 2797 2654 2697 2803 2800 2670 2759 2730 2646 2672 2680 2592 2709 2822 2784 2694 2738 2711 2728 2774 2674 2699 2664 2654 2597 2681 2704 2584 2652 2576 2692 2658 2515 2671 2702 2630 2614 2640 2666 2616 2619 2616 2671 2756 2672 2528 2602 2602 2639 2576 2722 2637 2698 2623 2619 2676 2567 2574 2604 2729 2546 2630 2575 2684 2503 2622 2556 2663 2586 2688 2557 2619 2521 2520 2607 2564 2605 2492 2603 2543 2563 2612 2615 2540 2505 2522 2439 2490 2579 2509 2479 2571 2521 2548 2507 2531 2521 2537 2467 2527 2524 2528 2451 2496 2478 2506 2472 2464 2441 2419 2435 2452 2395 2442 2430 2422 2346 2555 2337 2447 2406 2446 2430 2455 2439 2305 2389 2386 2336 2388 2338 2313 2339 2366 2349 2351 2355 2376 2306 2327 2302 2355 2327 2235 2221 2275 2261 2247 2224 2282 2298 2335 2226 2194 2323 2198 2282 2353 2268 2185 2204 2200 2239 2320 2288 2230 2228 2228 2250 2270 2200 2271 2314 2206 2241 2282 2212 2209 2204 2192 2226 2119 2166 2212 2217 2242 2177 2131 2254 2085 2078 2074 2238 2206 2162 2132 2138 2099 2060 2138 2047 2111 2081 2170 2072 2071 2091 2152 2037 2158 2047 2094 2030 2078 2023 1973 2024 2031 2076 2026 2149 2077 2134 1972 1999 2051 2006 2039 2062 2063 1956 1959 2048 2119 2031 2083 2091 2053 2002 1984 1945 1998 2020 1950 1975 1993 1960 2078 2069 2022 1958 1989 2055 1992 1993 1997 1986 1975 1952 1988 2017 1941 2014 1950 1999 1893 1992 1855 2048 2006 1983 1991 1981 1945 1947 1939 1994 1914 1955 2029 1972 1922 1948 1999 1949 1955 1944 1908 2036 1984 2093 1995 1941 1930 1914 1997 1900 1937 1938 1969 1967 1974 1924 1981 2003 1919 2034 1925 2040 1928 2016 1986 2021 2032 1961 2013 1978 1948 1923 2046 1985 2031 1975 1913 1933 1976 1947 2048 1921 1956 1941 1946 1957 1951 2026 2076 1930 2092 1920 2011 1944 2074 1926 1955 1935 1926 1881 2039 1914 1970 1963 1928 2001 1967 2011 1969 2053 1943 1957 2022 1919 1987 1894 2029 1898 1963 1926 2001 1929 1929 1876 2003 1898 1990 1887 1865 1863 1890 1923 1996 1971 1938 1942 1889 1847 1929 1939 1927 1962 1970 1893 1888 2017 1927 1946 1969 1991 1969 1921 1981 1905 1930 2015 1981 1942 2006 1983 2002 1992 2025 2021 1976 1965 1984 1939 1954 1980 1935 1997 2000 2010 1956 1996 1951 1944 2021 2022 2012 1874 2038 1922 1967 1910 1991 1986 1941 1950 1883 1897 1992 1945 1918 1925 1986 1955 1923 1964 1953 1915 1983 1865 2020 1970 1931 1924 1880 1861 1965 1880 1944 1916 1882 1881 1918 1844 1922 1852 1798 1846 1833 1847 1791 1812 1877 1823 1882 1835 1830 1746 1792 1709 1791 1861 1812 1739 1847 1839 1829 1769 1864 1792 1831 1777 1837 1813 1812 1809 1748 1782 1759 1814 1745 1821 1682 1767 1783 1764 1769 1720 1731 1746 1800 1756 1710 1683 1724 1757 1744 1759 1758 1741 1776 1735 1708 1761 1697 1698 1761 1695 1645 1729 1754 1729 1762 1705 1764 1633 1663 1635 1720 1709 1654 1735 1720 1635 1648 1682 1649 1689 1618 1676 1650 1627 1640 1707 1578 1660 1620 1658 1660 1626 1550 1689 1606 1611 1635 1650 1693 1696 1625 1665 1718 1660 1658 1726 1810 1894 1889 1852 1843 1919 1841 1807 1848 1852 1882 1762 1891 1837 1881 1850 1842 1859 1841 1855 1833 1877 1966 1883 1928 1926 2010 1924 1969 2030 1940 1928 1839 1780 1814 1904 1776 1748 1718 1737 1790 1722 1695 1655 1747 1646 1699 1589 1620 1592 1537 1537 1593 1595 1535 1573 1594 1467 1605 1571 1618 1611 1567 1666 1587 1540 1515 1564 1549 1560 1545 1485 1548 1546 1558 1460 1521 1490 1420 1409 1420 1468 1488 1441 1563 1478 1530 1470 1474 1515 1432 1497 1493 1565 1527 1464 1541 1446 1474 1480 1441 1531 1477 1489 1494 1496 1499 1494 1497 1564 1538 1599 1689 1718 1700 1806 1844 1969 1999 2003 2187 2113 2196 2168 2184 2189 2258 2260 2246 2304 2272 2211 2348 2316 2190 2315 2289 2325 2350 2404 2455 2415 2568 2468 2494 2486 2543 2558 2457 2440 2441 2287 2322 2248 2215 2096 2119 1993 1899 1905 1828 1882 1803 1799 1772 1733 1631 1704 1674 1690 1609 1518 1552 1576 1569 1597 1512 1463 1488 1535 1582 1490 1585 1518 1503 1516 1563 1507 1529 1527 1463 1440 1528 1539 1579 1497 1604 1507 1594 1609 1652 1662 1620 1570 1658 1621 1657 1648 1618 1666 1676 1675 1592 1721 1695 1642 1611 1643 1659 1669 1657 1618 1632 1718 1596 1680 1732 1699 1704 1672 1645 1678 1583 1589 1482 1484 1515 1438 1376 1362 1438 1407 1436 1351 1326 1327 1298 1345 1359 1294 1337 1334 1317 1370 1296 1319 1270 1236 1299 1303 1275 1257 1310 1320 1230 1158 1286 1271 1285 1215 1221 1222 1288 1196 1235 1253 1214 1275 1240 1248 1224 1306 1243 1259 1273 1278 1289 1297 1243 1311 1243 1408 1345 1318 1388 1331 1383 1376 1469 1540 1511 1500 1605 1584 1640 1726 1648 1725 1763 1678 1692 1790 1808 1839 1953 1773 1888 1838 1964 1956 2007 2034 2049 2108 2161 2186 2141 2079 2117 2085 2060 2034 1992 2001 1909 1775 1831 1712 1551 1531 1578 1509 1397 1329 1441 1293 1307 1320 1316 1256 1361 1302 1270 1231 1301 1258 1205 1203 1202 1190 1262 1198 1222 1212 1251 1209 1209 1262 1223 1218 1240 1223 1224 1249 1225 1205 1228 1256 1164 1226 1230 1234 1211 1252 1267 1254 1194 1193 1233 1190 1161 1201 1211 1204 1184 1131 1138 1164 1169 1108 1169 1098 1113 1106 1159 1142 1168 1183 1105 1107 1151 1140 1151 1132 1163 1147 1147 1137 1144 1130 1154 1156 1141 1051 1142 1156 1083 1157 1126 1106 1128 1141 1170 1165 1175 1231 1178 1179 1144 1141 1135 1124 1180 1159 1149 1147 1106 1124 1147 1138 1208 1070 1177 1171 1120 1118 1165 1163 1215 1081 1140 1158 1149 1172 1159 1149 1062 1244 1142 1163 1173 1229 1211 1205 1177 1173 1172 1202 1214 1157 1192 1143 1168 1143 1108 1120 1117 1118 1142 1195 1209 1147 1152 1171 1171 1209 1217 1144 1164 1088 1278 1155 1190 1178 1251 1223 1237 1223 1283 1210 1247 1247 1303 1263 1313 1232 1299 1279 1321 1310 1339 1340 1307 1392 1336 1470 1365 1333 1415 1383 1347 1440 1471 1492 1493 1489 1602 1570 1629 1726 1810 1736 1954 1891 2011 2203 2298 2447 2522 2559 2771 2982 2907 3047 3006 3008 3258 3166 3257 3061 3311 3252 3422 3220 3436 3419 3496 3507 3517 3568 3561 3537 3646 3699 3745 3505 3631 3570 3580 3419 3187 3171 2962 2846 2834 2577 2557 2415 2268 2211 2012 1954 1868 1813 1669 1602 1557 1526 1546 1409 1411 1401 1477 1350 1310 1241 1300 1373 1258 1260 1271 1262 1262 1314 1184 1183 1222 1223 1226 1231 1262 1242 1222 1275 1236 1222 1290 1210 1192 1171 1196 1243 1200 1189 1200 1200 1225 1209 1185 1162 1180 1156 1196 1178 1158 1219 1172 1160 1110 1164 1128 1113 1148 1129 1171 1129 1133 1167 1149 1136 1159 1139 1145 1084 1096 1099 1108 1060 1051 1063 1055 1054 1112 1130 1065 1130 1058 1055 1144 1139 1090 1094 1106 1097 1070 1047 1099 1155 1109 1070 1092 1062 1141 1050 1069 1040 1043 1077 1094 1091 1083 1089 1106 1079 1106 1066 1113 1109 1109 1047 1096 1118 1096 1063 1100 1051 1081 1161 1109 1106 1110 1149 1128 1073 1133 1089 1059 1072 1124 1124 1127 1122 1127 1110 1166 1152 1140 1175 1117 1123 1176 1196 1165 1168 1109 1148 1136 1120 1201 1214 1177 1245 1215 1180 1224 1230 1264 1271 1242 1201 1190 1270 1215 1208 1246 1240 1277 1213 1260 1244 1249 1239 1288 1255 1248 1183 1304 1224 1162 1150 1146 1165 1155 1191 1130 1155 1132 1199 1137 1174 1078 1178 1134 1120 1142 1078 1131 1061 1085 1052 1073 1123 1116 1054 1058 1070 1053 1085 961 1070 1018 1044 1113 1073 1077 1017 1018 1027 985 1029 1047 992 964 997 966 991 968 962 947 1039 943 973 983 968 1000 1042 1050 951 1010 981 973 1023 1044 1023 1002 1006 985 993 1023 1009 1012 949 949 993 946 992 1008 963 949 1014 1012 1022 983 945 1041 940 985 1039 1009 994 1025 1037 966 1016 972 1027 967 970 909 972 918 935 968 961 967 1017 1000 1022 944 966 933 937 929 976 908 1022 893 930 892 952 1022 1017 979 973 974 939 934 990 922 967 925 973 934 967 941 1006 934 888 948 950 935 975 955 956 929 994 903 967 948 877 964 951 925 901 958 982 942 974 964 941 919 943 895 859 927 940 906 954 932 908 920 898 909 922 895 887 900 908 912 859 916 907 939 929 973 907 959 896 935 954 943 967 913 947 885 921 907 916 862 928 938 974 929 908 898 914 918 903 960 879 950 929 938 976 858 969 940 871 963 921 905 857 898 905 869 869 890 893 891 934 838 921 924 909 870 933 913 936 867 870 924 880 959 937 911 964 910 896 870 936 898 909 927 874 875 872 932 914 932 953 886 912 901 876 864 831 896 923 911 923 843 882 885 876 823 882 903 888 957 923 921 871 851 888 926 890 901 892 910 882 881 899 891 880 897 893 937 908 912 887 934 911 945 917 895 975 888 931 897 811 904 870 878 933 849 906 878 910 906 884 825 917 848 909 928 890 880 885 904 822 815 820 835 934 939 886 928 896 930 857 898 926 936 907 922 862 912 886 848 873 923 904 825 896 904 900 986 889 887 846 855 854 814 827 899 873 922 864 870 885 815 889 907 891 844 890 839 892 933 851 857 892 931 889 921 859 932 915 913 973 869 1008 979 972 1035 1001 1035 1093 1069 1071 1151 1100 1083 1132 1176 1139 1198 1200 1241 1241 1277 1206 1284 1231 1287 1264 1275 1310 1320 1323 1341 1336 1370 1363 1363 1345 1250 1247 1181 1194 1159 1126 1106 1127 1034 1042 1077 980 950 991 908 936 916 965 941 907 901 862 905 849 829 883 897 858 851 821 855 897 822 889 885 827 833 851 847 847 836 840 849 862 825 886 870 877 834 852 824 877 858 904 901 882 900 861 822 850 817 795 808 814 877 843 900 838 927 812 892 831 927 846 868 846 803 846 869 867 900 852 877 889 840 871 847 902 858 815 852 843 822 915 819 872 913 887 866 880 871 892 935 849 934 864 954 992 941 891 923 921 911 888 945 952 955 947 951 928 942 977 996 971 933 934 961 910 921 948 911 961 855 961 954 968 946 939 900 946 921 958 826 988 928 892 896 887 888 895 878 864 902 896 849 891 899 886 901 883 932 912 890 920 967 914 925 893 903 878 892 852 865 821 922 843 847 840 809 851 842 851 873 862 848 926 800 872 801 792 822 811 819 829 814 842 779 862 770 856 823 783 783 851 826 827 833 854 801 848 850 815 800 853 849 834 882 837 824 873 852 870 908 941 791 856 845 810 824 837 857 845 851 864 826 830 840 832 835 843 780 821 869 818 829 729 844 799 804 848 866 816 814 788 843 834 848 886 782 876 885 816 830 837 820 813 833 831 812 868 829 892 778 911 873 849 905 779 866 887 828 849 886 910 822 905 881 857 878 947 946 897 882 922 914 913 896 961 890 899 931 918 939 936 977 915 916 941 961 958 984 939 978 990 963 959 897 927 933 952 966 971 956 1016 986 1026 949 1010 1008 980 979 959 1091 1037 948 977 1033 1008 968 1000 1032 1052 1066 1056 1002 1057 1008 1040 1073 991 1090 1042 993 982 942 1009 991 998 930 1006 953 978 931 891 922 908 868 858 835 847 795 804 844 817 866 838 831 789 768 813 826 719 769 803 778 743 753 785 805 808 763 785 784 831 793 762 778 818 808 683 748 806 826 807 827 755 795 800 804 760 808 801 818 781 732 765 780 810 754 787 770 748 793 790 775 770 754 768 795 774 812 790 775 769 816 822 834 802 797 764 734 774 763 759 831 770 743 795 769 812 782 795 805 783 743 774 740 796 792 723 784 768 805 805 736 729 804 721 816 786 810 779 803 767 732 734 745 781 778 753 824 802 800 767 737 787 725 735 722 738 725 796 788 779 740 724 780 766 758 783 703 760 738 715 749 782 721 819 764 791 735 790 812 768 818 759 810 774 766 746 723 793 726 738 784 787 790 774 727 753 773 734 784 791 807 771 715 762 751 788 797 769 745 738 785 759 790 766 737 783 779 718 795 742 775 743 784 803 756 767 741 795 807 841 818 831 811 775 751 811 780 775 769 795 758 820 808 806 789 814 777 770 808 757 840 833 823 849 798 779 839 817 780 811 803 744 803 820 789 818 794 824 766 809 849 820 780 711 817 771 787 797 772 757 815 722 775 722 770 726 741 796 755 776 780 737 725 759 737 782 736 801 773 805 770 747 790 734 761 722 757 782 758 758 785 787 758 748 760 771 788 737 772 722 758 813 768 769 778 709 752 766 756 808 726 736 820 763 804 781 798 801 783 732 769 801 763 835 823 765 857 843 781 786 793 808 854 829 851 870 892 895 889 911 940 889 938 966 1014 1034 1032 1035 1127 1192 1249 1286 1263 1343 1414 1520 1471 1652 1702 1721 1772 1866 1877 2051 1988 2099 2086 2059 2214 2180 2199 2223 2343 2377 2365 2372 2419 2441 2493 2396 2401 2407 2304 2273 2257 2150 2253 2128 2201 1928 1917 1807 1771 1725 1729 1567 1539 1474 1362 1389 1297 1236 1263 1182 1118 1098 959 1003 984 980 923 943 904 877 848 884 811 855 845 877 823 794 813 817 819 757 786 822 769 850 802 748 777 783 770 779 738 806 832 727 734 778 706 690 806 757 773 793 788 761 753 735 778 769 792 749 746 755 772 783 750 751 752 771 749 729 821 766 717 778 714 750 750 743 759 740 772 744 774 766 739 761 787 786 762 731 709 737 694 730 783 728 743 773 725 721 755 721 758 722 755 723 722 769 742 747 735 762 733 683 751 696 735 720 703 809 718 758 737 703 760 750 707 759 706 758 751 712 710 718 760 695 748 674 699 708 717 674 735 688 723 681 741 716 726 735 729 700 715 722 712 700 756 739 724 703 740 787 747 700 694 708 766 756 726 714 741 737 725 692 783 738 741 744 738 804 725 752 798 752 799 817 787 778 826 778 829 770 827 837 862 847 866 872 839 810 825 866 863 857 873 830 815 821 837 801 830 879 871 880 814 846 817 838 839 806 831 823 790 777 739 807 756 806 737 741 823 760 793 759 747 758 758 781 768 750 819 785 809 758 783 774 782 802 800 830 762 780 720 863 794 785 814 778 867 803 815 825 787 855 792 789 799 784 785 792 804 817 817 779 743 745 780 784 785 809 782 763 769 736 779 733 733 754 781 764 738 733 731 738 786 792 798 793 780 757 771 792 794 772 787 803 848 738 789 784 858 804 848 839 818 841 804 824 805 837 809 797 841 756 816 825 849 838 840 842 752 767 804 757 742 793 728 734 791 731 823 804 767 741 731 812 755 783 733 720 730 691 716 729 738 699 694 693 683 706 706 682 687 707 690 682 675 666 662 743 681 731 683 679 687 705 685 709 675 709 669 695 659 740 644 677 671 679 663 718 706 710 737 750 753 690 741 743 721 743 710 720 763 754 695 693 718 776 773 785 756 717 807 779 743 776 751 772 734 766 789 792 730 679 743 696 781 702 702 678 794 718 737 636 708 669 709 614 673 683 674 712 693 648 711 631 642 654 701 730 655 652 647 674 679 689 724 652 676 661 651 645 654 656 633 667 654 622 645 666 637 662 664 667 659 659 686 693 687 607 692 713 685 686 626 699 703 708 693 742 678 646 699 677 693 676 723 674 713 693 747 753 716 685 689 751 709 753 737 698 707 797 706 729 740 690 716 701 700 726 726 749 690 681 691 702 712 737 721 662 655 682 698 746 759 745 719 654 715 677 690 741 686 701 666 746 727 691 729 687 702 674 675 682 647 657 704 646 657 739 684 712 660 700 659 624 679 686 661 664 651 742 656 674 612 647 662 663 670 627 706 658 674 651 654 626 629 637 641 622 713 603 633 652 633 641 641 667 624 635 628 646 645 640 655 623 610 657 615 651 643 649 639 690 620 589 669 599 660 691 612 616 657 633 619 636 641 656 639 676 606 671 622 647 621 652 634 627 636 602 602 647 608 659 685 612 697 596 614 664 690 644 636 644 641 619 596 656 678 651 646 606 685 686 643 656 660 663 636 642 645 642 694 637 715 670 646 724 658 687 704 676 685 702 631 737 671 691 721 636 678 676 655 686 645 731 682 717 685 621 699 629 671 615 645 635 642 637 646 677 684 632 669 691 645 606 653 633 679 683 633 623 626 613 671 598 650 612 613 625 615 658 615 610 629 612 653 601 667 701 718 688 687 663 663 616 719 659 657 648 670 681 630 662 704 670 629 640 715 645 621 654 717 628 677 693 619 716 626 656 669 666 675 710 668 673 686 603 605 603 637 640 606 651 648 687 688 666 664 699 633 694 689 666 711 647 706 680 661 681 752 730 725 748 732 728 721 774 755 770 825 746 827 788 803 736 787 776 800 846 811 841 822 841 810 778 877 847 823 859 860 778 839 874 753 851 788 827 727 748 752 733 736 765 735 743 748 681 729 710 716 645 668 708 689 670 614 701 611 692 587 653 666 629 614 628 698 607 697 681 644 619 620 639 580 613 627 597 575 607 598 663 625 650 630 679 635 603 602 617 627 624 643 608 641 633 621 616 647 691 621 642 692 672 634 691 697 684 665 653 689 674 648 675 689 709 705 673 677 706 711 723 754 705 694 681 696 705 708 658 683 735 659 702 657 648 714 651 602 673 684 637 679 705 681 627 678 651 623 649 686 641 685 613 634 678 672 606 658 638 665 665 648 623 683 674 661 649 706 622 604 648 653 706 649 619 640 652 672 677 594 653 629 667 655 632 665 659 652 639 599 667 623 600 647 642 659 645 639 616 636 638 632 624 601 665 613 628 610 591 645 584 598 630 599 594 564 576 610 583 633 644 611 602 579 599 647 623 638 610 654 623 612 563 623 656 600 641 600 587 612 634 629 628 615 602 640 563 650 599 606 671 608 655 621 584 650 642 704 656 616 621 688 644 739 662 669 708 754 764 813 806 821 802 808 788 832 830 815 867 895 893 890 844 898 833 905 916 930 884 951 904 931 1002 954 911 952 913 887 820 865 859 872 828 807 862 815 772 733 767 757 726 739 735 718 715 676 672 690 682 672 684 625 643 612 627 640 675 659 666 671 615 632 633 641 637 639 637 615 566 637 645 614 643 619 658 612 631 627 620 610 596 603 600 653 611 592 578 566 590 604 649 638 597 601 622 633 590 613 623 643 579 635 646 608 639 613 573 614 619 594 607 611 617 561 584 628 619 623 624 575 607 616 594 631 653 585 605 626 586 576 601 595 583 594 601 603 598 574 580 614 613 576 592 600 541 557 618 564 612 608 574 593 653 588 627 585 656 565 621 539 538 624 539 567 536 614 569 585 576 624 580 591 616 593 608 614 592 581 605 610 608 644 619 607 654 605 598 626 615 689 631 641 682 663 646 664 672 632 691 623 662 630 683 639 667 674 663 650 677 603 629 653 685 671 661 673 652 660 687 626 669 682 687 672 638 617 611 592 669 600 634 648 563 624 576 596 602 636 582 634 583 633 596 607 589 581 613 601 670 549 565 585 560 598 587 565 590 612 595 556 531 570 605 585 576 569 629 626 567 586 553 602 575 585 621 537 581 590 606 577 572 652 569 561 582 587 611 591 567 619 586 532 620 619 628 546 559 565 581 584 561 601 584 547 535 592 569 571 572 552 525 581 648 622 611 595 634 584 570 567 595 565 572 551 609 597 576 561 577 566 599 591 576 558 591 587 561 556 577 577 578 611 590 608 532 605 516 634 544 548 544 582 569 565 535 576 557 612 548 528 570 635 588 574 532 576 536 569 586 574 614 552 588 556 525 563 529 556 563 586 604 570 589 633 591 582 559 577 585 548 583 508 569 563 619 580 570 555 578 601 577 633 547 535 541 597 552 612 580 554 616 621 582 627 642 582 643 657 606 625 609 609 596 630 689 674 654 543 672 572 660 691 618 664 678 647 627 599 650 648 625 658 612 587 630 627 596 600 591 621 597 588 627 598 602 612 578 549 611 595 581 614 575 544 576 597 572 589 559 524 543 519 539 548 563 542 588 545 531 571 573 628 586 596 587 532 575 526 568 529 552 558 603 596 562 576 544 549 542 551 587 556 544 553 522 592 572 539 524 562 574 545 574 556 580 586 557 546 592 531 555 525 534 572 613 563 561 570 599 586 569 588 534 606 553 535 564 513 565 548 549 545 558 567 570 545 543 530 570 624 568 532 579 591 557 560 574 552 601 547 590 544 613 610 563 546 584 542 558 590 529 571 590 588 593 563 582 579 524 538 557 567 534 561 548 553 618 552 545 560 589 550 559 566 594 537 551 563 542 522 626 536 544 557 544 537 575 589 561 553 550 540 508 586 564 583 613 498 571 592 615 559 537 523 573 571 580 543 570 527 571 518 584 594 580 540 541 559 581 609 552 513 578 600 536 530 563 538 566 555 618 573 569 567 579 631 537 585 572 550 592 524 525 564 633 531 583 550 575 526 568 547 594 556 563 599 542 571 550 512 614 564 569 579 560 578 498 576 558 545 552 595 625 624 572 595 557 609 541 594 594 592 572 585 583 585 618 558 578 544 600 559 561 611 627 567 562 593 559 563 544 643 575 527 604 593 559 558 597 538 568 602 518 597 542 560 546 557 569 502 584 531 595 521 519 521 560 558 575 510 508 508 555 577 530 517 545 573 582 572 568 566 533 538 551 552 532 564 529 535 592 565 555 503 508 603 572 554 550 555 557 575 557 526 541 598 545 522 558 517 517 574 534 554 623 499 539 556 570 527 572 585 565 576 566 545 581 583 581 518 513 560 566 554 512 577 544 540 576 521 523 543 558 590 560 507 530 556 513 502 536 512 548 538 502 528 507 564 506 488 499 529 553 519 492 564 568 538 561 551 514 544 605 561 544 555 513 574 525 583 523 492 572 537 546 530 530 526 553 555 566 541 557 510 533 566 549 530 568 539 517 529 567 568 578 565 542 548 532 529 560 534 509 534 516 507 538 503 544 555 542 522 602 483 572 501 532 525 504 465 544 554 528 481 552 571 567 536 550 560 511 565 529 510 499 506 544 524 539 493 533 563 518 566 593 557 553 542 537 549 523 561 541 587 550 564 530 527 562 579 532 556 534 505 515 505 542 550 536 501 511 503 553 537 555 539 557 548 549 548 508 547 555 570 534 560 578 562 556 550 543 570 538 549 581 576 570 577 602 608 606 603 598 625 577 575 598 597 597 640 600 622 603 638 613 658 657 636 652 636 649 638 608 643 655 583 658 613 644 606 635 624 636 618 636 687 580 580 595 625 585 579 610 571 564 636 601 580 523 558 618 575 570 588 556 525 525 559 574 568 591 570 545 562 525 506 528 559 523 527 547 552 532 523 575 521 540 510 541 549 528 525 566 562 577 551 515 572 500 544 534 510 549 539 512 562 510 526 553 527 553 534 519 538 570 550 523 587 516 544 557 507 580 535 566 542 536 510 553 545 561 564 545 582 538 581 506 533 516 555 573 559 547 571 567 548 549 547 534 520 539 555 510 546 527 567 503 561 545 542 495 513 561 534 570 539 515 524 544 555 537 516 512 596 505 515 524 545 530 590 554 538 488 574 546 520 536 557 521 510 526 585 547 556 512 554 518 527 518 519 574 551 574 517 539 550 576 545 552 554 526 556 540 532 556 547 556 587 516 498 542 557 519 512 534 545 514 545 552 543 516 549 521 520 539 557 575 513 555 579 553 505 527 498 519 535 524 566 540 517 522 553 471 538 560 503 505 507 565 576 528 519 563 521 535 537 510 595 530 523 523 608 526 515 518 561 535 511 540 555 511 542 574 488 531 536 593 570 541 541 511 551 515 556 536 542 553 516 529 545 550 532 483 537 504 558 558 532 596 580 530 551 523 535 518 596 581 510 532 506 549 520 529 544 541 532 511 533 563 548 542 523 544 515 525 507 564 520 523 526 506 512 512 589 547 556 564 507 490 550 536 530 543 551 626 517 588 566 534 561 524 520 527 552 553 564 564 487 542 534 530 579 559 544 542 573 555 538 549 508 585 585 541 545 556 531 573 562 564 556 541 551 561 545 524 568 542 555 516 553 544 540 527 517 506 561 569 531 539 554 466 534 538 505 516 514 532 598 539 507 545 483 561 506 506 564 492 509 521 535 516 484 525 514 514 538 523 530 515 557 528 517 546 528 573 539 516 517 483 526 543 493 532 524 493 501 558 526 518 521 539 524 536 559 501 516 514 498 527 524 518 549 529 530 507 555 491 538 546 512 540 540 521 518 507 517 545 480 526 486 532 538 529 517 502 479 548 558 533 529 571 567 540 532 500 547 525 560 579 548 539 550 540 540 521 514 536 525 508 523 567 497 516 506 519 515 509 522 546 533 520 532 538 500 516 536 550 571 519 560 478 553 488 547 516 521 567 568 484 580 548 526 561 568 514 524 515 499 530 550 512 536 499 511 489 538 558 529 526 527 577 581 549 538 552 550 542 563 568 525 512 512 535 512 544 529 521 559 506 541 545 512 562 537 547 519 556 545 513 526 494 567 586 542 547 533 494 511 537 535 541 510 536 517 546 545 527 502 518 571 511 555 510 535 543 515 504 517 550 559 525 518 549 524 537 506 524 535 523 547 564 587 494 543 568 490 535 498 527 555 544 562 529 527 525 586 578 554 563 544 567 545 571 601 565 522 547 528 523 564 551 530 582 499 569 544 608 551 557 567 543 554 540 531 539 545 540 507 557 562 533 595 577 552 536 538 532 526 578 548 544 600 556 563 602 577 598 554 601 569 558 599 532 646 603 541 569 540 555 581 563 573 630 593 558 571 593 637 595 600 596 542 655 650 586 596 565 597 556 586 551 580 581 558 552 573 522 605 582 531 550 553 529 587 561 596 567 540 548 606 522 496 561 530 579 563 532 575 531 554 549 559 526 543 549 565 528 527 539 551 564 582 581 554 546 517 553 584 571 563 576 558 562 599 598 562 569 532 544 550 573 583 611 590 589 551 546 532 540 576 559 538 556 631 602 541 547 545 542 548 574 615 559 560 599 545 537 539 535 524 570 520 559 522 598 537 546 522 494 526 521 541 531 521 528 550 535 471 543 520 507 522 508 532 540 566 547 550 535 548 502 541 568 504 570 577 523 552 562 551 513 509 504 535 528 554 526 581 525 548 533 564 553 550 566 554 530 521 532 530 554 617 567 549 603 544 569 553 517 522 553 564 518 541 551 580 556 544 525 551 577 578 546 535 562 544 568 591 546 579 553 612 570 577 571 596 582 580 628 607 632 623 676 643 720 722 699 729 720 710 705 724 681 682 725 753 783 821 772 710 792 768 772 799 775 756 773 808 781 832 840 785 802 803 826 846 792 758 786 750 767 719 779 726 740 714 695 691 704 681 714 709 690 709 662 684 674 638 672 677 639 650 619 594 633 599 587 599 652 598 577 601 609 605 589 538 562 585 577 567 588 572 579 561 545 535 609 574 519 602 532 575 517 539 536 511 515 534 562 491 540 525 519 546 579 539 492 529 566 515 534 565 506 560 492 536 547 515 558 561 510 539 465 517 534 543 548 534 587 531 505 550 540 538 573 563 569 542 561 533 518 529 556 483 541 497 536 494 516 513 543 539 496 528 538 520 544 539 515 520 543 512 534 504 550 551 549 573 533 532 524 506 533 560 508 514 526 554 517 549 561 575 506 498 538 531 551 512 512 534 536 556 499 498 537 495 595 552 519 529 572 546 589 548 554 520 586 525 521 565 506 532 514 554 579 493 528 529 562 516 546 516 516 562 518 525 569 541 530 511 559 510 550 534 516 518 569 549 571 509 547 540 505 549 513 554 557 521 547 553 498 526 517 521 516 556 519 555 545 584 568 518 511 535 528 529 520 508 492 529 532 551 543 526 498 544 510 546 483 532 541 547 500 480 509 494 525 509 530 496 529 511 505 556 517 491 523 548 552 551 504 495 492 513 487 475 519 498 481 499 506 556 513 519 506 485 535 521 512 515 500 521 540 510 532 543 546 523 522 513 484 556 519 557 525 466 535 496 517 498 490 519 500 554 543 497 525 509 504 564 533 547 498 542 523 518 563 512 574 520 564 539 532 543 588 539 524 554 539 538 507 545 530 549 533 506 552 544 542 528 562 560 530 544 563 556 535 551 551 540 535 517 576 608 566 542 526 552 501 579 522 542 546 496 515 487 517 558 561 475 507 523 546 519 478 498 544 526 520 513 520 560 501 550 521 548 527 505 527 516 518 536 506 542 529 550 507 494 487 521 499 495 516 521 519 483 494 508 540 514 512 516 506 506 482 501 523 524 513 519 528 500 515 530 466 479 518 506 467 492 523 529 538 507 499 486 565 508 551 511 516 491 481 483 536 528 538 544 527 561 537 534 513 517 513 537 554 528 524 565 520 529 543 556 510 571 508 543 578 512 513 554 513 521 535 482 541 477 513 513 486 563 533 560 528 510 477 526 505 577 562 502 539 525 529 520 521 490 534 521 514 553 515 533 543 527 548 495 500 527 536 521 500 496 479 529 479 512 503 540 535 538 476 516 485 504 533 482 490 544 485 528 514 534 511 542 501 492 515 499 488 546 501 531 529 501 510 511 554 522 481 580 475 498 512 520 518 539 516 539 465 485 498 508 517 585 455 526 512 518 521 511 521 531 524 535 495 514 509 506 450 531 456 541 501 533 537 553 531 546 522 507 527 471 495 479 490 536 517 518 482 494 575 497 510 508 489 529 548 521 514 534 546 512 548 507 527 574 556 569 549 534 525 536 539 514 557 545 508 520 497 546 552 505 555 525 520 519 498 493 494 543 514 519 535 517 497 523 520 497 535 526 501 507 497 525 547 502 520 521 514 549 520 501 536 539 486 481 494 509 528 487 493 452 493 514 501 529 508 496 513 509 457 499 524 468 490 496 479 520 516 482 479 512 475 479 503 482 477 541 506 501 496 521 487 526 483 496 439 488 469 527 505 485 515 491 506 484 499 479 481 471 554 506 474 518 516 478 525 450 524 489 503 458 496 497 502 523 438 476 492 470 491 473 481 445 488 477 515 505 493 487 491 521 447 459 473 489 488 486 472 494 503 473 530 486 536 513 518 489 526 471 459 512 506 492 523 460 447 478 470 499 520 470 485 516 493 489 501 479 480 493 514 508 511 486 494 500 456 478 510 479 493 544 479 486 503 467 496 516 526 512 538 478 501 498 501 509 471 547 519 462 510 522 500 455 551 490 523 469 515 487 503 518 514 522 509 520 519 494 480 480 530 482 527 505 446 561 525 561 527 556 529 528 540 508 527 523 527 541 507 526 524 533 552 578 513 545 539 569 589 554 588 590 559 549 572 620 595 623 627 614 606 618 611 601 639 637 628 632 644 651 612 625 679 677 630 676 657 617 619 629 648 597 643 675 590 603 660 618 633 603 586 600 589 604 571 574 612 550 590 613 591 596 616 571 560 575 598 560 568 588 539 545 516 537 578 518 522 559 527 493 519 529 498 533 504 514 537 546 484 474 510 496 504 541 525 478 503 487 512 516 455 498 485 525 491 465 486 566 456 497 487 559 462 476 514 479 481 470 457 482 450 514 464 501 496 445 499 512 492 463 478 468 491 486 502 498 500 513 523 456 448 513 476 447 473 471 568 460 486 459 482 529 478 490 484 489 492 499 451 491 485 498 450 451 443 492 485 483 501 460 498 535 506 473 484 475 534 425 468 472 495 545 455 491 468 506 482 482 497 451 494 474 506 509 515 505 479 502 476 469 499 496 479 469 499 482 481 507 497 479 464 477 500 467 505 488 486 534 500 453 520 478 471 476 469 492 509 497 543 463 476 474 520 453 456 474 486 485 490 490 473 516 492 490 471 500 469 508 484 517 484 486 495 491 469 542 509 477 438 474 446 475 454 462 477 486 446 507 450 517 490 502 561 496 530 487 521 452 495 468 461 484 444 474 446 505 535 481 452 497 500 447 446 483 445 477 485 478 438 508 487 465 501 497 485 490 509 479 507 494 467 496 471 515 441 460 458 495 497 510 494 516 479 478 464 488 481 469 506 457 506 477 474 516 480 461 478 461 484 498 521 534 464 488 522 510 503 490 466 504 527 506 493 475 523 490 496 488 475 468 501 522 480 515 498 572 493 494 463 480 525 479 502 470 482 514 484 468 439 467 488 514 488 483 466 493 465 528 534 506 540 502 502 472 473 479 476 435 457 458 464 429 500 454 486 473 463 488 463 452 470 485 429 471 448 484 487 488 477 432 472 501 470 509 482 463 486 521 467 468 474 478 435 418 447 507 461 467 517 454 488 522 494 485 502 486 486 470 511 487 468 462 488 493 471 502 486 489 470 459 549 441 457 482 459 430 465 463 451 451 506 475 483 552 492 504 488 508 454 445 440 487 466 435 486 474 466 462 431 470 495 467 493 469 492 483 445 472 492 485 448 479 461 492 497 509 496 502 466 472 483 448 455 411 487 527 474 479 455 476 478 466 494 491 439 472 489 488 474 503 492 521 461 463 501 498 455 485 535 464 443 443 500 518 500 460 477 477 481 458 474 463 516 446 488 496 461 488 463 507 501 486 492 475 518 475 492 495 466 509 452 482 524 463 511 426 526 484 461 505 477 479 511 476 459 503 489 453 511 524 509 426 486 428 482 462 522 499 533 474 452 484 483 494 467 449 489 497 484 494 471 453 489 489 505 513 504 527 506 510 508 481 492 508 467 502 480 518 439 492 481 488 434 494 527 518 496 517 489 503 527 483 465 505 500 522 501 511 493 493 500 494 488 484 463 537 502 483 522 488 547 521 471 479 493 503 515 503 536 528 469 483 444 509 487 514 516 543 509 498 487 526 543 470 476 512 528 495 494 472 477 445 518 479 536 478 494 525 528 554 502 482 508 534 502 548 495 516 478 533 544 554 496 516 522 542 506 483 541 480 501 497 472 468 531 464 526 493 505 476 477 537 513 533 483 516 517 495 483 480 492 480 472 485 482 488 516 534 489 523 512 530 548 481 511 473 514 479 459 520 481 528 485 484 486 502 479 463 505 498 494 500 513 496 495 479 486 450 519 511 455 471 493 517 500 490 516 487 500 491 501</counts>
			</dataPoints>
		</scan>
	</xrdMeasurement>
</xrdMeasurements>
