<?xml version="1.0"?>
<xrdMeasurements xmlns="http://www.xrdml.com/XRDMeasurement/2.3" xmlns:xsi="http://www.w3.org/2001/XMLSchema-instance" xsi:schemaLocation="http://www.xrdml.com/XRDMeasurement/2.3 http://www.xrdml.com/XRDMeasurement/2.3/XRDMeasurement.xsd" status="Completed" recordIdentifier="{E0CF3482-CE93-4123-9F5E-DAB2992FA8B9}">
	<comment>
		<entry/>
	</comment>
	<sample type="To be analyzed">
		<id>GPSS_Li1p5Mg0p6In0p3Zr0p1Cl4_122625_694efed0ae15af25ac374c51</id>
		<name></name>
		<preparedBy></preparedBy>
	</sample>
	<xrdMeasurement measurementType="Scan" status="Completed" sampleMode="Reflection">
		<usedWavelength intended="K-Alpha 1">
			<kAlpha1 unit="Angstrom">1.5405980</kAlpha1>
			<kAlpha2 unit="Angstrom">1.5444260</kAlpha2>
			<kBeta unit="Angstrom">1.3922500</kBeta>
			<ratioKAlpha2KAlpha1>0.5000</ratioKAlpha2KAlpha1>
		</usedWavelength>
		<incidentBeamPath>
			<radius unit="mm">145.00</radius>
			<xRayTube id="1010048" name="Empyrean Cu LFF HR (9430 033 7310x)">
				<tension unit="kV">40.0</tension>
				<current unit="mA">15.0</current>
				<anodeMaterial>Cu</anodeMaterial>
				<focus type="Line">
					<length unit="mm">12.0</length>
					<width unit="mm">0.4</width>
					<takeOffAngle unit="deg">6.0</takeOffAngle>
				</focus>
			</xRayTube>
			<sollerSlit id="21010002" name="Soller slits 0.04 rad.">
				<opening unit="rad">0.0400</opening>
			</sollerSlit>
			<mask id="22031000" name="Fixed mask 13 mm">
				<width unit="mm">9.00</width>
			</mask>
			<divergenceSlit id="22120001" name="Divergence slit 1°" xsi:type="fixedDivergenceSlitType">
				<distanceToSample unit="mm">50.00</distanceToSample>
				<height unit="mm">1.52</height>
			</divergenceSlit>
		</incidentBeamPath>
		<sampleMovement xsi:type="spinningSampleMovementType">
			<spinnerRevolutionTime unit="seconds">1.0</spinnerRevolutionTime>
		</sampleMovement>
		<diffractedBeamPath>
			<radius unit="mm">145.00</radius>
			<antiScatterSlit id="22090040" name="AS slit 9 mm (PIXcel)" xsi:type="fixedAntiScatterSlitType">
				<height unit="mm">9.00</height>
			</antiScatterSlit>
			<sollerSlit id="21020003" name="Large Soller slits 0.04 rad.">
				<opening unit="rad">0.0400</opening>
			</sollerSlit>
			<filter id="20030001" name="Large beta-filter Nickel">
				<material>Ni</material>
				<thickness unit="mm">0.020</thickness>
			</filter>
			<detector id="7010019" name="PIXcel1D-Medipix3 detector" xsi:type="rtmsDetectorType">
				<phd unit="keV">
					<lowerLevel>4.02</lowerLevel>
					<upperLevel>11.27</upperLevel>
				</phd>
				<mode>Scanning</mode>
				<activeLength unit="deg">5.542</activeLength>
			</detector>
		</diffractedBeamPath>
		<scan appendNumber="0" mode="Continuous" scanAxis="Gonio" status="Completed">
			<header>
				<startTimeStamp>2025-12-28T11:03:21-08:00</startTimeStamp>
				<endTimeStamp>2025-12-28T11:11:28-08:00</endTimeStamp>
				<author>
					<name>AutomatedUser</name>
				</author>
				<source>
					<applicationSoftware version="1.7b (136)">PANalytical Aeris Instrument Suite</applicationSoftware>
					<instrumentControlSoftware version="3.2.00000000 20240306">AERIS</instrumentControlSoftware>
					<instrumentID>950485</instrumentID>
				</source>
			</header>
			<dataPoints>
				<positions axis="2Theta" unit="deg">
					<startPosition>10.00943322</startPosition>
					<endPosition>99.99442286</endPosition>
				</positions>
				<positions axis="Omega" unit="deg">
					<startPosition>5.00471661</startPosition>
					<endPosition>49.99721143</endPosition>
				</positions>
				<commonCountingTime unit="seconds">12.495</commonCountingTime>
				<counts unit="counts">2984 2974 2948 2956 3035 2999 3007 3021 2971 3025 2983 2988 2915 2980 3077 2991 2959 3014 2878 3047 2949 2994 3043 2905 3049 2995 3059 3111 3038 3016 2890 3030 2986 2932 3043 3019 3069 2995 3074 3038 3007 2986 3065 3060 3062 3042 3098 3119 3066 3062 3000 3129 3080 2949 3005 3102 3130 3058 3090 2998 3010 3127 3011 3095 3083 3115 3125 2985 3104 3098 3084 3134 3124 3123 3118 2985 3118 3112 3099 3175 3023 3111 3197 3208 3205 3241 3150 3106 3155 3156 3136 3149 3124 3173 3258 3132 3215 3167 3114 3135 3194 3282 3191 3107 3239 3232 3186 3176 3134 3234 3157 3237 3176 3196 3192 3195 3261 3260 3186 3239 3260 3198 3274 3132 3225 3267 3344 3269 3248 3221 3199 3361 3166 3142 3229 3255 3210 3243 3242 3398 3224 3249 3302 3220 3262 3327 3380 3276 3233 3272 3393 3356 3191 3404 3244 3334 3287 3292 3165 3252 3271 3397 3256 3291 3372 3324 3229 3318 3266 3293 3336 3306 3367 3273 3381 3344 3345 3389 3273 3240 3326 3300 3354 3221 3266 3336 3269 3295 3299 3387 3234 3329 3282 3244 3287 3218 3250 3249 3229 3273 3198 3138 3354 3130 3158 3222 3270 3247 3259 3204 3313 3188 3321 3246 3268 3089 3276 3206 3223 3258 3110 3281 3216 3237 3090 3246 3139 3315 3125 3198 3143 3244 3170 3139 3142 3110 3153 3106 3103 3181 3136 3178 3167 3071 3085 3105 3118 3221 3256 3208 3176 3210 3108 3086 3084 3145 3106 3106 3028 3190 3316 3218 3113 3120 3148 3123 3226 3145 3127 3103 3036 3065 3047 3078 3281 3148 2979 3147 3077 3056 3050 3142 3091 3033 3074 3067 3115 3086 3106 3029 3131 2980 3093 3053 3179 3127 3070 3011 3067 2999 3032 3040 3118 3085 3138 3143 3131 3160 3044 3126 3147 3165 3121 3043 3118 3118 3074 3032 3128 3175 3156 3103 3207 3177 3158 3191 3057 3137 3161 3162 3208 3077 3200 3114 3150 3105 3213 3158 3139 3157 3172 3252 3178 3258 3189 3180 3171 3116 3118 3212 3205 3245 3183 3230 3224 3317 3200 3238 3322 3240 3217 3333 3327 3292 3251 3337 3399 3223 3278 3279 3327 3292 3170 3327 3346 3307 3330 3306 3388 3353 3348 3399 3387 3413 3286 3463 3506 3487 3306 3335 3466 3413 3342 3345 3342 3429 3379 3462 3435 3445 3455 3451 3502 3517 3536 3423 3466 3455 3612 3482 3589 3520 3468 3592 3525 3555 3551 3645 3709 3696 3694 3652 3728 3683 3782 3758 3736 3667 3637 3671 3760 3637 3615 3660 3736 3825 3790 3776 3876 3797 3906 4045 3933 4000 3911 4026 4059 4031 4138 4181 4241 4149 4280 4316 4314 4377 4118 4132 4112 4090 4036 3934 3820 3798 3758 3712 3666 3511 3559 3456 3520 3366 3340 3356 3363 3347 3195 3410 3313 3191 3316 3344 3362 3231 3297 3308 3403 3311 3274 3199 3216 3351 3323 3238 3212 3296 3338 3241 3259 3212 3221 3159 3236 3229 3293 3210 3169 3262 3129 3196 3083 3180 3068 3159 3150 3103 3133 3116 3216 3191 3086 3152 3138 3114 3031 3147 3158 3121 3109 3084 3049 3145 3023 3126 3016 3053 3018 3112 3073 2962 3130 3152 3082 3092 3017 3008 3052 2987 3136 3088 3099 2976 3004 2993 2999 2966 2951 3050 2979 2932 2987 3017 2999 2963 2953 2865 2839 2905 2917 3003 2868 3013 2944 2942 2943 3023 2970 3073 2908 3073 2917 3019 2899 2930 2876 2883 2839 3017 2861 2850 2956 2946 2812 2889 2863 3006 2890 2788 2796 2836 2850 2832 2838 2792 2820 2777 2862 2826 2900 2944 2869 2824 2783 2896 2849 2738 2729 2914 2787 2810 2874 2799 2723 2825 2811 2798 2801 2816 2875 2805 2841 2802 2721 2771 2760 2742 2870 2778 2754 2639 2687 2739 2751 2820 2837 2769 2727 2868 2735 2708 2764 2750 2691 2692 2752 2660 2830 2698 2845 2643 2723 2733 2813 2766 2623 2716 2818 2692 2671 2739 2762 2763 2669 2713 2677 2689 2600 2707 2688 2787 2684 2747 2640 2772 2659 2763 2635 2638 2757 2594 2747 2615 2613 2544 2723 2714 2654 2666 2684 2672 2663 2634 2685 2648 2691 2732 2674 2733 2738 2628 2676 2677 2648 2586 2749 2726 2621 2713 2768 2749 2635 2621 2606 2647 2602 2671 2664 2589 2517 2753 2628 2623 2695 2629 2701 2614 2623 2578 2655 2670 2592 2620 2606 2707 2644 2570 2631 2668 2744 2611 2612 2591 2589 2636 2663 2644 2627 2677 2615 2650 2652 2593 2706 2574 2621 2668 2669 2562 2734 2587 2552 2561 2658 2632 2639 2616 2600 2641 2618 2554 2637 2661 2516 2636 2568 2638 2508 2597 2572 2584 2516 2537 2603 2451 2593 2595 2522 2634 2596 2570 2520 2699 2537 2483 2447 2484 2589 2549 2547 2575 2610 2531 2520 2553 2587 2435 2639 2573 2618 2493 2578 2541 2661 2604 2627 2626 2522 2527 2527 2581 2572 2585 2472 2567 2491 2536 2446 2511 2504 2566 2479 2491 2543 2559 2583 2578 2493 2560 2523 2530 2561 2505 2582 2501 2540 2414 2547 2545 2567 2400 2590 2538 2559 2473 2422 2506 2408 2487 2482 2486 2492 2445 2474 2494 2513 2508 2469 2508 2452 2479 2425 2428 2529 2521 2467 2438 2412 2473 2517 2470 2445 2454 2559 2475 2367 2462 2490 2418 2510 2440 2456 2468 2431 2409 2442 2436 2368 2422 2445 2405 2459 2436 2463 2390 2468 2446 2465 2386 2439 2453 2443 2348 2393 2375 2448 2414 2520 2414 2338 2434 2420 2424 2323 2300 2424 2382 2442 2325 2419 2390 2362 2334 2324 2321 2424 2353 2378 2384 2414 2415 2307 2327 2429 2432 2301 2289 2338 2305 2336 2295 2286 2303 2411 2328 2296 2297 2272 2377 2386 2390 2351 2390 2322 2352 2392 2323 2346 2328 2393 2371 2394 2455 2256 2336 2339 2359 2411 2320 2296 2219 2342 2373 2427 2301 2236 2393 2329 2449 2402 2399 2407 2303 2301 2427 2392 2309 2245 2243 2468 2326 2367 2285 2438 2323 2263 2338 2369 2293 2384 2396 2350 2496 2335 2404 2252 2335 2354 2427 2342 2352 2430 2385 2430 2201 2294 2388 2330 2268 2337 2383 2458 2277 2367 2390 2351 2356 2415 2254 2307 2322 2299 2316 2432 2373 2322 2278 2330 2313 2320 2346 2332 2351 2377 2297 2315 2329 2282 2365 2433 2253 2325 2346 2261 2399 2281 2362 2351 2358 2350 2363 2355 2347 2296 2249 2430 2306 2336 2403 2400 2265 2268 2301 2358 2336 2362 2345 2324 2346 2362 2402 2371 2372 2348 2312 2402 2299 2319 2310 2293 2358 2267 2337 2351 2352 2249 2317 2325 2320 2321 2308 2301 2328 2347 2238 2289 2305 2179 2279 2232 2234 2281 2243 2237 2231 2243 2236 2242 2204 2257 2321 2231 2234 2303 2190 2156 2234 2228 2261 2291 2266 2224 2228 2247 2219 2190 2192 2257 2179 2198 2233 2161 2121 2241 2207 2184 2155 2204 2197 2099 2233 2219 2139 2187 2196 2133 2163 2242 2123 2137 2181 2093 2093 2156 2177 2042 2149 2066 2131 2081 2135 2144 2134 2026 2175 1990 2066 1981 2096 2011 2118 2089 2088 1945 1974 2056 2013 2041 2023 2044 2039 1993 1919 1959 1904 1993 1946 1946 2014 1932 1965 1947 1967 1957 1967 1929 1858 1940 1928 1882 1930 1858 1928 1925 1897 1900 1836 1905 2004 1894 1903 1903 1864 1922 1806 1904 1836 1889 1777 1804 1871 1840 1833 1919 1917 1840 1829 1749 1841 1824 1821 1890 1848 1843 1752 1829 1752 1901 1779 1742 1712 1830 1821 1665 1793 1736 1670 1767 1756 1762 1727 1774 1779 1743 1795 1745 1671 1737 1696 1689 1809 1732 1796 1682 1762 1683 1721 1676 1738 1686 1804 1623 1769 1706 1731 1679 1606 1703 1703 1766 1734 1719 1671 1647 1646 1688 1798 1677 1689 1672 1695 1724 1659 1664 1656 1712 1719 1673 1731 1649 1673 1632 1556 1617 1614 1662 1656 1717 1580 1609 1577 1611 1634 1628 1606 1617 1568 1616 1641 1619 1679 1659 1616 1699 1659 1671 1572 1575 1603 1616 1673 1626 1666 1597 1625 1562 1637 1568 1617 1670 1569 1587 1558 1564 1522 1566 1627 1573 1639 1618 1593 1586 1592 1658 1535 1590 1597 1534 1654 1626 1574 1603 1628 1578 1504 1603 1579 1594 1578 1543 1594 1652 1617 1612 1671 1555 1597 1594 1589 1619 1498 1636 1569 1592 1612 1528 1599 1536 1522 1638 1585 1666 1617 1610 1649 1580 1536 1643 1623 1601 1596 1617 1636 1581 1597 1546 1653 1640 1605 1570 1647 1597 1515 1664 1587 1570 1558 1582 1536 1588 1652 1520 1609 1673 1657 1626 1604 1578 1653 1623 1516 1645 1578 1589 1616 1611 1572 1643 1696 1697 1613 1630 1625 1654 1641 1542 1598 1614 1609 1615 1646 1701 1621 1562 1552 1636 1675 1557 1627 1612 1574 1619 1565 1627 1629 1628 1643 1601 1560 1623 1608 1595 1583 1552 1585 1626 1580 1560 1621 1524 1569 1595 1528 1570 1626 1585 1585 1546 1606 1560 1571 1576 1546 1555 1559 1556 1624 1602 1554 1542 1551 1525 1585 1511 1595 1518 1562 1565 1546 1527 1508 1482 1495 1533 1480 1517 1480 1500 1565 1489 1461 1534 1574 1493 1497 1436 1477 1596 1463 1571 1493 1446 1474 1443 1574 1482 1449 1439 1437 1493 1453 1446 1442 1451 1475 1489 1407 1489 1411 1415 1419 1452 1420 1453 1429 1446 1422 1408 1404 1444 1366 1399 1360 1350 1444 1461 1414 1368 1410 1393 1340 1415 1386 1374 1348 1403 1392 1338 1380 1435 1290 1364 1255 1300 1331 1280 1315 1323 1352 1329 1305 1385 1265 1298 1351 1354 1243 1260 1305 1308 1291 1336 1330 1344 1290 1303 1288 1273 1314 1226 1339 1302 1295 1275 1274 1308 1245 1340 1242 1253 1163 1262 1304 1245 1246 1293 1266 1363 1303 1262 1271 1245 1291 1249 1254 1232 1271 1310 1219 1244 1211 1311 1166 1348 1320 1326 1388 1357 1383 1322 1335 1421 1313 1494 1381 1413 1384 1447 1409 1368 1462 1440 1369 1293 1344 1314 1380 1385 1371 1398 1381 1357 1416 1425 1429 1485 1450 1554 1423 1480 1481 1478 1483 1492 1526 1471 1390 1428 1452 1399 1376 1350 1339 1314 1256 1263 1261 1176 1228 1182 1205 1161 1191 1218 1217 1130 1218 1220 1187 1153 1157 1191 1162 1186 1193 1128 1183 1164 1163 1185 1176 1144 1139 1180 1105 1108 1205 1137 1160 1172 1191 1147 1177 1174 1137 1097 1204 1202 1154 1194 1125 1112 1213 1225 1175 1193 1170 1259 1275 1226 1295 1329 1321 1476 1382 1527 1606 1653 1824 1954 2036 2297 2412 2729 2678 3141 3308 3688 3860 3945 4231 4236 4363 4381 4259 4297 4154 4028 4130 3913 3896 3898 3865 3831 3792 3934 4034 4330 4620 4842 5176 5179 5562 5607 6137 6402 6812 7071 7408 7630 7746 7743 7614 7301 6880 6679 6277 6061 5615 5517 5112 4758 4299 3882 3333 3150 2891 2840 2699 2433 2357 2228 2222 2090 2139 2066 2129 2126 2186 2134 2064 2081 2095 2193 2139 2096 1957 2072 1958 1938 1855 1746 1752 1648 1661 1588 1598 1498 1480 1444 1383 1419 1326 1326 1272 1286 1284 1317 1229 1235 1177 1185 1160 1072 1165 1176 1125 1074 1121 1091 1036 1037 1066 1055 1118 1003 1048 1020 1095 991 1033 1063 1029 1042 1040 1028 1021 1044 1045 1080 1013 1019 962 984 953 967 979 1008 991 954 988 989 962 995 957 890 917 955 901 929 934 971 934 919 908 897 929 927 961 898 902 904 918 892 902 917 945 822 913 910 911 859 914 948 936 903 938 901 916 853 893 917 932 917 873 839 865 893 883 878 853 919 883 851 903 949 910 856 866 849 912 817 899 919 905 834 887 855 833 873 858 885 929 875 895 833 809 842 803 833 850 809 872 860 845 827 872 867 801 809 806 870 811 868 812 883 847 867 818 812 864 805 807 842 787 836 817 854 803 819 829 817 892 878 786 822 793 808 824 860 820 835 786 819 805 885 790 835 786 876 853 807 790 834 779 798 821 814 820 824 812 840 800 815 804 831 803 769 842 818 801 825 836 829 816 793 810 815 817 774 774 779 850 837 762 835 796 783 816 843 824 781 776 815 809 811 776 846 813 776 824 799 819 781 849 731 818 774 822 806 819 765 775 774 826 754 770 757 811 794 821 818 813 782 784 797 790 801 852 796 798 775 788 795 811 820 816 795 787 774 830 830 899 827 764 764 851 723 802 760 772 849 807 770 838 781 810 794 792 785 824 863 823 854 813 778 828 825 832 767 822 797 818 789 822 778 814 801 848 802 833 861 812 825 853 825 803 832 826 884 822 826 843 843 934 890 874 912 840 923 900 908 932 960 937 987 1006 1053 1052 1117 1158 1200 1241 1353 1451 1555 1705 1787 2004 2126 2400 2584 2757 2915 3186 3365 3428 3620 3748 3850 3840 3812 3829 3761 3903 3877 3814 3899 3844 3891 3954 3999 4092 4335 4406 4485 4821 5035 5375 5729 5699 6121 6027 6219 6049 6135 5843 5835 5489 5384 4983 4837 4552 4428 4124 3899 3458 3143 2788 2574 2308 2314 2057 2015 1807 1717 1694 1584 1527 1403 1389 1383 1370 1329 1398 1345 1331 1301 1378 1360 1398 1323 1327 1346 1315 1275 1386 1243 1286 1225 1235 1162 1213 1066 1082 1083 1046 1052 1011 981 1004 967 942 902 855 874 842 823 895 861 848 878 858 812 791 761 789 893 822 791 805 772 779 819 785 796 815 766 757 788 760 752 769 794 753 766 716 750 738 797 722 742 744 743 787 725 731 753 733 738 710 728 718 716 711 730 711 720 750 667 731 693 699 698 707 740 714 674 700 722 746 727 740 719 739 691 704 700 675 731 697 723 697 684 737 731 758 676 699 690 728 672 673 640 692 685 666 677 679 661 731 671 684 709 692 714 685 646 720 716 655 705 701 692 710 672 725 695 719 719 695 723 657 706 669 695 640 640 745 715 708 699 667 685 648 675 681 671 603 652 687 716 635 686 690 636 682 692 671 684 689 695 649 681 666 641 702 637 665 692 618 678 647 622 686 645 634 645 695 687 635 702 683 633 681 629 628 630 683 673 651 613 614 674 661 671 678 663 657 623 639 674 676 626 680 661 667 632 638 657 659 676 667 622 676 690 664 657 628 688 646 669 616 661 593 622 647 674 623 647 651 653 628 627 665 650 651 679 649 624 624 656 597 650 594 667 618 643 658 645 669 647 690 638 636 625 641 666 609 676 712 632 673 625 644 585 651 606 642 636 590 594 612 567 618 596 583 597 636 576 620 660 659 606 620 648 572 602 589 595 621 631 600 641 566 624 583 609 620 594 608 600 606 608 616 654 647 606 574 625 623 598 630 632 586 619 602 615 612 634 599 552 624 638 668 623 592 614 595 569 570 581 606 606 624 592 565 649 594 606 610 587 575 601 589 583 561 574 618 588 597 582 642 562 561 628 583 599 600 586 614 588 599 585 585 595 585 550 590 585 617 572 592 574 584 606 584 573 581 547 599 627 599 562 635 605 602 613 625 606 561 595 592 584 610 594 575 524 599 592 577 582 607 597 597 626 543 587 590 581 605 601 636 562 584 582 593 562 589 564 573 568 554 582 586 549 580 598 627 562 563 615 589 577 564 522 620 600 588 586 567 579 533 544 555 591 582 534 592 602 603 581 622 615 564 567 595 586 555 565 610 593 567 570 591 596 540 539 553 575 549 594 595 550 550 560 556 565 557 553 616 567 546 530 607 585 585 583 586 590 583 598 605 624 552 562 574 552 549 601 587 577 601 580 561 593 552 576 546 597 581 569 592 588 576 574 545 547 571 555 555 583 602 615 556 597 558 602 566 568 536 587 563 580 554 548 564 600 596 561 583 550 604 602 586 603 621 561 603 596 580 537 599 550 525 555 582 564 582 560 578 517 538 571 550 534 534 602 541 553 560 566 529 569 535 585 597 547 593 546 586 537 522 571 480 581 541 556 537 583 534 579 536 600 535 555 567 584 556 569 536 604 555 565 610 591 550 544 541 546 567 573 547 530 525 565 616 548 563 560 513 544 517 530 551 545 576 601 489 516 556 544 514 519 530 530 573 552 567 577 480 523 587 519 585 560 546 532 527 581 564 507 583 572 558 562 535 566 578 513 553 572 545 578 542 543 536 542 542 576 513 494 537 586 593 511 570 525 579 531 586 541 539 593 522 540 554 512 538 538 554 577 582 513 565 562 529 557 557 585 557 500 536 553 551 625 510 544 613 538 552 563 518 504 523 516 578 536 510 541 512 540 554 547 539 527 586 517 559 529 551 549 524 566 600 535 541 510 563 581 520 563 543 566 551 518 548 576 524 529 551 597 550 542 513 542 522 538 512 528 538 523 531 475 548 544 522 513 578 544 545 543 537 547 529 553 536 537 538 544 530 540 538 538 492 548 537 549 499 536 516 516 525 542 494 506 536 557 500 560 496 553 556 530 535 570 523 502 521 514 590 542 545 521 536 522 510 522 531 527 576 524 516 568 519 518 474 499 512 552 548 581 566 525 541 508 524 499 549 537 499 517 541 565 516 573 524 554 541 592 566 572 555 490 577 541 542 533 542 562 593 564 539 553 577 542 586 546 558 530 540 593 591 561 565 576 581 626 575 602 585 591 610 606 616 566 567 567 564 576 591 555 572 597 520 561 589 538 538 544 557 559 529 566 550 587 578 624 572 632 580 625 677 667 724 694 758 813 788 807 837 825 830 855 831 873 849 932 951 957 955 936 960 999 1002 1048 981 1079 1004 1066 1082 1097 1154 1131 1173 1141 1114 1150 1137 1112 1061 1052 984 997 943 893 865 878 834 821 775 763 768 696 659 631 612 628 618 591 657 596 554 562 571 528 571 539 582 522 533 481 476 530 546 530 508 522 520 488 553 497 527 549 538 535 511 489 507 509 512 505 535 519 533 516 485 492 517 483 482 484 509 524 469 502 483 501 524 532 512 538 563 466 507 543 503 471 530 486 519 533 513 518 535 527 506 544 496 534 505 530 538 492 469 487 501 523 501 507 527 462 507 500 502 507 526 494 480 465 502 480 478 534 459 463 493 490 499 525 541 493 464 493 516 503 553 521 512 492 486 499 577 502 469 491 462 482 478 489 443 473 515 534 497 472 490 481 495 472 471 436 472 461 497 488 499 496 517 524 496 492 524 520 484 499 507 485 531 491 514 512 461 513 506 549 470 530 509 488 482 509 505 484 511 528 467 485 507 495 525 505 482 479 504 508 531 522 525 538 505 515 486 478 508 528 490 487 521 509 520 577 529 498 499 518 512 549 517 508 488 515 538 505 514 499 531 478 499 480 537 508 528 519 487 505 549 526 518 514 522 540 566 570 532 521 516 497 513 460 514 507 471 498 563 529 560 504 546 511 493 527 493 542 470 536 542 540 520 480 541 511 494 544 519 500 480 496 499 574 522 552 560 544 511 517 506 525 529 524 588 509 500 521 530 558 560 497 536 577 520 487 501 526 564 504 602 523 513 555 521 587 540 562 536 517 465 511 549 626 563 605 555 571 564 566 579 607 571 537 567 556 647 610 631 602 664 633 629 644 643 650 663 700 698 707 717 768 762 851 904 1007 1078 1132 1230 1312 1514 1741 1868 2102 2135 2315 2356 2444 2483 2558 2546 2669 2607 2827 2859 3118 3084 3326 3314 3496 3440 3660 3714 3939 4006 4206 4248 4455 4524 4488 4686 4716 4600 4469 4292 4135 3988 3782 3616 3563 3459 3266 3183 2973 2779 2558 2390 2176 1994 1815 1665 1544 1460 1393 1298 1168 1193 1051 1001 1039 942 950 890 942 923 962 890 932 898 930 828 906 907 855 958 970 930 910 972 950 948 985 941 1008 1014 935 935 997 963 924 986 935 991 921 908 947 900 885 912 874 810 850 789 794 791 752 821 785 782 772 676 731 725 655 647 720 653 640 642 674 616 636 668 628 629 613 590 618 589 629 601 572 603 575 549 595 589 602 592 618 592 618 585 562 590 538 614 584 576 612 594 594 587 569 600 615 540 563 537 570 555 565 538 545 576 537 549 490 547 480 532 555 531 562 538 525 485 530 554 511 504 491 504 497 532 488 554 485 503 521 478 464 489 474 502 485 493 520 484 538 477 475 479 512 536 490 546 510 505 437 479 486 520 510 507 455 505 506 514 510 498 477 519 546 505 548 597 570 599 582 597 578 579 566 639 570 598 626 610 616 594 630 659 671 663 702 662 721 699 672 712 709 712 715 676 746 713 763 720 677 674 656 602 648 626 608 589 578 580 560 553 577 535 563 520 530 466 511 513 465 508 494 443 505 434 464 475 460 441 457 476 473 493 453 481 453 483 464 484 486 476 468 450 449 502 427 478 472 503 447 457 480 464 477 477 441 494 440 462 434 425 412 438 460 469 461 462 463 471 487 440 476 445 449 445 461 452 458 439 448 437 428 447 469 473 439 445 418 434 449 449 411 458 452 468 464 475 441 485 446 445 474 420 484 438 445 462 438 464 484 449 429 417 441 409 448 471 456 456 397 468 413 459 486 488 463 431 426 434 439 455 449 436 463 462 436 432 420 462 401 437 449 452 456 460 421 414 457 455 451 416 476 453 457 420 461 436 494 409 437 468 434 428 455 438 459 445 450 410 408 409 464 437 443 424 444 417 445 446 427 456 405 449 420 481 439 462 449 475 464 416 470 422 483 403 448 423 425 476 463 461 505 484 443 427 449 423 438 452 457 432 483 434 393 404 424 482 478 463 375 475 418 457 429 423 461 444 452 418 433 440 412 398 411 445 427 402 440 446 451 429 422 431 432 409 427 361 448 378 477 468 432 416 398 438 421 457 491 431 464 456 439 392 456 405 401 379 421 439 430 435 402 429 394 438 426 418 410 433 416 405 384 411 450 445 438 445 425 411 429 440 426 390 421 434 427 422 434 405 429 428 447 406 421 411 484 416 389 423 424 420 438 403 436 435 408 396 428 427 415 466 420 444 418 403 458 443 433 406 379 418 456 431 394 454 428 409 395 430 413 403 466 415 418 395 427 433 400 393 466 433 426 435 435 399 431 422 391 435 428 456 436 404 412 427 450 420 397 388 428 419 431 397 434 461 434 444 464 412 421 405 401 418 461 403 463 463 435 438 393 437 377 432 417 374 443 422 415 421 418 378 428 442 398 411 423 418 398 377 389 433 414 411 396 388 407 393 443 437 425 404 436 414 425 408 434 405 438 431 425 413 443 397 398 429 390 402 424 389 424 434 408 422 402 422 403 397 420 405 401 395 419 386 411 424 425 407 473 410 437 447 404 409 424 433 403 416 426 440 403 382 421 414 412 429 412 432 413 472 455 443 437 471 400 434 412 387 435 426 428 419 420 422 377 427 385 441 376 433 460 436 420 405 415 408 425 440 409 422 408 440 417 416 449 467 390 435 425 404 424 446 470 413 418 398 463 464 496 466 452 436 459 437 409 467 489 435 440 427 415 447 495 449 471 441 468 420 450 448 420 442 458 454 454 491 494 470 477 472 459 508 473 470 491 474 463 512 469 493 445 447 453 504 485 472 479 464 517 481 522 480 452 508 484 470 477 498 532 531 553 583 557 625 645 660 693 764 751 779 873 868 903 934 1050 1047 983 1039 1167 1105 1133 1127 1218 1270 1275 1366 1337 1505 1483 1555 1699 1660 1718 1785 1791 1723 1833 1878 1764 1752 1621 1653 1558 1486 1366 1414 1406 1361 1219 1290 1275 1180 1192 1101 994 958 907 846 813 783 778 730 665 683 590 633 562 564 540 504 526 554 549 517 554 567 584 565 562 556 550 559 565 533 568 541 575 618 580 620 572 606 650 586 626 594 597 617 632 617 685 610 611 642 631 673 671 624 641 637 687 645 676 624 583 584 578 576 638 590 560 583 571 591 568 497 611 559 525 529 546 510 565 532 523 516 479 517 497 469 495 487 475 477 481 458 474 462 474 479 484 458 503 525 478 499 459 457 506 522 499 464 470 461 484 454 499 510 514 488 512 493 500 509 484 476 480 469 445 486 505 475 443 468 480 453 502 468 417 458 439 455 444 447 471 433 459 444 436 423 439 416 474 442 449 446 458 412 436 445 445 410 430 433 442 419 451 425 411 416 457 435 416 450 436 429 400 415 424 432 396 398 443 431 459 453 442 430 427 430 438 428 431 425 405 446 422 484 439 455 425 427 399 404 407 428 419 456 463 448 450 424 457 469 446 483 532 480 519 534 558 606 610 629 676 706 742 812 796 814 824 811 871 923 884 953 938 942 1073 1035 1124 1189 1276 1260 1321 1382 1459 1548 1614 1648 1769 1717 1734 1697 1635 1643 1511 1493 1414 1319 1315 1184 1264 1294 1178 1172 1174 1111 1130 1030 1007 956 884 876 806 725 778 686 649 639 623 569 591 581 550 577 527 513 483 473 469 454 456 465 421 459 428 504 458 496 476 436 474 516 467 476 499 511 464 521 524 493 548 544 535 484 536 526 513 524 478 535 549 513 565 510 525 549 535 539 526 567 508 488 489 504 502 494 516 473 511 458 479 441 453 481 486 457 500 441 468 469 417 445 436 400 434 437 476 452 423 429 424 420 381 403 417 380 440 411 424 437 419 427 394 390 456 428 421 436 415 409 367 410 431 374 415 401 396 419 414 429 454 395 440 377 394 438 422 430 407 400 398 398 384 390 381 351 407 403 401 417 421 425 404 390 438 380 445 429 499 455 441 504 483 450 463 470 456 506 462 503 471 517 488 499 588 569 553 534 589 596 608 596 587 682 638 593 577 548 556 549 556 536 510 544 510 532 533 521 546 471 511 483 493 473 477 479 436 417 476 437 427 415 401 410 442 346 418 380 401 406 391 372 370 349 392 354 402 407 391 407 382 366 390 365 403 360 376 368 369 383 401 355 402 358 389 360 380 351 376 386 368 371 370 368 370 391 358 379 380 363 352 381 383 352 343 362 401 365 393 301 439 356 377 333 366 418 404 390 360 358 395 360 355 338 357 385 358 358 356 355 353 338 377 363 382 390 372 353 398 341 409 330 343 359 403 360 378 358 356 348 349 393 354 356 368 337 351 331 371 378 394 365 342 409 323 369 372 363 330 373 369 367 352 371 343 374 336 355 380 356 362 350 409 347 347 346 333 350 364 344 398 391 388 352 364 377 370 353 345 360 346 361 379 390 366 365 351 339 353 346 329 383 369 380 379 355 336 342 380 379 356 357 371 355 391 366 332 359 347 375 376 403 365 378 334 390 344 361 383 389 339 351 322 378 334 358 353 361 357 345 336 380 352 384 403 340 389 357 357 394 345 351 357 378 366 336 328 350 352 374 344 362 327 351 350 381 343 366 362 322 363 353 362 379 378 374 356 334 348 397 309 347 346 393 328 343 334 381 319 367 330 371 374 346 332 350 364 335 334 375 344 367 361 350 369 346 376 342 369 373 375 366 363 373 375 358 351 360 353 341 401 335 359 375 359 347 360 379 352 362 371 357 375 371 386 321 351 349 369 384 356 380 352 348 356 341 395 333 351 325 349 364 391 345 344 373 331 363 364 376 370 359 376 328 359 358 335 346 314 351 346 350 344 370 358 319 319 358 321 339 306 341 350 364 346 378 328 391 347 333 331 349 333 320 333 362 412 368 344 338 374 341 370 339 363 350 360 381 365 357 319 365 341 353 369 345 362 330 343 342 325 306 349 372 364 354 312 351 345 335 375 351 331 364 387 340 356 361 343 346 357 329 353 366 357 324 332 374 349 331 365 325 315 356 330 362 340 376 347 363 376 359 365 347 325 324 338 362 351 361 339 357 344 358 350 330 350 365 350 336 372 339 374 380 341 349 388 361 410 342 389 403 384 391 389 422 377 398 406 415 395 391 376 440 472 385 463 434 478 444 489 461 486 489 499 515 501 491 481 471 490 483 463 475 479 498 409 425 465 454 411 443 432 438 450 435 425 398 390 421 423 385 416 398 384 373 379 322 363 357 333 366 313 374 391 382 346 358 351 335 350 346 367 361 362 350 326 377 363 328 334 343 332 327 362 351 342 312 361 358 348 361 347 348 352 314 339 351 314 325 337 358 375 299 337 325 323 354 328 329 292 362 333 360 328 353 307 360 318 297 342 311 359 296 371 341 373 343 332 360 332 353 370 376 362 364 367 335 334 322 335 313 331 321 317 326 330 329 313 385 354 337 326 321 341 357 351 360 318 345 338 353 345 331 347 325 339 329 307 369 364 336 343 310 341 357 324 331 353 355 338 335 360 344 353 350 346 306 345 347 363 305 340 333 360 311 391 356 334 345 362 314 351 320 324 335 374 339 370 362 348 341 353 354 339 340 334 348 325 341 318 338 355 331 337 333 365 368 360 367 353 336 329 365 366 351 306 366 350 370 345 302 371 357 341 310 354 319 346 298 332 315 359 353 378 341 350 345 364 360 353 317 308 334 320 325 344 371 347 338 358 340 327 344 322 356 320 356 366 366 348 368 379 361 320 380 398 405 338 348 390 408 360 365 379 382 370 392 368 394 398 382 430 423 475 489 444 485 478 508 500 458 527 495 552 545 572 558 548 577 587 616 633 660 653 740 662 685 723 688 778 730 736 710 730 730 686 722 680 649 655 628 607 615 592 610 574 574 557 535 611 588 531 542 504 474 453 486 464 501 454 396 429 414 388 413 370 375 389 338 375 389 362 386 374 379 376 382 360 345 357 351 352 315 374 369 340 368 364 348 355 348 336 376 376 345 347 344 365 367 361 371 398 340 385 342 350 384 378 375 391 397 375 381 367 360 360 346 375 353 373 388 345 346 361 374 361 322 350 351 386 396 410 374 351 378 405 366 357 346 366 348 365 368 341 388 333 331 346 327 332 368 387 347 354 323 376 336 354 294 380 340 364 364 320 362 359 375 340 350 361 346 329 351 320 358 382 320 388 321 404 348 340 373 339 379 368 347 355 359 402 319 383 340 371 342 342 363 410 350 369 363 379 418 409 411 347 390 359 395 402 345 383 414 368 365 369 378 411 401 412 353 352 358 379 348 380 328 352 354 343 339 352 351 358 352 326 395 355 384 390 334 356 346 358 333 339 364 362 360 302 345 345 346 357 313 326 375 355 337 359 343 318 314 361 390 336 322 375 323 342 302 338 337 282 322 315 339 342 324 349 318 304 308 339 336 330 310 332 301 323 353 337 342 332 345 330 335 324 321 330 314 324 327 315 348 290 334 299 338 330 382 366 331 352 360 313 324 329 337 352 326 331 306 303 361 314 315 302 352 311 324 325 331 369 323 341 334 315 357 336 304 312 341 317 326 315 318 347 320 356 302 302 313 286 350 332 304 308 293 363 335 354 318 336 342 313 346 346 330 294 349 339 307 321 322 342 361 379 358 361 384 318 361 332 356 339 327 337 326 304 342 318 317 329 312 338 345 324 341 300 352 334 340 289 318 337 354 321 347 323 307 352 331 318 340 353 347 320 360 320 320 355 332 331 299 318 327 342 329 290 340 323 309 354 324 312 333 334 340 331 282 354 319 319 324 322 314 351 333 315 305 367 340 361 321 341 303 324 334 335 337 366 359 309 326 322 338 322 338 334 336 330 327 322 310 337 319 322 363 331 345 368 315 360 307 349 332 367 329 353 326 342 301 320 305 346 301 330 337 348 340 369 341 322 343 313 331 308 339 313 322 348 329 345 333 353 334 365 324 335 316 330 350 364 334 374 316 342 341 300 320 348 289 309 324 323 303 319 330 329 357 312 306 328 347 336 351 353 345 360 335 366 325 318 338 327 359 350 338 358 365 352 328 347 324 312 306 329 312 323 318 355 332 352 347 330 346 339 331 337 347 320 346 314 338 353 330 342 315 341 347 377 348 347 307 343 366 317 373 323 349 363 332 339 338 336 346 326 340 340 341 350 326 346 319 350 348 343 354 323 343 333 349 324 320 350 347 331 321 325 361 320 308 299 318 362 324 328 326 339 377 331 348 333 334 381 359 370 375 351 361 338 397 342 346 340 348 363 369 388 390 342 368 375 383 401 381 412 405 407 390 387 381 409 377 419 444 473 472 451 464 453 490 406 418 471 447 418 441 424 465 466 452 466 448 489 382 397 431 427 403 435 400 430 451 430 438 427 447 425 397 485 421 468 442 422 453 452 503 486 474 522 533 529 515 577 552 591 577 618 604 668 687 711 686 691 730 709 740 777 789 815 769 774 802 783 748 757 728 720 761 721 685 655 617 611 610 586 607 583 611 604 556 579 529 561 588 544 499 545 559 517 480 457 432 450 467 432 429 435 433 426 401 382 416 388 376 404 388 385 377 384 395 372 389 352 411 355 374 368 367 371 380 397 367 350 387 330 372 342 358 343 380 359 384 337 363 345 373 357 395 390 390 393 399 421 376 381 376 390 408 381 373 417 428 430 454 424 432 408 411 420 431 406 409 428 423 383 429 419 419 439 372 407 371 391 406 411 472 428 424 398 416 382 411 394 393 388 433 363 437 448 402 383 394 401 392 415 437 403 420 396 385 438 392 411 383 388 385 381 402 398 401 372 375 407 392 382 356 347 373 384 389 366 377 380 387 403 421 344 396 374 401 395 434 383 416 410 381 390 378 386 365 399 386 434 422 380 435 411 427 430 432 445 438 446 439 455 430 425 463 431 453 484 488 525 494 553 566 586 648 618 637 708 698 727 756 778 859 852 902 882 921 984 965 1077 1030 1103 1164 1166 1192 1249 1260 1262 1257 1314 1168 1279 1321 1253 1266 1170 1151 1061 1057 1025 1065 959 980 955 939 879 840 883 876 875 861 885 806 818 805 715 824 750 696 712 578 628 603 609 558 576 540 502 486 476 476 431 468 446 438 434 420 414 418 407 410 405 447 433 399 402 393 427 380 392 366 364 409 395 350 382 383 381 362 367 409 378 409 399 377 399 415 429 397 404 421 387 400 381 404 401 425 404 437 446 407 430 414 455 420 405 417 432 409 442 423 417 449 445 404 423 454 418 429 428 488 445 425 416 400 417 411 428 428 417 448 443 439 443 416 449 441 401 457 419 419 381 406 376 382 450 426 395 372 410 418 401 415 400 388 412 408 378 398 354 408 401 409 365 399 430 396 387 394 380 410 411 424 393 388 431 388 425 415 416 415 426 440 435 438 431 407 417 400 390 397 424 432 363 388 452 390 376 365 371 416 401 396 417 402 407 425 398 371 404 373 409 368 390 356 385 387 366 343 370 370 379 370 315 343 372 383 358 388 369 336 333 356 347 367 368 369 326 355 360 338 358 326 334 324 299 357 324 344 312 384 311 342 358 379 330 329 346 357 356 334 366 378 307 333 367 345 323 328 336 359 330 355 326 335 338 349 352 340 349 356 311 342 354 320 301 329 326 321 320 374 367 339 342 350 340 318 348 314 337 371 339 342 360 329 348 300 328 322 323 348 327 347 325 351 342 343 315 280 337 325 368 371 310 323 316 331 349 322 328 353 355 340 328 334 354 336 315 334 335 359 343 333 339 355 361 335 338 374 317 342 350 347 339 326 302 315 361 369 348 360 331 328 296 349 322 355 310 354 328 363 304 319 342 326 328 336 325 320 300 320 343 329 295 350 314 361 332 311 327 351 328 301 342 353 350 333 327 329 328 333 343 337 313 311 345 309 358 303 345 314 323 341 344 304 315 380 342 352 319 327 317 313 335 324 337 327 315 331 352 324 288 358 298 323 347 313 324 318 323 345 293 340 338 327 314 305 313 292 284 333 343 350 349 324 288 317 334 327 335 339 325 346 316 318 290 338 380 317 323 329 326 360 324 342 314 321 338 319 312 319 327 331 312 335 307 341 326 341 313 345 305 336 315 359 363 323 367 307 313 335 337 355 321 305 338 299 327 295 304 312 335 338 367 345 340 347 346 374 322 321 314 338 324 345 311 337 322 330 341 317 319 355 321 341 340 354 343 308 341 307 331 339 307 326 338 350 323 332 318 336 342 349 327 316 343 313 326 318 324 311 332 319 364 297 334 357 324 327 331 372 350 326 353 349 326 312 344 314 336 339 318 327 357 322 331 368 314 345 360 323 330 317 311 331 352 345 363 328 356 322 373 350 336 344 319 355 351 352 331 360 314 340 351 328 346 353 358 359 370 364 346 372 375 327 383 377 360 370 397 391 392 362 416 381 398 429 431 417 420 407 419 398 392 431 393 419 434 396 387 415 402 397 416 408 377 394 378 383 394 372 418 383 346 400 390 374 406 371 371 375 365 334 382 366 415 353 332 330 392 388 368 352 359 361 364 360 331 328 350 344 312 292 351 310 341 325 335 326 318 311 302 307 322 339 355 370 325 307 315 369 330 315 314 345 362 296 323 309 305 324 338 313 322 342 332 333 336 342 343 340 348 327 349 335 327 327 322 342 327 320 327 319 320 329 340 349 336 324 330 319 344 313 313 307 328 352 325 319 355 342 301 294 357 310 305 344 370 371 340 336 318 338 338 339 352 309 325 303 362 327 298 305 361 330 328 334 331 343 351 322 327 330 357 339 306 274 322 320 325 319 319 331 344 329 345 332 333 344 326 337 297 307 347 369 311 330 338 314 350 328 356 352 332 309 353 340 316 344 348 346 319 333 322 322 341 295 342 314 334 326 356 329 331 354 329 345 366 345 328 313 355 335 349 333 338 328 341 317 335 354 320 349 338 349 358 369 376 354 353 381 362 345 372 369 382 325 384 384 359 357 361 379 374 340 382 351 378 386 402 385 409 345 386 400 349 384 394 420 368 440 406 453 471 466 496 539 544 551 543 563 616 593 662 660 703 751 754 799 805 838 826 842 856 904 939 1048 1014 1055 1067 1079 1118 1160 1111 1077 1051 1059 1066 1000 990 1013 950 968 892 868 880 819 806 774 789 716 770 731 753 757 824 762 819 719 821 801 721 689 723 714 671 648 580 598 591 558 540 525 500 517 468 426 425 487 444 455 454 411 424 393 424 385 385 363 396 370 372 395 364 392 375 331 351 397 354 381 388 375 385 328 356 388 387 392 371 347 375 330 340 379 362 361 374 332 367 355 381 378 358 350 397 368 338 396 368 381 338 381 368 391 369 373 393 402 403 368 399 385 332 381 395 367 401 393 395 403 396 404 378 393 378 442 409 408 388 390 388 406 364 390 446 379 418 415 435 413 363 390 439 391 427 397 420 391 384 371 376 392 415 409 391 410 395 409 420 437 410 374 415 383 418 363 394 397 403 431 431 403 411 379 371 387 399 362 384 416 366 421 391 404 397 355 417 397 349 375 379 378 365 349 354 374 377 384 335 434 352 387 355 394 319 378 391 359 372 361 362 366 367 347 381 363 382 386 353 350 363 320 327 372 366 369 363 388 323 380 341 334 356 357 334 360 339 317 343 329 335 350 366 380 374 362 345 357 321 352 356 325 320 324 320 361 324 352 302 325 359 317 316 324 332 365 324 309 328 345 348 357 351 375 369 330 356 313 334 320 337 332 321 340 377 328 317 297 362 322 349 328 326 325 349 326 372 326 322 315 339 350 350 327 304 338 380 333 316 334 326 332 314 351 353 354 345 320 292 318 302 316 316 336 335 305 336 294 292 328 343 338 329 339 360 339 320 339 340 343 359 325 336 336 327 325 319 312 334 295 325 319 321 317 320 321 338 323 324 341 319 302 334 304 327 300 343 299 300 340 336 324 310 319 316 368 337 326 296 308 368 299 353 334 307 311 335 329 335 329 342 312 298 300 311 339 367 299 289 306 332 312 324 272 340 307 322 314 364 294 313 336 324 349 311 316 332 310 286 355 326 309 349 302 319 351 314 348 314 325 349 315 318 330 285 293 340 309 359 330 335 315 329 339 349 329 345 322 314 358 299 325 308 303 357 349 338 355 318 358 331 320 336 311 321 329 337 331 313 320 344 309 354 336 312 344 331 322 309 352 320 332 320 320 323 324 328 315 330 338 321 328 307 320 303 291 309 331 302 321 325 361 300 343 339 325 318 324 318 295 332 324 359 298 330 319 324 346 322 355 320 311 319 350 296 366 343 335 320 334 337 316 335 316 328 350 333 338 335 331 353 340 320 328 344 309 328 349 341 348 347 334 307 321 356 322 343 309 319 314 338 326 329 343 336 326 349 311 336 312 349 314 366 348 361 339 352 315 355 331 311 326 346 339 316 343 326 320 305 340 310 381 325 315 319 365 340 329 320 347 342 352 363 311 332 358 372 349 368 356 316 342 357 394 405 375 414 397 402 419 422 453 448 462 446 409 448 443 494 470 464 471 513 508 468 521 518 514 514 491 517 516 524 525 517 525 488 480</counts>
			</dataPoints>
		</scan>
	</xrdMeasurement>
</xrdMeasurements>
