<?xml version="1.0"?>
<xrdMeasurements xmlns="http://www.xrdml.com/XRDMeasurement/2.3" xmlns:xsi="http://www.w3.org/2001/XMLSchema-instance" xsi:schemaLocation="http://www.xrdml.com/XRDMeasurement/2.3 http://www.xrdml.com/XRDMeasurement/2.3/XRDMeasurement.xsd" status="Completed" recordIdentifier="{120A0C70-2155-4D59-BD58-F1E24DCA76E5}">
	<comment>
		<entry/>
	</comment>
	<sample type="To be analyzed">
		<id>GPSS_Li1p65Co0p75Cu0p10Nb0p15Cl4_121325_693cb366f4d05ae3d69752b7</id>
		<name></name>
		<preparedBy></preparedBy>
	</sample>
	<xrdMeasurement measurementType="Scan" status="Completed" sampleMode="Reflection">
		<usedWavelength intended="K-Alpha 1">
			<kAlpha1 unit="Angstrom">1.5405980</kAlpha1>
			<kAlpha2 unit="Angstrom">1.5444260</kAlpha2>
			<kBeta unit="Angstrom">1.3922500</kBeta>
			<ratioKAlpha2KAlpha1>0.5000</ratioKAlpha2KAlpha1>
		</usedWavelength>
		<incidentBeamPath>
			<radius unit="mm">145.00</radius>
			<xRayTube id="1010048" name="Empyrean Cu LFF HR (9430 033 7310x)">
				<tension unit="kV">40.0</tension>
				<current unit="mA">15.0</current>
				<anodeMaterial>Cu</anodeMaterial>
				<focus type="Line">
					<length unit="mm">12.0</length>
					<width unit="mm">0.4</width>
					<takeOffAngle unit="deg">6.0</takeOffAngle>
				</focus>
			</xRayTube>
			<sollerSlit id="21010002" name="Soller slits 0.04 rad.">
				<opening unit="rad">0.0400</opening>
			</sollerSlit>
			<mask id="22031000" name="Fixed mask 13 mm">
				<width unit="mm">9.00</width>
			</mask>
			<divergenceSlit id="22120001" name="Divergence slit 1°" xsi:type="fixedDivergenceSlitType">
				<distanceToSample unit="mm">50.00</distanceToSample>
				<height unit="mm">1.52</height>
			</divergenceSlit>
		</incidentBeamPath>
		<sampleMovement xsi:type="spinningSampleMovementType">
			<spinnerRevolutionTime unit="seconds">1.0</spinnerRevolutionTime>
		</sampleMovement>
		<diffractedBeamPath>
			<radius unit="mm">145.00</radius>
			<antiScatterSlit id="22090040" name="AS slit 9 mm (PIXcel)" xsi:type="fixedAntiScatterSlitType">
				<height unit="mm">9.00</height>
			</antiScatterSlit>
			<sollerSlit id="21020003" name="Large Soller slits 0.04 rad.">
				<opening unit="rad">0.0400</opening>
			</sollerSlit>
			<filter id="20030001" name="Large beta-filter Nickel">
				<material>Ni</material>
				<thickness unit="mm">0.020</thickness>
			</filter>
			<detector id="7010019" name="PIXcel1D-Medipix3 detector" xsi:type="rtmsDetectorType">
				<phd unit="keV">
					<lowerLevel>4.02</lowerLevel>
					<upperLevel>11.27</upperLevel>
				</phd>
				<mode>Scanning</mode>
				<activeLength unit="deg">5.542</activeLength>
			</detector>
		</diffractedBeamPath>
		<scan appendNumber="0" mode="Continuous" scanAxis="Gonio" status="Completed">
			<header>
				<startTimeStamp>2025-12-16T15:17:30-08:00</startTimeStamp>
				<endTimeStamp>2025-12-16T15:25:38-08:00</endTimeStamp>
				<author>
					<name>AutomatedUser</name>
				</author>
				<source>
					<applicationSoftware version="1.7b (136)">PANalytical Aeris Instrument Suite</applicationSoftware>
					<instrumentControlSoftware version="3.2.00000000 20240306">AERIS</instrumentControlSoftware>
					<instrumentID>950485</instrumentID>
				</source>
			</header>
			<dataPoints>
				<positions axis="2Theta" unit="deg">
					<startPosition>10.00943322</startPosition>
					<endPosition>99.99442286</endPosition>
				</positions>
				<positions axis="Omega" unit="deg">
					<startPosition>5.00471661</startPosition>
					<endPosition>49.99721143</endPosition>
				</positions>
				<commonCountingTime unit="seconds">12.495</commonCountingTime>
				<counts unit="counts">4100 4064 3969 4140 4078 4073 4005 4154 4018 4085 4035 3925 4121 4078 4064 4061 4017 4053 4134 4062 4157 4054 4097 4040 4091 4113 3976 4095 4116 4041 4061 4096 4101 4127 3993 4065 4120 3974 4273 4193 4145 4092 4113 4112 4161 4175 4103 4194 4031 4143 4024 4163 4095 4095 4225 4111 4083 4192 4216 4198 4058 4085 4220 4242 4212 4171 4193 4199 4254 4158 4274 4245 4222 4219 4268 4221 4282 4126 4254 4219 4326 4216 4335 4304 4378 4304 4208 4262 4251 4217 4226 4061 4354 4192 4188 4260 4159 4275 4189 4235 4168 4327 4174 4149 4266 4241 4258 4277 4273 4275 4305 4267 4316 4270 4145 4215 4215 4171 4165 4259 4132 4271 4320 4362 4201 4309 4149 4210 4295 4316 4322 4304 4210 4242 4320 4254 4251 4357 4310 4249 4223 4243 4307 4207 4150 4247 4259 4263 4257 4291 4250 4165 4318 4297 4156 4277 4266 4189 4309 4171 4288 4293 4252 4373 4346 4275 4277 4236 4307 4296 4464 4338 4391 4280 4236 4317 4329 4341 4262 4291 4325 4344 4341 4235 4295 4285 4315 4249 4347 4430 4327 4404 4311 4363 4261 4345 4398 4333 4395 4461 4312 4255 4212 4245 4477 4419 4336 4310 4420 4448 4353 4362 4323 4391 4446 4334 4254 4258 4367 4448 4388 4306 4384 4535 4405 4283 4319 4320 4324 4268 4279 4517 4402 4409 4443 4430 4358 4418 4408 4325 4320 4329 4416 4448 4345 4363 4473 4468 4349 4384 4334 4436 4381 4385 4468 4444 4411 4540 4447 4655 4532 4471 4535 4512 4481 4521 4433 4466 4597 4494 4388 4558 4398 4493 4385 4552 4540 4661 4602 4463 4548 4562 4515 4531 4584 4571 4498 4521 4608 4640 4490 4730 4696 4676 4480 4511 4675 4764 4550 4596 4638 4524 4709 4607 4617 4738 4619 4657 4607 4793 4657 4701 4822 4697 4676 4679 4717 4743 4755 4691 4817 4645 4757 4755 4767 4869 4812 4799 4617 4801 4763 4780 4740 4772 4832 4831 4959 4814 4820 4853 4904 4852 4898 4884 4919 4834 4802 4944 4955 4853 4954 5015 4989 4957 4934 5024 4938 5134 5092 5150 4932 4887 5017 5058 5156 5042 4974 5048 4949 5132 5114 5038 5034 5117 5181 5067 5225 5148 5218 5061 5084 5124 5233 5319 5086 5241 5248 5224 5336 5119 5119 5304 5164 5223 5414 5215 5357 5327 5297 5286 5438 5347 5298 5394 5266 5383 5347 5518 5322 5372 5435 5345 5427 5420 5478 5471 5482 5471 5490 5547 5383 5477 5366 5525 5587 5666 5717 5572 5652 5617 5632 5653 5528 5628 5593 5786 5906 5810 6052 5864 6022 5925 5869 6066 6052 6109 6079 6231 6271 6314 6484 6612 6657 6767 6821 6795 6961 7042 7132 7054 7236 7177 7400 7429 7530 7550 7434 7624 7584 7745 7648 7469 7652 7571 7393 7186 7506 7275 7023 7018 6900 6720 6599 6525 6460 6295 6267 6270 5936 5967 6136 6135 6024 6002 6095 6136 5941 5892 6007 5932 5952 5823 5865 5795 5729 5761 5836 5747 5794 5681 5611 5629 5631 5579 5643 5509 5576 5497 5511 5437 5397 5507 5410 5340 5275 5410 5427 5278 5458 5430 5288 5476 5501 5193 5465 5317 5362 5408 5375 5403 5248 5392 5348 5281 5392 5358 5299 5344 5360 5299 5095 5302 5267 5318 5335 5273 5301 5317 5170 5234 5299 5166 5113 5117 5162 5466 5223 5279 5191 5277 5171 5279 5323 5239 5135 5125 5237 5163 5308 5170 5259 5285 5277 5273 5213 5244 5331 5214 5239 5193 5136 5287 5200 5242 5202 5139 5183 5011 5136 5201 5108 5249 5144 5253 5175 5030 5266 5138 5138 5261 5182 5164 5062 5232 5032 5283 5170 5237 5110 5105 5107 5217 5155 5228 5096 5184 5276 5149 5130 5206 5053 5198 5132 5185 5160 5091 5354 5173 5194 5221 5056 5219 5172 5174 5176 5285 5261 5141 5129 5144 5199 5138 5231 5230 5233 5325 5173 5356 5245 5348 5350 5332 5266 5364 5370 5368 5410 5404 5372 5481 5420 5391 5539 5305 5605 5421 5435 5372 5516 5524 5446 5508 5396 5521 5608 5306 5481 5335 5303 5409 5307 5312 5454 5309 5388 5376 5151 5214 5180 5265 5320 5234 5125 5134 5172 5200 5144 5095 5162 5229 5147 5247 5115 5260 5132 5244 5203 5190 4995 5033 5113 5185 5169 5130 5140 5160 5303 5042 5080 5110 5143 5253 5270 5202 5158 5161 5202 5272 5229 5150 5231 5127 5115 5093 5278 5116 5223 5160 5167 5173 5066 5137 5134 5130 5109 5146 5171 5303 5178 5315 5145 5295 5008 5150 5161 5262 5159 5228 5184 5182 5218 5111 5191 5235 5246 5132 5133 5025 5160 5188 5202 5066 5282 5237 5191 5190 5126 5014 5053 5122 5084 5181 5126 5154 5091 5095 5278 5272 5157 5036 5095 5109 5127 5198 5238 5073 5215 5116 5150 5236 5205 5154 5253 5180 5093 5195 5144 5152 5188 5150 5171 5135 5153 5082 5066 5059 5004 5013 5147 5004 5063 4978 5153 5108 5144 5155 5000 5197 5144 5157 5135 5143 5156 5054 5078 5173 5203 5086 5205 5067 5002 5124 5027 4987 5061 5087 5175 5152 5111 4941 5098 5025 5119 5057 5172 5131 5021 5072 5158 5039 5154 5074 5136 5097 5077 5079 5208 5160 5156 5121 5063 5191 5129 5127 4944 5145 5121 5149 5001 5103 5127 5062 5102 5106 5105 5140 5243 5015 5058 5041 5040 5077 5089 5023 5107 5065 5077 5143 5012 5063 5117 5096 5158 5168 5165 5063 5183 5036 5151 5073 5142 5239 5184 5122 5161 5045 5150 5067 5151 5204 5009 5008 5146 5022 4903 5125 5109 5134 5012 5075 5035 5252 5029 4972 5004 5106 5185 5066 5059 4992 5070 5021 5052 5008 4962 5155 4996 5055 5053 5014 5019 4973 5140 5010 5187 5128 5102 5175 4873 5143 5087 5077 5153 4961 5124 5114 5074 5114 4997 5071 5085 4921 5002 4970 5154 5054 5035 5126 5103 5137 5051 5148 5030 5214 5050 5046 5044 5188 5004 5012 5101 5203 5056 5126 4996 5113 5133 5030 5051 5143 5096 4953 5051 5120 5230 5128 4972 5125 5140 5044 5121 4987 5086 5144 5238 5105 5031 5112 5150 5176 5098 5156 5153 5129 5137 5035 5154 5119 5131 4951 5057 5110 5140 5151 5229 5057 5142 5160 5054 5076 5129 5153 5219 5069 5176 5053 5179 5332 5209 5155 5269 5092 5066 4998 5118 5030 5043 5104 5217 5122 5228 5138 5170 5296 5133 5177 5197 5121 5123 5092 5216 5190 5066 5202 5256 5085 5202 5138 5135 5249 5123 5191 5036 5179 5230 5125 5058 5168 5156 5141 5095 5151 5139 5071 5203 5244 5144 5068 5097 5137 5249 5130 5075 5001 5044 5121 5148 5134 5190 5171 4991 5042 5156 5144 5144 5133 5208 5060 5180 4988 5039 5158 5071 5045 5099 4825 5139 5163 5130 5053 5179 5006 5033 5095 5072 5140 5222 5035 5139 4975 5011 4900 5010 5041 5066 5079 5015 5176 4990 5017 5057 4991 5093 5103 5056 5024 5087 4988 4915 4999 5020 5062 4996 4915 5038 5060 5007 4979 4964 4916 5011 4912 4908 4961 5037 4958 5029 4981 4977 4967 4898 5011 5047 4874 5022 4965 4982 4907 4977 4879 4954 4897 4827 4888 4876 4827 4997 4801 4935 5005 4974 5015 4924 4995 4876 4811 4785 4886 4922 4874 4793 4787 4869 4767 4884 4751 4866 4880 4779 4668 4912 4888 4730 4812 4850 4820 4865 4774 4723 4961 4752 4854 4794 4823 4842 4748 4741 4756 4815 4793 4756 4708 4755 4695 4769 4817 4835 4837 4666 4738 4701 4685 4735 4719 4749 4759 4781 4691 4681 4659 4679 4820 4704 4641 4911 4692 4794 4650 4638 4576 4728 4707 4773 4592 4747 4671 4669 4615 4735 4724 4755 4775 4723 4717 4682 4770 4702 4666 4748 4674 4623 4683 4700 4652 4780 4696 4675 4763 4706 4535 4731 4771 4601 4593 4690 4661 4633 4907 4696 4681 4683 4697 4729 4785 4756 4819 4851 4818 4791 4911 4748 4854 4948 4984 4979 5014 4780 4925 4938 5008 4929 5106 4899 5149 5180 5102 5122 5136 5122 4965 5141 4981 5156 4998 4992 5075 4919 4892 5022 4966 4846 4870 4926 4810 4881 4874 4827 4876 4745 4878 4837 4817 4854 4819 4852 4750 4648 4728 4711 4702 4744 4732 4736 4687 4678 4724 4823 4667 4693 4588 4742 4580 4672 4554 4739 4610 4611 4719 4599 4611 4690 4660 4606 4599 4796 4615 4669 4572 4673 4620 4705 4634 4637 4568 4698 4615 4733 4717 4726 4652 4647 4723 4600 4719 4785 4758 4600 4535 4780 4510 4790 4771 4632 4597 4619 4730 4711 4699 4612 4672 4603 4694 4640 4678 4637 4531 4679 4694 4620 4667 4623 4651 4685 4610 4751 4672 4631 4674 4555 4579 4796 4675 4663 4616 4689 4715 4609 4571 4676 4603 4566 4652 4670 4690 4660 4793 4628 4754 4815 4738 4785 4733 4705 4700 4795 4551 4710 4755 4743 4728 4611 4585 4707 4775 4684 4588 4673 4535 4665 4648 4683 4704 4591 4740 4657 4622 4616 4650 4621 4789 4579 4704 4632 4730 4707 4769 4664 4573 4689 4658 4675 4547 4792 4756 4717 4680 4656 4714 4767 4717 4618 4685 4657 4567 4756 4699 4661 4535 4619 4603 4706 4592 4648 4674 4513 4661 4528 4658 4571 4578 4636 4637 4709 4597 4589 4559 4610 4610 4609 4486 4611 4470 4559 4457 4642 4587 4554 4622 4577 4552 4494 4449 4558 4615 4477 4456 4587 4572 4529 4642 4633 4414 4675 4539 4545 4520 4523 4614 4550 4500 4661 4437 4534 4463 4443 4514 4598 4522 4563 4514 4542 4483 4548 4426 4507 4580 4465 4503 4460 4428 4357 4473 4534 4668 4540 4505 4465 4530 4466 4453 4387 4515 4444 4291 4529 4464 4452 4549 4375 4504 4556 4463 4426 4447 4435 4445 4455 4409 4494 4405 4487 4260 4461 4482 4423 4323 4378 4399 4408 4470 4408 4389 4350 4421 4330 4244 4442 4311 4503 4412 4324 4310 4293 4370 4342 4459 4441 4307 4368 4395 4543 4311 4372 4410 4397 4382 4367 4334 4475 4386 4405 4369 4440 4363 4310 4460 4358 4376 4377 4411 4312 4234 4388 4357 4340 4379 4334 4353 4522 4317 4371 4358 4435 4460 4370 4445 4501 4474 4375 4441 4459 4482 4411 4457 4642 4544 4529 4573 4606 4672 4813 4686 4785 4819 4854 4822 4956 4893 4986 5015 5018 5395 5240 5216 5291 5382 5213 5315 5458 5453 5541 5490 5558 5431 5483 5528 5446 5513 5369 5495 5622 5481 5272 5520 5518 5348 5155 5315 5250 5110 5217 5122 5079 5013 5120 4997 4902 4904 4923 4883 5067 4932 4966 4820 4919 4884 4860 4745 4901 4812 4735 4648 4719 4632 4640 4620 4519 4590 4634 4612 4541 4491 4547 4500 4439 4477 4608 4472 4517 4537 4572 4334 4558 4423 4396 4404 4440 4455 4289 4451 4353 4398 4414 4461 4512 4423 4345 4336 4304 4388 4489 4352 4243 4302 4417 4471 4281 4460 4484 4451 4418 4370 4469 4520 4497 4565 4459 4462 4671 4938 4713 4971 4805 5023 4931 5274 5185 5271 5428 5561 5514 5590 5812 5724 5804 5766 5714 5980 5909 6121 6076 6039 6224 6142 6172 6054 6218 6170 6047 6014 6079 6115 5965 5915 5926 5772 5797 5525 5566 5336 5503 5210 5324 5238 5215 5108 4981 4973 5002 4945 4902 4938 4748 4810 4712 4690 4737 4573 4504 4512 4494 4526 4377 4530 4440 4450 4311 4332 4462 4401 4281 4289 4374 4297 4313 4151 4298 4313 4305 4108 4232 4244 4237 4268 4219 4259 4157 4127 4271 4180 4198 4291 4335 4183 4196 4193 4211 4229 4142 4225 4201 4247 4209 4267 4298 4266 4299 4232 4189 4156 4164 4150 4191 4112 4141 4239 4220 4136 4138 4240 4298 4166 4207 4112 4125 4196 4136 4286 4236 4147 4166 4231 4129 4211 4196 4300 4157 4168 4214 4269 4183 4212 4122 4227 4159 4156 4084 4102 4184 4306 4289 4253 4213 4161 4201 4129 4207 4076 4164 4129 4190 4255 4117 4081 4137 4128 4193 4116 4281 4102 4230 4176 4090 4172 4171 4180 4196 4097 4144 4289 4113 4258 4150 4195 4186 4212 4233 4167 4201 4277 4076 4142 4160 4225 4101 4171 4133 4320 4109 4214 4239 4110 4224 4175 4143 4147 4260 4220 4229 4133 4192 4168 4126 4165 4035 4101 4139 4139 4263 4136 4116 4136 4174 4288 4116 4115 4215 4147 4127 4154 4189 4142 4259 4070 4236 4124 4104 4165 4183 4181 4145 4120 4149 4251 4174 4117 4195 4132 4019 4212 4087 4159 4174 4113 4076 4019 4144 4232 4180 4175 4197 4250 4084 4195 4103 4022 4114 4058 4142 4201 4138 4299 4189 4147 4168 4097 4149 4153 4207 4250 4193 4093 4249 4093 4181 4200 4179 4185 4220 4160 4121 4102 4172 4083 4287 4098 4312 4077 4133 4171 4170 4208 4253 4238 4136 4056 4159 4149 4225 4173 4224 4117 4140 4176 4256 4135 4213 4108 4274 4225 4090 4167 4162 4027 4204 4071 4153 4300 4210 4292 4174 4160 4200 4181 4263 4147 4249 4103 4061 4167 4131 4146 4171 4214 4137 4194 4108 4179 4241 4131 4224 4083 4184 4111 4169 4081 4094 4223 4270 4151 4174 4251 4217 4175 4239 4268 4166 4237 4207 4196 4238 4251 4128 4233 4028 4167 4178 4178 4242 4147 4180 4199 4180 4109 4139 4082 4202 4119 4178 4209 4196 4046 4121 4261 4094 4241 4175 4247 4285 4149 4248 4185 4203 4326 4131 4235 4229 4369 4228 4259 4278 4325 4215 4333 4336 4207 4213 4167 4302 4186 4293 4280 4302 4367 4344 4455 4421 4353 4341 4471 4562 4487 4623 4637 4763 4745 4712 4886 4912 5196 5175 5398 5527 5601 5892 6024 6271 6242 6682 6695 6746 7107 7355 7505 7547 7701 7838 7992 8222 8241 8439 8658 8607 8690 8618 8734 8752 8837 8950 8937 8909 8889 8886 8659 8790 8560 8725 8326 8273 8072 8106 7888 7895 7845 7691 7653 7575 7548 7513 7343 7330 7329 7013 6992 7029 6985 6653 6706 6493 6290 6232 6138 6034 5739 5675 5411 5520 5307 5273 5179 5082 5066 4796 4779 4846 4857 4744 4624 4796 4572 4790 4609 4713 4664 4635 4631 4438 4636 4536 4550 4441 4648 4638 4565 4541 4521 4591 4544 4555 4551 4405 4521 4465 4461 4453 4353 4475 4366 4373 4426 4436 4438 4346 4282 4329 4260 4170 4305 4360 4326 4329 4222 4356 4233 4269 4293 4235 4224 4229 4240 4245 4205 4151 4109 4166 4248 4211 4222 4245 4181 4206 4233 4271 4203 4261 4193 4010 4163 4345 4282 4267 4136 4009 4149 4162 4070 4138 4239 4182 4172 4128 4137 4124 4157 4179 4109 4068 4115 4146 4125 4249 4133 4215 4123 4227 4096 4117 4170 4185 4142 4123 4147 4088 4026 4175 4183 4173 4192 4204 4140 4099 4036 4122 4101 4052 4157 4187 4106 4184 4065 4232 4105 4121 4035 4033 4123 4060 4094 4221 4220 4102 4161 4153 4042 4201 4133 4139 4117 4126 4085 4238 4087 4123 4148 4114 4130 4233 4042 4145 4190 4168 4059 4074 4141 4119 4025 4116 4095 4085 4156 4112 4126 4140 4055 4142 4098 4160 4201 4172 4179 4129 4191 4175 4138 4055 4130 4194 4164 4132 4105 4146 4180 4106 4137 4167 4068 4220 4060 4111 4106 4142 4025 4149 4137 4094 4008 4088 4136 4142 4055 4100 4162 4019 4154 4202 4155 4134 4123 4174 4105 3973 4151 4102 4137 4034 4060 4157 4083 4153 4065 4181 4114 4117 4160 4123 4031 4149 4120 4121 4097 4158 4096 4076 4155 4233 4205 4236 4229 4127 4160 4168 4063 4224 4226 4326 4282 4329 4376 4314 4322 4195 4400 4260 4121 4174 4206 4298 4189 4281 4377 4357 4265 4217 4153 4220 4290 4125 4159 4179 4227 4243 4300 4196 4087 4136 4117 4280 4212 4156 4189 4244 4125 4189 4166 4145 4020 4140 4089 4142 4074 4083 4116 4089 4166 4042 4067 4098 4127 4063 3963 4091 4170 4045 3987 4102 4054 4080 4046 4089 4004 4095 4112 4117 4071 4307 4190 4227 4228 4058 4070 4193 4242 4062 4130 4141 4100 4020 4017 3990 4109 4027 4175 4090 4220 4169 4183 4179 4212 4257 4281 4247 4271 4161 4160 4191 4207 4218 4175 4292 4154 4284 4230 4305 4327 4303 4099 4286 4373 4274 4250 4246 4208 4340 4304 4220 4278 4154 4203 4164 4178 4227 4149 4149 4182 4112 4244 4068 4190 4052 4024 4106 4061 4293 4049 4073 4132 4107 4219 3993 4028 4109 4115 4185 4041 4082 4021 4100 4238 4034 4006 4180 4081 4020 4123 4105 4175 4098 4041 4097 4131 4198 4064 4175 4069 4038 4130 4166 4122 4070 4108 3992 4096 4038 4017 4038 4072 3983 4111 4012 3956 4097 3901 4039 4066 3957 4123 4067 4214 3930 4078 4041 4091 4076 4033 4008 4069 4061 4017 4083 4006 4064 4153 3995 4109 4016 4097 4089 4072 4142 3979 4110 4035 4030 4022 4099 4082 3955 4035 4099 3957 4000 4101 4019 4092 4089 4067 3999 4059 3910 3901 4032 4008 3998 4036 4010 4060 4010 4096 4134 4044 4058 4126 4038 4154 4015 4117 4178 3993 4046 4212 3936 4097 4136 4072 4078 3999 3996 4186 4084 4110 3976 4162 4121 4054 4124 4163 4016 4060 4041 4074 4046 4153 4018 4015 3968 4014 4019 4163 4124 4009 4114 4014 3938 4097 4199 4032 4029 4029 4130 4127 4016 4107 3888 4072 4007 3984 4019 4018 4123 4105 4024 4022 3972 3966 4047 4160 4115 3953 4050 4098 4027 3866 4066 4004 4023 4166 4074 3987 4129 4016 4030 4099 4073 4050 3922 3997 4128 4052 3948 4006 4035 4103 3959 4049 4150 4054 4060 4097 4101 4072 3998 3939 4076 4102 4025 4090 4044 3929 4010 4058 4121 4192 4114 4035 4070 4098 4125 4023 4049 4050 4153 4075 4057 4095 4070 4051 4031 4078 4012 4179 3934 4064 4020 4083 4022 3986 4010 4070 4038 4076 4015 4096 4028 4083 4130 4110 4041 4200 3960 4087 4140 4082 4000 3982 4059 4051 4014 4026 3967 4104 4092 4003 4042 4161 4037 4241 4092 4015 4056 4092 4105 4058 4121 4019 4118 4067 4151 4012 4036 3945 4040 4120 4139 4002 4082 4118 4089 4088 4132 4090 3986 4034 4093 4188 4144 4184 4145 4175 3960 4073 4190 4235 4197 4103 4143 4225 4253 4204 4263 4266 4251 4250 4327 4241 4176 4167 4146 4237 4200 4199 4167 4210 4187 4092 4133 4191 4095 4089 4122 4032 4126 4140 4174 3964 4057 4154 4178 4161 4046 4026 4117 4044 4140 4055 4171 4145 4190 4022 3908 4035 4000 4142 4004 4246 4079 4080 4020 4083 4003 4052 3982 3991 4027 3876 4107 3998 4063 3976 4137 4093 4167 4060 4042 3953 4055 4090 4073 4016 3983 4013 4066 3930 4088 4074 4113 4146 4021 4043 3992 3968 4089 4012 3945 3998 4024 3952 4057 4151 3998 4098 4057 3969 3987 4092 3983 4069 4037 3894 4082 4099 3987 4003 4087 4003 4147 4057 3995 4140 4028 3932 4006 4058 3942 3937 4071 4072 4026 4013 4083 4063 4057 3940 4033 4091 4138 3994 3958 4073 4045 4115 4023 4107 3984 4119 4106 4019 3976 4037 4041 3981 4062 4094 4067 3988 4092 4112 4140 4000 4035 4077 4028 4134 4154 3991 3986 4126 4179 4000 4175 4102 3913 4144 3928 4148 4096 4100 4112 4098 4014 3933 3948 4137 3978 4001 4032 4011 4092 3961 4057 4053 4012 4075 4142 4005 3998 3960 3922 4013 3924 4127 4061 4087 4052 4102 4068 4073 3961 4027 3969 4103 4029 4129 4144 4164 4052 3957 4016 4093 4062 4058 4103 4063 4069 4085 4113 4286 4116 4177 4083 4105 4058 4204 4110 4143 4037 4046 4203 4147 4181 4178 4258 4325 4367 4275 4441 4373 4362 4412 4442 4512 4507 4561 4516 4571 4648 4615 4726 4669 4715 4724 4757 4710 4898 4746 4866 4744 4855 4773 4830 4688 4699 4757 4732 4759 4707 4620 4743 4662 4711 4645 4577 4600 4542 4588 4608 4517 4466 4646 4429 4510 4641 4573 4515 4390 4606 4205 4393 4278 4307 4274 4323 4264 4294 4260 4034 4327 4266 4172 4207 4230 4267 4087 4213 4036 4102 4019 4063 4134 4171 4137 4064 4065 4052 4084 4189 4112 4108 4064 4025 4090 4012 4007 4081 4210 4078 4096 4042 4132 4084 4044 4103 4052 3994 4131 3966 4156 4110 4195 4024 4076 3935 4093 4132 4122 4115 4064 4093 4114 4034 4080 4202 4022 4145 3981 4078 4042 3983 4084 4062 3994 4076 3993 4083 4093 4142 4017 4120 4080 3998 3984 4058 3919 4051 4096 4063 4073 4057 4157 4056 4065 4036 4005 3979 4042 4022 4007 3909 4049 4052 4086 3944 4058 4061 4038 4037 4042 4086 4098 3971 4193 4044 4085 3962 4029 4085 4018 4090 4053 4003 4134 4031 4105 4093 3967 4018 3946 3978 4008 4124 4015 4097 3976 3894 4048 4081 4064 4172 4023 4039 4152 3975 4009 4059 4063 4021 4075 3908 4031 4127 3934 3904 4082 3876 4120 4053 4030 3993 4098 4131 4153 4061 3904 3990 4081 3979 3985 3989 4113 4100 4004 3905 4014 4131 4102 4029 4013 4068 4035 4044 4110 4044 4104 4026 4069 4042 4089 3990 4074 4170 4080 3945 4065 4083 4044 4050 3984 4111 4065 4024 4063 4076 3974 4037 4041 4011 3999 3936 4039 4019 4017 4082 3989 4114 4038 4010 4178 4057 3950 4151 4142 4116 4018 4128 4130 3996 4193 3996 4123 4040 3954 4063 4000 4035 4099 4121 3939 4166 3980 4066 4055 4062 4128 4070 4093 4105 4085 4144 4157 4074 4068 4106 4060 4171 4256 4004 4099 4063 3978 4088 4015 4118 3935 4155 4145 3979 3976 4022 4093 4043 4119 4205 4064 4044 4080 4032 4051 4002 4038 3933 4102 4105 4096 4090 4033 4114 4089 3986 4069 4106 3971 4087 4106 4081 4086 3988 4029 4064 4094 4101 4075 4042 4152 3978 4084 4082 3951 4077 4030 4103 4098 4067 4042 4189 4049 4122 4148 4216 4211 4209 4064 4224 4239 4103 4250 4308 4253 4241 4138 4207 4324 4252 4417 4282 4437 4459 4485 4407 4559 4549 4655 4715 4714 4859 4926 5015 5090 5252 5347 5480 5734 5480 5736 6001 5961 6198 6295 6327 6397 6567 6756 6802 6905 6879 7108 7203 7095 7110 7039 7094 7165 7034 6958 7045 6946 6926 6847 6737 6992 6634 6598 6439 6260 6188 6149 5977 5874 5816 5626 5676 5376 5574 5231 5228 5152 4999 4942 4969 4917 4878 4811 4815 4738 4543 4646 4670 4601 4528 4419 4643 4577 4680 4646 4478 4626 4531 4651 4680 4650 4585 4528 4570 4599 4528 4558 4574 4623 4595 4479 4463 4584 4524 4647 4353 4368 4474 4428 4388 4335 4272 4363 4326 4345 4290 4287 4329 4175 4476 4341 4257 4231 4243 4240 4322 4273 4414 4322 4130 4240 4240 4315 4260 4371 4274 4361 4310 4408 4276 4435 4372 4339 4202 4296 4154 4320 4316 4422 4245 4195 4202 4318 4307 4261 4302 4294 4185 4236 4132 4244 4154 4167 4216 4047 4321 4149 4219 4044 4197 4123 4179 4181 4117 4045 4173 4208 4216 4089 4098 4082 4071 4087 3956 4064 3993 4134 4076 4047 4071 4059 3956 3989 4121 4117 4062 4019 4091 4131 4037 4146 4122 4164 4097 4021 4065 4094 4167 4098 4093 4139 4062 4071 4043 4041 4124 4076 4040 4092 3973 4103 4119 3933 3962 3999 4074 4195 4015 4074 4090 4208 4025 4084 4035 3965 3981 4065 4029 4038 3904 4172 4081 3980 4141 4083 4054 4197 4133 4042 4080 4171 4131 4129 4093 4243 4296 4273 4194 4159 4195 4239 4305 4368 4279 4251 4296 4247 4239 4250 4240 4386 4227 4216 4378 4292 4430 4400 4314 4291 4311 4315 4286 4362 4312 4363 4207 4211 4315 4304 4338 4310 4271 4341 4233 4281 4194 4247 4199 4330 4147 4081 4211 4155 4134 4231 4071 4134 4026 4278 4157 4158 4200 4231 4116 4202 4185 4249 4211 4179 4239 4348 4171 4227 4262 4236 4312 4144 4244 4270 4234 4183 4214 4316 4076 4280 4224 4209 4212 4096 4227 4257 4092 4121 4084 4165 4146 4198 4234 4202 4210 4164 4122 4125 4024 4055 4135 4118 4136 4207 4270 4127 4157 4149 4150 4237 4215 4094 4099 4138 4174 4167 4100 4081 4253 3990 4095 4170 4106 4134 4033 4091 4159 4086 4038 4229 4017 4069 4165 4038 4089 4137 4087 4098 4029 4101 4163 4060 4044 4152 4070 4067 4117 4148 4040 3932 3940 4067 4105 4076 4040 4013 4013 4130 4028 4014 4082 4135 4106 3914 4047 3962 4019 4054 4056 3991 4101 4003 4054 3992 4124 3950 3998 4038 4049 3943 4038 3962 4047 4041 4042 4105 3967 4034 3975 4100 4119 4087 4109 4081 4123 4093 4054 4021 4124 4019 3977 3966 4059 4006 3941 3983 4038 4105 4047 3993 4119 4136 4092 3998 3983 4084 4089 4099 4090 4137 3946 3873 4077 4094 4118 4106 4051 4045 4063 4033 4011 3944 4078 4198 3998 3939 4009 4012 4000 4066 4000 4085 4067 4057 3992 4020 4070 4090 4038 3989 3968 4007 4095 4051 4193 3927 3973 3976 4019 3933 4000 3994 4061 3952 4066 4092 3973 3908 3923 4139 4039 4045 4033 4033 3917 4078 4018 4005 4125 4090 3980 4019 4061 4061 3993 4014 4051 4023 4066 4028 4038 4028 4017 3988 4076 4107 4014 4005 3918 4047 4022 4164 3851 3982 4056 4009 4002 4046 4012 4023 4128 4038 4085 4010 4024 4081 4160 3870 3982 4103 4022 4012 3971 4034 4003 4030 4094 3955 4054 4037 4015 4053 4100 4049 3993 4046 3907 3977 3984 3951 4020 4155 3975 4011 4138 4057 3987 3980 3867 3994 4055 4027 4043 3897 4008 4036 4038 4105 4003 4054 4176 4086 4049 4064 4104 4040 4023 3958 3957 3908 4159 4110 4111 4091 4128 4088 3973 4142 4058 4091 3958 4076 4096 4112 3968 4039 4091 4021 3959 4052 4019 4079 4040 4058 4189 3954 4164 4122 4069 4141 4068 4048 4032 4149 4080 4075 4029 4007 4052 4045 4056 4072 4014 4009 3984 4210 4069 4040 4041 4094 4134 4085 4031 3919 4067 4049 3987 4071 4123 4106 4106 4105 4037 3995 4044 4084 4097 4013 4161 4059 4047 4032 4031 3985 3939 4118 3906 4006 3953 4030 4020 3926 4072 4058 3987 4031 4114 4019 4034 4012 4026 4052 3982 4153 3936 3868 3983 4077 3927 3981 4011 3958 4092 4089 3993 3995 3972 3900 3989 3976 4067 3957 4083 3981 3937 4077 4159 4017 4062 4092 3969 3905 4081 3981 3964 4037 3940 4047 4195 3938 4151 3880 4014 3885 4015 3916 3898 3911 4022 4002 4108 3995 4039 3975 3917 3960 3958 4084 3967 3993 3979 3856 4168 4030 3996 3991 4074 4006 4091 3977 4099 3995 4025 3960 4036 4012 3914 4072 4004 4033 4013 3997 4163 4111 4055 4067 4117 4019 3847 3907 3972 4088 4027 3938 3891 4197 3989 4018 4060 3975 4034 3967 3938 4104 4034 4064 4216 4044 4059 4143 4109 4093 4017 3967 4012 4158 4052 4092 4196 4107 4148 4208 4152 4140 4194 4185 4047 4101 3990 4141 4097 4018 4092 4167 4010 4185 4195 4006 4067 4017 4131 4057 4099 3950 3978 4010 4188 4003 4107 4069 4026 3908 3976 3996 3989 3972 3920 4065 4005 4159 4032 4151 4159 4054 4179 4263 4201 4195 4227 4285 4157 4319 4335 4235 4334 4417 4305 4428 4448 4447 4421 4408 4414 4506 4473 4512 4500 4553 4516 4437 4461 4573 4536 4435 4483 4468 4550 4446 4431 4495 4427 4293 4531 4464 4358 4326 4323 4387 4251 4243 4319 4268 4252 4274 4167 4225 4176 4157 4159 4215 4167 4188 4245 4240 4172 4117 4192 4102 4089 4162 4200 4133 4147 4194 4042 4199 4082 4187 4175 4200 4185 4151 4212 4131 4127 4216 4152 4107 4134 4126 4144 4084 4132 4123 4087 4194 4059 4113 4061 4039 4158 4117 4126 4045 4032 4015 3957 4078 4038 4049 4054 3988 4060 3975 4012 4014 4124 4075 4042 3979 4128 4078 3881 3994 3999 3991 4006 3994 4033 4016 4009 3976 4053 4025 4017 4045 4024 4058 3999 4037 4029 4015 4036 4006 4013 4013 4076 3913 4029 3964 3946 4028 3999 4012 4012 4035 4044 3990 3998 4031 4047 3971 3989 4139 3938 4016 4022 3975 4057 4048 4062 4036 4129 4102 4076 3999 3998 3998 4018 3993 4045 4027 4021 4013 4032 4063 3932 4031 3969 4012 4057 3992 3910 4064 3895 3994 3899 4026 3979 4040 4019 4029 4051 3832 4002 3914 4041 4002 4042 3897 3987 4009 4033 4066 4097 4061 3953 4058 3941 4055 4043 3969 3911 4036 3959 3965 4000 4062 4013 4048 3935 4111 4062 4062 3991 3974 4103 4163 4060 3953 4168 4048 4107 4068 4057 3996 4090 4144 4008 4011 3991 4018 3959 4058 3944 3975 4026 3964 4048 3998 4023 4040 4095 3998 4044 4022 3983 4052 4010 4205 3969 4203 4135 4026 4123 4083 4144 4033 4194 4078 4176 4187 4156 4339 4156 4231 4226 4210 4412 4516 4442 4402 4446 4355 4370 4458 4458 4436 4558 4606 4646 4574 4519 4576 4604 4680 4539 4474 4630 4608 4526 4609 4548 4468 4611 4420 4397 4379 4414 4560 4339 4517 4378 4440 4359 4398 4302 4378 4326 4297 4368 4201 4239 4321 4292 4265 4251 4108 4339 4194 4414 4224 4238 4347 4263 4275 4396 4208 4394 4325 4396 4297 4253 4318 4397 4277 4214 4322 4398 4195 4235 4251 4268 4213 4296 4262 4074 4256 4274 4198 4113 4188 4124 4274 4140 4103 4216 4076 4227 4115 4130 4090 4260 4064 4137 4107 4017 4137 4014 4181 4079 4046 4024 4062 4108 4012 4026 4091 4059 4086 3925 4162 4133 4048 3965 4094 4064 4047 4068 3994 4144 4177 4101 3982 4119 4018 4063 4144 3979 4094 4079 3995 3998 4035 4003 4097 4031 4046 4045 4185 4054 4065 4115 4120 4089 4057 4086 4036 4130 3974 4089 4197 4000 4102 3997 4081 4047 4089 4040 3990 4138 4035 4094 4063 4146 4165 4082 3927 3994 4142 4067 4151 4155 4075 4032 3995 4005 4125 4052 4140 3905 4092 4035 3989 3997 3971 4104 4102 3966 4075 4031 4105 4045 4064 4185 4065 4177 4090 4105 4024 4065 4059 4063 4090 4078 4102 4143 4162 4100 4085 4214 4362 4213 4098 4155 4269 4237 4279 4210 4195 4162 4293 4266 4140 4290 4129 4193 4243 4238 4246 4231 4247 4200 4193 4234 4157 4254 4129 4225 4101 4171 4233 4117 4053 4136 4116 4146 4154 4046 4071 4040 4058 3986 4084 4076 4136 4057 4050 4060 3990 4125 4092 4088 4071 4163 4201 4129 4041 4126 3980 4014 4057 4062 3968 4013 4044 4074 4102 3969 4042 4096 4081 4042 3960 4002 4078 4117 3999 4055 4043 4083 4014 4103 4080 4087 3953 4156 4079 4035 4028 4162 4017 3995 3981 4002 4071 4047 3974 4008 4083 4046 4070 3918 4085 4119 4005 4022 4066 3990 3954 3985 4015 4063 3991 4138 3902 3961 4021 4031 3995 4074 3932 3977 4021 4013 4062 3996 3956 3934 4103 4032 4065 4065 3916 4059 4030 3944 4049 4006 4060 4045 4024 4025 3989 3873 4004 4043 4017 3938 3965 3956 3984 3969 4203 3962 4130 4071 3934 4087 3981 4093 4068 4036 3972 3918 3985 3969 4044 4021 3945 4066 3962 4021 3883 3947 4099 3959 3958 4017 4102 3987 3954 3932 4009 3960 3981 4039 4032 3971 3993 3930 3950 4011 3970 3957 3892 4040 3976 4124 3948 4005 4082 4054 4003 3939 3921 4080 4114 3855 3897 3983 3921 3962 3879 4082 4040 4092 3998 4069 3981 3957 3955 3936 4035 4062 3943 4125 3908 3990 3975 4022 4107 4036 3971 4071 4068 3945 3934 4004 4002 4045 4019 3925 4013 3995 4115 4017 4045 4013 4037 3905 3989 4038 4039 4054 3947 4027 3972 3986 3867 3831 4110 4026 3892 4104 4101 3978 3999 4013 4063 4144 3869 4044 3906 4017 3955 4008 4050 4050 3974 3846 4045 3999 3918 3972 4043 4101 4051 3954 3979 4058 3962 4020 3910 4060 3907 4078 3969 4034 3989 4083 3974 4001 3954 4003 4084 4003 4150 4102 4061 3994 3989 4092 4078 4079 3960 3948 4060 4135 3984 4087 4018 4050 3940 4089 4066 4119 4031 3948 4028 4071 4033 4042 4043 4148 3985 4139 3924 4116 3982 3968 3878 4047 4008 4001 3919 4029 3937 4060 4028 4029 4010 4023 3857 4033 3933 4038 3998 4053 4076 4057 3917 3939 4106 4118 4117 3969 3870 3995 3920 3919 3972 4083 3989 4043 4038 4059 4106 4002 4029 4098 4004 4099 4039 4053 3926 3955 4064 3994 4033 3980 3977 4008 3961 3984 3949 4122 4028 4024 3889 3990 3945 4049 4150 3937 3970 4124 3951 3916 3990 4033 3921 4050 4053 4085 4162 4012 3910 3973 3983 3980 3994 3981 4079 3985 4037 3967 3981 3950 3981 3960 4036 3982 3974 3998 3963 4015 3986 4011 3950 4007 3936 3994 4014 3945 4082 4039 4016 4051 3845 4112 3909 3924 4041 3998 3996 4087 3873 3943 4034 4171 4085 3893 3988 3983 3940 3859 3884 3899 4033 3978 3850 3900 4064 3939 3961 3945 3967 4039 3851 4011 3952 3981 4025 4081 3997 4051 4163 3996 4014 4049 4063 3912 4015 4044 4171 4088 4084 3934 3988 4055 4095 4071 4094 4184 4126 4150 3990 4172 4150 4032 4017 4150 4106 4110 4066 4159 4115 4129 4138 4170 3990 4090 4091 4086 4052 4124 4043 4055 4021 4098 4033 4158 3987 4061 4130 4045 4144 4188 4098 4144 4046 4117 4197 4172 4180 3984 3992 4022 3918 4074 4155 4215 4054 4046 4008 4083 4038 4059 4057 4159 4120 4043 4148 3969 4070 4096 4053 4005 4028 4065 4062 3944 4067 4099 4095 4000 3915 4107 4113 4089 4014 4042 4054 3979 4001 4013 3985 4048 4024 3943 4065 3993 4087 4109 3983 4060 4056 4070 4112 4091 3958 4015 4012 3987 3955 3937 4052 3935 4024 4054 4039 3918 4142 4108 3994 4062 4016 4050 4070 4160 4058 3963 3937 4049 3932 3910 3967 4012 3978 4020 4084 3884 3996 4069 4025 3988 3968 3994 4069 4013 3968 4088 4034 3904 4029 3997 4015 3892 3934 3949 4073 4003 4065 4016 3924 3934 3907 3957 4186 4085 4016 3974 3912 4016 3940 4064 4090 3971 4125 3985 4005 3988 3982 3981 3900 4030 3885 3945 3972 4085 4031 3963 3944 4024 3987 3961 4099 4137 4144 4047 3929 3955 4055 3966 4119 3969 4049 3953 3914 4039 4054 3905 4013 4061 4032 3980 3971 3912 3934 3964 4045 3919 3982 4012 4065 4008 3965 4031 4144 3987 3840 3967 4059 4127 4006 4000 3950 3983 4036 3962 3999 3985 4004 4123 3996 3985 3982 3933 3905 4030 3857 4075 3962 4033 4003 3987 3954 4119 3895 3997 4095 4027 3947 3865 4051 3981 3992 3891 3968 4052 3990 3960 3955 4024 3955 3978 4152 4020 3910 4045 4072 3979 4034 3898 4035 3879 4041 4016 4056 4043 4041 3968 4072 4088 4087 4062 4064 4054 4010 3961 4118 3981 3998 4002 4060 4114 4115 4147 4021 4146 4072 4076 4118 4067 4174 4099 4143 4277 4255 4244 4157 4169 4239 4214 4246 4191 4351 4264 4360 4359 4272 4149 4310 4241 4279 4226 4183 4410 4255 4227 4145 4246 4297 4159 4216 4183 4206 4220 4125 4354 4109 4194 4110 4223 4221 4223 4177 4124 3976 4053 4234 4038 4248 4159 4232 4086 4060 4119 4233 4065 4026 4085 4121 3943 4045 4147 4127 4050 4086 4082 4132 4033 4077 4178 4139 4201 4121 4221 4170 4240 4196 4211 4115 4151 4200 4129 4083 4177 4099 4205 4094 3983 4006 4078 4057 4087 4115 4153 4079 4033 4042 4069 4043 4094 4148 4127 4095 4116 4098 4044 4047 4126 3977 4013 4085 4002 4080 3920 4029 4011 4009 4021 4081 4026 4002 4018 3993 3944 3930 4035 3952 4037 4027 4143 3993 3922 3961 4079 4117 4054 3946 4087 3989 4082 4079 4059 4151 3968 4039 4093 4013 3959 4036 3862 4002 3971 3985 3983 4056 4048 3997 4015 4019 4038 4056 3967 4096 4028 3928 3915 4030 3907 3970 4045 4023 3983 4102 3943 3957 3921 3893 4026 3967 4062 4088 3968 3938 3922 4064 3876 3962 4017 4078 3874 4162 4112 3944 4000 4002 4008 4001 4023 3987 4049 4037 3981 4009 4014 4056 3890 3997 4038 3958 3990 4009 3955 4020 4048 3866 3919 3956 3991 3954 4006 4129 3969 4002 3980 3945 3911 3891 3928 3996 3971 4053 4066 3937 4056 4042 4028 3927 4007 4073 4029 4073 3923 3947 3999 3995 3896 3960 4049 3986 4093 4083 3929 3948 4073 4004 4072 4078 4093 4133 3951 3976 4004 4085 3967 3960 4116 4029 4124 3988 3937 3964 4091 4061 4160 4042 4015 4061 3951 4030 4034 4088 4074 4121 3998 3887 3897 4008 3957 4046 3989 3934 4106 4056 4070 4037 3976 4027 4089 4004 3967 4007 4083 4008 4051 3995 4109 4010 3983 4022 4106 4040 3990 3977 4053 4013 4053 4090 4029 4170 3983 3927 3964 3918 4012 4019 4019 4065 3989 3918 4016 3965 4033 4040 3981 3928 4052 3930 3977 3998 4048 3924 4009 4034 3964 3965 3915 3943 4011 3953 4012 3945 3994 3830 3963 3927 3908 4083 3986 3942 4019 4004 4012 4075 3902 4054 4064 4110 4008 4021 3922 4066 3984 4159 3996 4057 3969 3940 4097 4038 3995 4053 4123 4065 4033 4149 4043 3995 4033 4009 3978 3948 3998 4068 3914 4043 4088 3908 4014 4135 4060 4016 3937 4148 3958 3991 3938 4008 3980 3953 4053 3914 4069 3990 3989 4013 3982 4054 3908 4023 3952 4035 3895 4013 3919 3885 4005 3923 3831 4062 4089 3876 3976 4028 4057 3910 3984 3975 3986 3959 3898 4071 3938 4023 3923 4050 4030 3996 4018 4043 4043 3968 4032 4118 4097 3975 3979 3992 4050 3860 3871 4052 4079 3973 4035 3953 4031 3963 3994 4092 3992 4068 3898 3950 4136 4013 4044 4021 4078 4015 3950 3927 4063 3939 4042 3883 4007 3976 4051 3961 4092 3903 4024 3930 4184 4138 3946 4111 4120 4051 4104 4079 4082 3989 4041 4090 4056 4010 4083 4067 3942 4018 3985 3983 3952 3993 4111 3905 3975 4047 4092 3899 4015 4084 4035 4050 4003 4083 4085 3893 4065 3909 4001 3954 4097 3980 3943 3952 3979 4064 3905 4032 3956 3996 4024 4138 3973 4067 3999 4043 4008 4049 4024 4009 3977 4097 4029 4020 3965 3950 4036 4039 3988 3933 3968 3928 3964 3966 3952 4003 3952 4015 4108 3972 4022 3961 3883 4048 4003 4075 4037 4023 3938 3958 4003 4063 3989 3970 3976 3933 3972 4007 3954 4013 4043 4054 4090 3991 3940 4006 3972 3993 3971 4170 4038 4030 3919 4054 3945 3991 4125 3982 4097 4017 3975 4078 4062 4049 4077 3871 4076 3989 3928 4113 4004 4100 4060 4022 3983 3979 4112 4001 3914 3943 3954 4067 4011 4095 4075 3978 4006 4113 4153 3916 3946 3998 4053 3893 3953 4028 4030 4028 3962 4089 4059 3919 3986 3932 4049 3982 3998 4109 4092 3993 4071 4099 4027 4088 4034 4057 4031 4069 3970 3997 4127 4134 4037 4025 4002 4091 4179 4059 3993 4123 4108 4046 4102 4072 4094 4034 4026 4169 4178 4092 4202 4068 4034 4200 4075 4101 4055 4110 4122 4078 4139 4271 4116 4066 4042 4075 4134 4153 4120 4102 4005 3971 3909 4149 4193 4024 4221 4129 4070 4133 4118 4099 4152 4097 4150 4184 4071 4208 4275 4079 4198 4077 4029 4118 4105 4284 4084 4156 4083 4216 4256 4163 4262 4096 4156 4169 4196 4081 4187 4152 4230 4215 4070 4215 4055 4102 4238 4257 4176 4251 4131 4184 4043 4003 4108 4156 4324 4137 4137 4056 4134 3953 4146 4079 4043 4159 4199 4128 4183 4104 4108 4160 4124 4104 4100 4153 4197 4014 4076 4136 4006 4102 4029 4009 4118 4072 3983 4022 4020 4090 4035 3941 4073 4092 4021 4102 3923 4040 4058 4056 4120 4064 4010 3977 4024 4058 3964 4039 4019 4036 4086 4095 4046 4005 4000 4050 4015 4051 4091 4199 3940 4082 3957 4076 4211 3943 4034 4026 4095 3928 4120 4066 4154 4017 3889 3937 4011 4050 4031 3908 4046 4037 4031 4167 4011 4073 3909 3934 4008 4008 3999 4000 4086 4056 4012 4072 3999 4122 4105 4127 3977 3997 4067 4186 4097 4008 4000 4070 4051 3996 4166 3990 4013 4064 4024 3947 4060 4017 3921 4097 4061 4101 4040 4048 4019 4005 4028 4095 3959 4029 4000 3960 4046 4126 3978 4065 4008 4041 3969 4010 4004 3992 3978 3888 4159 3936 4071 4010 4047 4026 3958 3961 3985 4149 4073 4009 3986 4026 4088 4165 4136 4019 3947 4071 4080 3986 3980 4037 4147 3983 4038 4065 3977 4108 4081 4119 3962 4102 4074 4064 4047 4126 4045 4141 4155 4049 4170 4119 4247 4228 4146 4228 4329 4165 4168 4149 4154 4243 4313 4338 4306 4336 4409 4354 4422 4514 4441 4348 4452 4458 4466 4493 4441 4437 4468 4599 4432 4485 4494 4443 4381 4386 4370 4420 4408 4351 4403 4440 4303 4410 4409 4508 4384 4395 4433 4304 4440 4510 4335 4410 4428 4266 4372 4328 4264 4227 4379 4240 4211 4362 4299 4304 4378 4330 4227 4255 4310 4185 4290 4305 4308 4202 4266 4316 4115 4290 4179 4221 4271 4299 4340 4166 4268 4263 4255 4282 4194 4100 4203 4143 4161 4083 4186 4210 4128 4246 4146 4133 4123 4120 4190 4157 4043 4163 4300 4162 4124 4145 4144 4142 4164 4085 4187 4245 4097 4147 4100 4073 4140 4026 4131 4000 4165 4141 4170 4191 4278 4257 4051 4149 4113 4069 4106 4228 4162 4092 4081 4067 4280 4050 4111 3974 4106 4177 4193 4079 4133 4073 4105 4045 4047 4034 4180 4017 4053 4181 4133 4068 4084 4025 4071 4094 4101 4108 4059 3994 4130 3920 4143 4096 3947 4207 4068 3982 4065 4084 4062 4066 4096 4020 4054 4159 4185 4053 4142 3993 4107 4002 4106 4095 4092 4056 4047 4118 4049 4169 4143 4062 4136 4103 4023 4089 4038 4058 4021 4056 4054 4003 3940 4029 4126 4003 4233 3997 4030 4018 4081 4136 4095 4124 4222 4029 4111 3916 4106 4043 4136 4071 4071 4072 4167 4069 4017 4140 4265 4033 4238 4055 4051 4027 4079 4080 4073 4067 4080 4059 4138 4131 4088 3974 4187 4133 4166 4096 4160 4078 4069 4179 4145 4266 3988 4081 4058 4145 4092 4100 4020 4042 3963 4039 4212 4112 4064 4111 4133 4016 4058 3953 4117 4191 4146 4023 4044 4002 4036 4037 4081 4088 3992 4107 3991 4035 4008 4021 4083 4165 4053 3904 4136 4080 4112 4124 4021 4069 4027 3957 4166 4029 4076 4026 4037 4052 4061 4032 3977 4067 4016 4139 3999 4032 4039 4112 3940 4023 4107 4058 4108 4008 3990 4065 4150 4021 4063 4134 4029 4090 4029 3938 4005 4065 4071 4023 4133 4210 4001 4039 3933 3955 4075 3943 4132 4139 3922 4125 4064 4037 4109 3927 4007 3972 3928 3993 4128 4045 3921 4007 4029 4027 4080 4018 4167 4085 4086 4016 4046 4113 3952 4016 4001 3940 4082 3923 4117 4090 3954 3931 4026 4061 4090 4069 4069 4082 3994 4100 4012 4012 3952 4021 4142 4047 4073 4098 4011 4022 4027 4074 4022 4015 4007 3999 4015 3931 4018 4036 4042 3946 3980 4072 3999 4076 4156 3885 4038 3941 3981 3923 3915 4117 3963 3958 4071 3980 4036 4001 4060 4086 4084 4070 3907 4033 4100 3983 4039 3962 4052 4003 4136 3867 3908 4011 4011 3967 3981 3973 3869 4002 4050 4078 4001 4004 4192 4027 3978 4035 3963 4001 3954 4100 3964 4098 3952 3989 3940 4095 4067 4062 3906 4017 4050 3953 3998 4121 4061 3997 4038 4040 4044 4089 4112 4030 4053 4117 4031 3970 4073 4072 4145 4023 4093 4086 4022 4108 4065 3975 4032 4022 4036 3992 4183 3955 4029 4029 3999 3976 4010 4155 3992 3996 4059 4079 4031 4019 3857 4031 3967 4063 4025 3939 4022 3990 4028 4039 3950 3941 3974 4047 4076 4014 4079 3958 3905 4130 3963 4027 4053 4022 4084 3898 3963 4019 4147 4012 4060 4014 4001 4027 3999 4055 3982 4129 4109 4022 3996 4110 4111 3883 3965 4016 4123 4154 4028 3956 4045 4034 4081 4032 4063 4040 3981 4085 3982 3975 4140 3972 4125 3945 4008 4069 3970 4029 4033 3968 3925 3994 4036 3987 4029 4193 3857 4048 4049 4069 4027 4070 3973 4107 3898 4021 4131 4045 4063 4052 4004 3939 4030 4033 4034 4107 4069 4081 4012 4009 3967 4121 4091 3935 4049 4183 4019 4039 4048 4065 4122 4083 3921 3975 3999 3951 4029 4249 3984 4119 4035 3950 4017 3973 4046 4082 4096 4085 4039 4052 4031 4092 4081 4008 4052 4108 4115 4028 3940 4122 4287 4047 4095 4007 4020 4140 4108 4130 4064 4091 4067 4206 4145 4115 4090 4206 3956 4048 4102 4101 4055 3979 4110 4155 4030 4147 3984 4079 4101 4052 4196 4156 4143 4207 4048 4100 4008 4182 3945 4087 4002 4054 4172 4138 3990 3994 3947 3972 4011 4060 4097 4024 4235 4032 4099 4166 4131 4055 4075 4131 4021 4110 4112 4139 4070 4066 4160 4028 4025 3912 4040 4100 4021 4100 4124 4152 4019 4104 4129 3969 4073 4075 3968 3965 4076 4101 4060 3929 4132 4085 3961 4028 3965 4117 4181 4014 4024 4006 3908 4146 4031 4007 4048 3998 4034 4083 4059 4061 4126 3982 4047 4030 4003 4146 4092 3938 4133 4011 4024 3996 3999 4116 4054 4026 4091 4037 4039 4023 3987 4149 4068 4023 4037 4025 4084 4042 4193 4053 4186 4004 3988 4177 4152 4087 4158 4139 4155 4082 4030 4095 4062 4027 4022 4039 4062 4082 4036 4129 4032 4073 4062 4056 4011 4121 4126 4035 4064 3964 4050 4037 4129 4041 4239 4052 4094 4014 4069 4043 4008 3885 4116 3901 4024 3961 3990 3994 4074 3995 4070 4090 4054 3980 3969 4056 4054 3958 3981 4051 4016 4024 4070 4039 4046 4043 4061 3997 4040 3994 4114 4148 4034 3965 4023 4113 3978 4057 3961 4115 3975 4017 3945 4020 4050 4078 4081 3983 3994 4131 3976 4025 4043 4034 4075 3947 4122 4032 3918 4126 4071 4218 3974 4085 4064 4138 3968 4102 4134 4059 4081 4257 3966 4041 4052 4118 4112 4007 3973 4100 4005 4086 3970 3986 4108 4145 4068 4122 3999 4092 4076 3892 4038 4125 4059 4107 4096 4161 4236 4126 4143 4167 3988 4231 4106 4088 4002 4128 4172 4057 4141 4182 4276 4234 4263 4191 4215 4246 4317 4270 4259 4298 4236 4378 4219 4309 4384 4347 4468 4351 4270 4306 4480 4380 4272 4343 4434 4318 4228 4322 4323 4417 4238 4343 4235 4266 4167 4279 4383 4408 4307 4451 4325 4418 4331 4415 4328 4297 4285 4383 4327 4291 4387 4225 4369 4326 4304 4287 4219 4252 4206 4274 4178 4188 4172 4333 4110 4171 4148 4184 4117 4145 4025 4137 4136 4065 4053 4067 4307 4072 4133 4139 4015 4101 4053 4107 4115 4131 4157 4189 4142 4072 4169 4032 4007 4196 4193 4094 4115 4041 4101 4086 4179 4031 4028 4007 4188 4190 4121 4176 4112 4090 4076 4098 4087 4118 4112 4130 4085 4131 4233 4204 4017 4155 4264 4142 4208 4151 4149 4202 4193 4096 4011 4102 4095 4171 4112 4122 4028 4152 4233 4165 4164 4215 4110 4032 4121 4066 4087 4130 3935 4167 4241 4077 4085 4076 4255 4131 4070 4050 4229 4117 4078 4073 4072 4050 4204 4099 4181 4090 4099 4133 4054 4178 4116 4140 4014 3987 4040 4061 4232 4082 4000 4154 4081 4030 4088 4076 4221 4022 4023 4075 3924 4028 4146 4118 4062 3929 4194 4205 4119 4078 4177 4039 4071 4138 4067 4114 3922 4036 4081 3988 4067 4119 4082 4100 4072 4100 4002 3964 3969 4061 4104 4151 3994 4031 4026 4087 4012 3984 4091 4031 4074 4089 4055 4056 4161 4088 4039 4113 4004 4060 4013 3966 4086 4070 4066 4059 3928 3961 4036 4124 4060 4131 3970 4097 4095 4125 4070 4061 4085 4083 4107 4107 4043 4124 4011 4039 4014 3979 4176 4096 4084 3996 4107 4176 4022 4072 4056 3978 4086 4166 3996 4078 4077 4161 4018 4149 4104 4034 3973 4056 4099 4117 4105 4052 4126 4038 4024 4123 4038 4121 4115 4101 3996 4053 4124 4095 4079 4055 4060 3963 4079 4109 4181 4052 4091 4180 4042 4086 4120 4085 4016 4063 4264 4091 4005 4021 4109 4032 4045 4030 4046 4083 4079 4019 4052 4062 4080 4131 4004 4012 4177 4081 4063 4026 4011 4121 4244 4118 4092 4086 3932 3960 4149 3958 4020 4036 4043 3981 4058 4015 3997 4151 4128 3954 4015 4045 3938 4051 4054 4029 4083 4062 4014 4097 4105 4088 3956 4068 4086 3983 4053 4056 4086 4022 4175 4114 4005 3968 4242 4096 4095 3973 4004 4047 4141 4029 4056 4133 4023 4087 4133 4033 3974 3927 4066 4024 4036 4026 3985 4127 4020 3982 4109 3950 3935 4066 4045 4062 3963 4105 3986 4086 4072 4041 4052 4065 4047 4044 4048 3968 4064 3966 4050 4061 4112 4022 4015 4184 4037 4109 4090 4073 3951 4042 4227 4022 4012 4046 4003 4009 3975 4035 4021 4080 4092 3979 4057 3972 4054 4115 4167 3966 3936 3986 4116 4059 3988 4028 4041 3983 3875 4018 3944 3982 3985 4137 4102 4027 4128 4031 4043 4085 4048 4072 3975 4070 3975 4180 4081 3899 4083 4001 4045 3979 4035 4100 4004 4130 3975 4121 4008 4028 4069 3984 3967 4023 4051 3955 3945 4052</counts>
			</dataPoints>
		</scan>
	</xrdMeasurement>
</xrdMeasurements>
