<?xml version="1.0"?>
<xrdMeasurements xmlns="http://www.xrdml.com/XRDMeasurement/2.3" xmlns:xsi="http://www.w3.org/2001/XMLSchema-instance" xsi:schemaLocation="http://www.xrdml.com/XRDMeasurement/2.3 http://www.xrdml.com/XRDMeasurement/2.3/XRDMeasurement.xsd" status="Completed" recordIdentifier="{FD78D1CE-E2AA-4A97-BDB9-5DD33D874A77}">
	<comment>
		<entry/>
	</comment>
	<sample type="To be analyzed">
		<id>GPSS_Li2Fe0p8Ni0p2Cl4_081225_689c052571f8245643114704</id>
		<name></name>
		<preparedBy></preparedBy>
	</sample>
	<xrdMeasurement measurementType="Scan" status="Completed" sampleMode="Reflection">
		<usedWavelength intended="K-Alpha 1">
			<kAlpha1 unit="Angstrom">1.5405980</kAlpha1>
			<kAlpha2 unit="Angstrom">1.5444260</kAlpha2>
			<kBeta unit="Angstrom">1.3922500</kBeta>
			<ratioKAlpha2KAlpha1>0.5000</ratioKAlpha2KAlpha1>
		</usedWavelength>
		<incidentBeamPath>
			<radius unit="mm">145.00</radius>
			<xRayTube id="1010048" name="Empyrean Cu LFF HR (9430 033 7310x)">
				<tension unit="kV">40.0</tension>
				<current unit="mA">15.0</current>
				<anodeMaterial>Cu</anodeMaterial>
				<focus type="Line">
					<length unit="mm">12.0</length>
					<width unit="mm">0.4</width>
					<takeOffAngle unit="deg">6.0</takeOffAngle>
				</focus>
			</xRayTube>
			<sollerSlit id="21010002" name="Soller slits 0.04 rad.">
				<opening unit="rad">0.0400</opening>
			</sollerSlit>
			<mask id="22031000" name="Fixed mask 13 mm">
				<width unit="mm">9.00</width>
			</mask>
			<divergenceSlit id="22120001" name="Divergence slit 1°" xsi:type="fixedDivergenceSlitType">
				<distanceToSample unit="mm">50.00</distanceToSample>
				<height unit="mm">1.52</height>
			</divergenceSlit>
		</incidentBeamPath>
		<sampleMovement xsi:type="spinningSampleMovementType">
			<spinnerRevolutionTime unit="seconds">1.0</spinnerRevolutionTime>
		</sampleMovement>
		<diffractedBeamPath>
			<radius unit="mm">145.00</radius>
			<antiScatterSlit id="22090040" name="AS slit 9 mm (PIXcel)" xsi:type="fixedAntiScatterSlitType">
				<height unit="mm">9.00</height>
			</antiScatterSlit>
			<sollerSlit id="21020003" name="Large Soller slits 0.04 rad.">
				<opening unit="rad">0.0400</opening>
			</sollerSlit>
			<filter id="20030001" name="Large beta-filter Nickel">
				<material>Ni</material>
				<thickness unit="mm">0.020</thickness>
			</filter>
			<detector id="7010019" name="PIXcel1D-Medipix3 detector" xsi:type="rtmsDetectorType">
				<phd unit="keV">
					<lowerLevel>4.02</lowerLevel>
					<upperLevel>11.27</upperLevel>
				</phd>
				<mode>Scanning</mode>
				<activeLength unit="deg">5.542</activeLength>
			</detector>
		</diffractedBeamPath>
		<scan appendNumber="0" mode="Continuous" scanAxis="Gonio" status="Completed">
			<header>
				<startTimeStamp>2025-08-14T18:39:53-07:00</startTimeStamp>
				<endTimeStamp>2025-08-14T18:48:00-07:00</endTimeStamp>
				<author>
					<name>AutomatedUser</name>
				</author>
				<source>
					<applicationSoftware version="1.7b (136)">PANalytical Aeris Instrument Suite</applicationSoftware>
					<instrumentControlSoftware version="3.2.00000000 20240306">AERIS</instrumentControlSoftware>
					<instrumentID>950485</instrumentID>
				</source>
			</header>
			<dataPoints>
				<positions axis="2Theta" unit="deg">
					<startPosition>10.00943322</startPosition>
					<endPosition>99.99442286</endPosition>
				</positions>
				<positions axis="Omega" unit="deg">
					<startPosition>5.00471661</startPosition>
					<endPosition>49.99721143</endPosition>
				</positions>
				<commonCountingTime unit="seconds">12.495</commonCountingTime>
				<counts unit="counts">3062 3073 3042 3054 3230 3128 3105 3157 3059 2981 3064 3085 3029 3153 3120 3061 3060 3200 3038 3014 3088 3123 3108 3143 3063 3092 3045 3106 3095 3139 3146 3099 3031 3016 3010 3093 3081 3076 3020 3041 3017 3152 3028 2999 3117 3038 3035 3056 3155 2921 3150 3070 3107 3001 3104 3022 3167 3000 3056 3133 3077 3171 3066 3102 3128 3109 3081 3110 3131 3183 3022 3105 3003 3073 3125 3076 3146 2940 3043 3017 3053 3000 3200 3149 3125 3051 3078 3097 3243 3086 3064 3091 3094 3108 3066 3040 3111 3087 3136 3042 3059 3026 3022 3097 2971 3147 3042 3157 3129 3004 3019 3154 3190 2995 3093 3006 3064 3041 3144 3135 3113 3080 3118 3026 3009 3107 3086 3075 3120 3043 3155 3100 3061 3117 3052 3060 3022 3081 3049 2981 3062 3123 3057 2980 3040 3079 3032 3039 3043 3080 3042 3062 3162 3083 3069 3082 3089 3092 3033 3049 3029 3109 3069 3115 3036 3133 3090 3005 3121 2951 3121 3046 2935 3086 2982 3036 3053 3021 3081 3088 3171 3057 3033 3114 3043 3024 3121 3108 3061 3001 3081 2959 3160 3030 2889 3093 3103 3106 3066 3092 2999 3044 3090 3022 3145 2994 3082 3111 3122 3105 3115 3093 3154 3185 3054 3082 3068 3205 3118 3101 3110 3144 3120 3140 3051 3064 3045 3068 3102 3096 3067 3071 3134 3134 3112 3145 3057 3086 3139 3040 3202 2997 3197 3137 3087 3186 3106 3076 3132 3153 3274 3115 3174 3144 3155 3121 3197 3134 3103 3109 3137 3154 3299 3129 3085 3021 3086 3130 3085 3177 3139 2969 3170 3096 3040 3126 3066 3076 3180 3103 3195 3135 3039 3039 3009 3109 3138 3157 3047 3056 3048 3128 3084 3266 3104 3140 3138 3144 3097 3220 3099 3180 3180 3230 3245 3139 3151 3134 3171 3219 3212 3169 3181 3170 3210 3203 3180 3095 3116 3223 3096 3171 3147 3246 3173 3317 3145 3146 3092 3150 3171 3152 3259 3139 3300 3175 3243 3236 3294 3259 3182 3228 3157 3230 3132 3204 3120 3145 3260 3184 3137 3203 3236 3342 3209 3198 3230 3211 3271 3335 3235 3236 3247 3323 3242 3266 3184 3264 3250 3402 3166 3218 3349 3325 3239 3321 3347 3315 3296 3328 3177 3256 3344 3265 3447 3367 3296 3394 3533 3403 3389 3385 3441 3440 3421 3373 3518 3363 3461 3435 3423 3448 3391 3489 3408 3414 3408 3443 3406 3541 3460 3491 3441 3508 3525 3459 3479 3597 3573 3607 3619 3521 3588 3639 3646 3614 3568 3741 3661 3577 3649 3676 3699 3826 3802 3828 3867 4122 3982 4076 4016 4061 4297 4278 4395 4363 4433 4391 4565 4613 4750 4687 4778 4837 4849 5044 5062 5012 5131 5258 5135 5043 5060 5027 5153 5269 5179 5340 5407 5461 5388 5601 5488 5574 5710 5752 5773 6084 6051 6148 6099 6267 6284 6369 6465 6469 6533 6497 6470 6533 6460 6389 6471 6343 6303 6294 6355 6273 6312 6193 6197 6098 6046 5965 5930 5801 5748 5423 5462 5227 5290 5176 5072 5091 4961 4852 4887 4747 4816 4634 4738 4435 4493 4453 4430 4427 4339 4305 4377 4383 4380 4302 4188 4238 4269 4264 4233 4252 4235 4198 4231 4229 4207 4156 4099 4093 4110 3989 4017 4006 4151 4031 4078 4064 4076 4049 3867 4022 3970 3901 3944 3891 3963 3939 4012 3809 3947 3973 3893 3846 3846 3881 3901 3831 3762 4031 3876 3793 3820 3835 3828 3845 3770 3806 3853 3725 3833 3807 3798 3836 3699 3719 3896 3755 3805 3730 3772 3727 3732 3679 3879 3758 3746 3882 3824 3647 3696 3723 3764 3693 3809 3894 3772 3687 3763 3690 3735 3871 3736 3789 3726 3591 3615 3779 3640 3682 3742 3654 3866 3762 3701 3767 3702 3675 3684 3663 3676 3736 3813 3706 3707 3588 3726 3660 3719 3828 3716 3788 3698 3630 3641 3550 3725 3724 3715 3694 3705 3669 3792 3758 3665 3834 3905 3769 3784 3767 3784 3778 3892 3784 3779 3779 3854 3914 3867 3988 3934 3861 3876 3903 3825 3909 3910 3906 3856 3811 3860 3812 3696 3796 3769 3741 3918 3767 3761 3656 3755 3774 3793 3743 3765 3745 3754 3742 3752 3665 3651 3711 3779 3687 3742 3716 3790 3666 3838 3614 3787 3641 3649 3640 3728 3613 3608 3792 3645 3736 3640 3638 3707 3799 3599 3682 3537 3572 3685 3719 3691 3786 3706 3631 3687 3764 3817 3607 3622 3651 3651 3710 3648 3659 3682 3641 3671 3635 3650 3659 3723 3624 3761 3639 3628 3637 3716 3670 3538 3743 3664 3606 3671 3659 3598 3700 3635 3596 3650 3733 3588 3663 3681 3636 3696 3623 3640 3582 3700 3702 3675 3532 3691 3498 3682 3676 3632 3654 3619 3624 3772 3618 3696 3597 3637 3665 3768 3693 3740 3666 3534 3668 3646 3704 3664 3630 3639 3595 3652 3573 3686 3574 3726 3658 3592 3626 3647 3708 3637 3651 3722 3573 3525 3645 3654 3688 3612 3512 3622 3651 3626 3594 3623 3621 3591 3570 3639 3683 3729 3649 3689 3605 3627 3570 3633 3600 3720 3632 3709 3717 3579 3640 3677 3633 3640 3636 3570 3689 3507 3671 3653 3576 3580 3561 3690 3632 3764 3576 3678 3579 3579 3733 3616 3567 3622 3654 3620 3587 3665 3541 3639 3722 3631 3592 3602 3593 3624 3735 3548 3565 3613 3581 3556 3548 3715 3600 3646 3671 3641 3561 3517 3618 3676 3658 3524 3457 3584 3595 3622 3658 3523 3514 3470 3552 3578 3529 3642 3678 3490 3609 3745 3625 3525 3619 3482 3509 3635 3567 3492 3531 3592 3523 3524 3460 3656 3476 3579 3599 3544 3515 3678 3547 3580 3569 3477 3542 3563 3483 3638 3553 3490 3421 3580 3580 3538 3585 3453 3543 3536 3566 3451 3567 3392 3497 3502 3674 3589 3575 3499 3530 3529 3572 3548 3472 3540 3556 3571 3524 3662 3499 3506 3447 3577 3460 3499 3574 3415 3546 3567 3517 3506 3528 3375 3405 3527 3435 3554 3472 3536 3569 3424 3378 3427 3478 3378 3470 3451 3556 3515 3502 3469 3499 3388 3511 3525 3510 3473 3399 3507 3395 3479 3406 3447 3408 3356 3475 3542 3387 3472 3421 3374 3352 3378 3447 3469 3492 3465 3453 3515 3423 3390 3477 3417 3520 3412 3415 3467 3341 3451 3410 3448 3488 3372 3442 3408 3413 3493 3508 3568 3451 3365 3450 3425 3409 3495 3518 3396 3543 3393 3495 3431 3463 3474 3549 3456 3424 3335 3459 3601 3526 3412 3471 3392 3420 3600 3476 3411 3505 3517 3594 3483 3423 3474 3387 3484 3486 3539 3598 3538 3430 3501 3516 3477 3454 3422 3478 3462 3600 3469 3491 3516 3447 3398 3566 3507 3483 3449 3474 3465 3399 3431 3547 3516 3480 3535 3403 3547 3503 3428 3439 3523 3517 3431 3427 3514 3469 3510 3587 3525 3437 3395 3380 3546 3469 3431 3577 3414 3523 3463 3477 3402 3601 3421 3469 3446 3591 3518 3391 3444 3585 3519 3526 3444 3464 3387 3397 3411 3468 3535 3420 3440 3500 3461 3381 3509 3517 3411 3401 3435 3475 3506 3414 3522 3399 3466 3418 3419 3452 3449 3397 3431 3474 3370 3541 3390 3433 3342 3368 3317 3407 3312 3394 3368 3489 3405 3409 3517 3492 3370 3417 3419 3426 3276 3431 3374 3310 3354 3411 3358 3328 3353 3371 3345 3385 3408 3399 3344 3384 3388 3398 3317 3201 3298 3281 3415 3285 3424 3348 3323 3394 3301 3276 3332 3350 3376 3355 3243 3400 3507 3355 3335 3266 3297 3380 3307 3394 3367 3279 3312 3236 3329 3281 3322 3255 3253 3165 3325 3250 3225 3255 3271 3213 3233 3294 3272 3218 3200 3316 3285 3255 3256 3217 3226 3231 3137 3193 3224 3300 3178 3259 3344 3176 3237 3352 3188 3281 3186 3168 3181 3263 3236 3284 3374 3195 3201 3327 3280 3154 3186 3136 3060 3274 3240 3182 3151 3266 3165 3249 3244 3098 3278 3206 3275 3298 3219 3284 3174 3316 3321 3229 3300 3230 3326 3283 3322 3332 3370 3365 3361 3320 3315 3299 3218 3307 3300 3331 3317 3232 3284 3309 3245 3129 3206 3297 3302 3194 3163 3250 3133 3207 3291 3176 3100 3334 3118 3295 3166 3310 3196 3224 3053 3202 3206 3225 3281 3101 3241 3292 3149 3181 3157 3218 3067 3129 3149 3160 3118 3237 3090 3150 3155 3171 3162 3200 3258 3128 3252 3137 3181 3200 3162 3067 3150 3148 3084 3185 3152 3158 3162 3072 3154 3115 3114 3232 3080 3196 3184 3133 3111 3170 3036 3099 3093 3114 3159 3150 3185 3215 3091 3066 3072 3182 3195 3165 3118 3195 3207 3049 3181 3168 3094 3046 3080 3092 3156 3102 3148 3152 3109 3102 3159 3101 3140 3180 3142 3154 3164 3213 3154 3157 3082 3086 3160 3127 3087 3078 3165 3176 3127 3085 3144 3157 3037 3143 3095 3229 3146 3092 3105 3051 3026 3032 3115 3141 3144 3178 2992 3140 3102 3111 3158 3134 3118 3173 3108 3168 3219 3129 3220 3125 3152 3195 3190 3073 3185 3105 2983 3229 3127 3103 3048 3073 3154 3213 3259 3147 3071 3142 3224 3194 3108 3096 3076 3161 3152 3103 3249 3119 3129 3193 3101 3165 3266 3124 3126 3146 3061 3131 3214 3169 3103 3287 3180 3257 3245 3051 3158 3223 3176 3126 3112 3134 3181 3176 3136 3150 3104 3156 3135 3146 3121 3139 3179 3177 3228 3101 3099 3106 3231 3117 3067 3093 3129 3177 3067 3151 3012 3076 3180 3149 3123 3161 3090 3139 3142 3044 3166 3021 3049 3108 3099 3011 3100 3134 3175 3186 2988 3108 3088 3086 3083 3073 3128 3119 3044 3076 3038 3092 3056 3089 3093 2981 3072 3048 3070 3147 3152 3233 3060 3122 3058 3083 3042 3051 3022 3052 3039 3024 3086 3083 2993 3065 3071 3069 3089 3051 3018 3078 2999 2993 2965 2981 2990 2974 3084 3073 2924 3001 2993 2982 3049 3036 2967 2935 3035 2937 3094 2927 2977 2950 2957 3060 3065 3033 2951 2998 3008 2990 3020 3037 2889 2970 3017 3041 3014 2974 2936 2931 2974 3009 3043 2958 2955 2988 2931 3032 2961 2955 2948 2975 2948 3025 2912 3031 3000 2958 2966 3030 2883 3014 3037 2921 3164 3176 3163 3192 3182 3189 3213 3185 3177 3244 3279 3393 3296 3367 3407 3356 3376 3360 3345 3476 3356 3390 3275 3432 3419 3392 3267 3401 3448 3326 3347 3420 3297 3379 3295 3306 3207 3288 3278 3249 3254 3263 3133 3233 3258 3299 3251 3275 3188 3150 3196 3143 3291 3179 3249 3195 3170 3183 3144 3185 3125 3110 3136 3139 3155 3130 3187 3204 3096 3120 3139 3119 3080 3026 3059 3112 3018 2979 3027 3011 2920 3095 3098 3155 2971 3041 3034 2969 2949 2942 3037 2956 2979 3051 3039 3147 3034 2962 3003 3082 3002 2995 2992 3106 2938 3049 3081 2944 2964 3133 3054 2915 3153 3130 3034 3143 3117 3166 3209 3240 3251 3186 3334 3321 3298 3279 3507 3558 3500 3552 3654 3585 3609 3718 3751 3930 3865 3924 3911 4039 4079 4245 4181 4282 4358 4490 4541 4654 4742 4811 4611 4585 4571 4570 4520 4432 4483 4406 4351 4207 4070 4096 4017 4043 4039 4064 3902 3976 3758 3766 3796 3489 3626 3370 3426 3288 3246 3251 3130 3063 3112 3152 3240 3055 3099 3032 3079 2923 2966 3015 3024 3074 2907 2992 2999 3050 2937 2956 2892 3021 2942 2935 2955 3042 3036 2897 2990 2875 2970 2865 2841 2930 2870 2948 3025 2930 2886 2926 2887 3064 2983 3010 2848 2926 2925 2917 2842 2824 2844 2815 2876 2835 2881 2872 2886 2769 2757 2872 2806 2772 2768 2804 2794 2865 2870 2849 2848 2773 2806 2816 2907 2941 2858 2898 2950 2809 2845 2895 2792 2774 2853 2863 2835 2950 2814 2799 2867 2775 2949 2888 2760 2880 2780 2906 2797 2938 2812 2823 2796 2852 2791 2799 2767 2903 2832 2783 2769 2828 2778 2759 2786 2761 2712 2805 2806 2789 2794 2760 2743 2764 2881 2788 2666 2759 2711 2736 2642 2793 2860 2823 2723 2827 2816 2753 2796 2831 2981 2778 2838 2833 2814 2833 2781 2861 2752 2943 2819 2878 2686 2774 2746 2753 2737 2831 2859 2590 2718 2745 2830 2707 2768 2898 2837 2756 2760 2806 2712 2792 2757 2725 2728 2741 2673 2701 2772 2787 2828 2676 2805 2744 2777 2913 2725 2904 2754 2853 2782 2806 2715 2809 2679 2626 2805 2706 2778 2864 2863 2841 2690 2727 2772 2808 2838 2797 2692 2830 2832 2759 2680 2847 2728 2798 2740 2748 2721 2671 2699 2824 2752 2744 2850 2790 2859 2724 2818 2836 2695 2814 2775 2710 2764 2746 2831 2841 2765 2810 2847 2781 2882 2711 2728 2831 2739 2816 2821 2846 2765 2978 2748 2784 2827 2740 2726 2755 2923 2870 2754 2757 2792 2768 2904 2830 2755 2794 2786 2825 2814 2752 2851 2875 2773 2786 2787 2754 2769 2805 2787 2695 2925 2854 2836 2774 2753 2718 2711 2791 2734 2817 2756 2812 2795 2820 2921 2807 2888 2786 2752 2799 2812 2781 2803 2757 2799 2818 2744 2720 2783 2861 2678 2738 2857 2802 2813 2794 2837 2765 2753 2739 2750 2721 2840 2792 2918 2887 2833 2735 2830 2870 2855 2796 2945 2848 2741 2789 2785 2715 2852 2776 2893 2796 2861 2805 2809 2796 2786 2729 2880 2782 2810 2840 2902 2885 2844 2856 2898 3007 2819 2832 2785 2901 2951 2928 2985 2998 2993 3014 3054 3178 3081 3117 3206 3401 3322 3534 3583 3624 3719 3833 3984 4207 4250 4450 4549 4739 4825 4983 4913 5037 5118 5119 5390 5371 5387 5537 5596 5536 5738 5841 6014 6058 6362 6604 6825 6950 7267 7571 7732 8037 8352 8220 8263 8448 8259 8037 7952 7817 7583 7374 7060 7016 6806 6737 6524 6302 6151 5952 5906 5663 5647 5322 5263 5097 5082 4910 4698 4543 4487 4278 4236 3982 3941 3936 3824 3605 3645 3652 3543 3487 3565 3606 3463 3472 3396 3394 3500 3391 3302 3405 3413 3432 3246 3283 3402 3283 3396 3366 3316 3224 3160 3129 3182 3257 3342 3137 3120 3134 3128 3191 3112 3086 2989 3037 3090 2996 3146 3078 3002 2898 2984 2918 2915 2967 2985 2963 2833 2879 2898 2792 2932 2919 2879 2939 2865 2829 2895 2935 2915 2905 2800 2873 2793 2800 2725 2786 2793 2759 2751 2817 2777 2849 2852 2799 2803 2815 2808 2814 2750 2844 2810 2793 2813 2761 2803 2775 2809 2752 2747 2805 2842 2731 2885 2776 2728 2770 2770 2770 2873 2792 2744 2664 2805 2713 2824 2776 2861 2723 2694 2756 2754 2891 2711 2842 2831 2793 2867 2756 2663 2655 2726 2727 2758 2728 2705 2587 2748 2761 2723 2718 2701 2762 2774 2624 2730 2623 2707 2605 2641 2601 2740 2671 2671 2714 2531 2672 2676 2665 2640 2682 2608 2680 2576 2774 2684 2659 2653 2635 2588 2600 2613 2524 2702 2689 2734 2715 2648 2653 2706 2664 2681 2624 2506 2610 2650 2598 2569 2635 2685 2690 2728 2610 2634 2596 2663 2463 2587 2579 2588 2661 2621 2673 2536 2677 2618 2550 2623 2610 2658 2690 2648 2548 2659 2650 2700 2626 2699 2544 2527 2712 2716 2623 2599 2589 2741 2569 2636 2584 2597 2656 2581 2661 2567 2648 2614 2672 2572 2608 2551 2645 2697 2615 2536 2572 2677 2672 2672 2656 2607 2708 2544 2635 2543 2521 2725 2666 2672 2566 2604 2692 2698 2735 2559 2616 2714 2708 2640 2584 2568 2645 2700 2651 2701 2588 2655 2633 2696 2623 2723 2599 2563 2603 2597 2683 2636 2547 2641 2689 2558 2724 2650 2623 2594 2617 2675 2571 2486 2620 2586 2580 2594 2602 2614 2503 2630 2532 2644 2602 2558 2611 2616 2642 2482 2564 2597 2588 2587 2569 2561 2529 2584 2614 2598 2536 2583 2643 2545 2542 2614 2562 2497 2615 2623 2526 2512 2606 2478 2499 2529 2565 2615 2591 2547 2535 2560 2539 2536 2508 2512 2597 2545 2627 2461 2539 2566 2526 2684 2564 2595 2609 2570 2629 2552 2592 2568 2648 2598 2516 2499 2550 2492 2585 2572 2565 2526 2552 2613 2575 2545 2555 2639 2557 2501 2496 2598 2539 2573 2503 2525 2523 2513 2506 2512 2399 2542 2470 2462 2434 2491 2483 2438 2489 2497 2444 2453 2427 2423 2507 2547 2524 2441 2475 2390 2441 2492 2491 2497 2373 2359 2454 2491 2471 2454 2417 2502 2462 2472 2411 2413 2550 2443 2420 2349 2469 2430 2411 2462 2427 2475 2472 2484 2393 2501 2405 2421 2447 2373 2421 2466 2429 2429 2388 2427 2452 2423 2466 2375 2395 2487 2428 2491 2530 2394 2442 2412 2414 2465 2389 2323 2400 2425 2479 2444 2414 2448 2365 2350 2470 2396 2441 2487 2422 2437 2467 2420 2393 2438 2409 2481 2392 2396 2345 2382 2504 2453 2470 2356 2392 2469 2437 2386 2340 2446 2351 2441 2531 2422 2400 2353 2329 2435 2404 2404 2427 2363 2442 2438 2361 2383 2457 2372 2480 2415 2468 2369 2429 2397 2408 2333 2361 2383 2421 2456 2329 2392 2396 2357 2411 2440 2329 2426 2430 2430 2500 2465 2421 2339 2404 2383 2429 2413 2365 2385 2414 2397 2385 2404 2367 2320 2321 2379 2299 2434 2305 2406 2383 2429 2345 2402 2376 2353 2318 2328 2356 2457 2339 2303 2330 2331 2334 2303 2374 2317 2369 2369 2440 2420 2432 2325 2461 2421 2396 2322 2364 2369 2378 2375 2342 2327 2251 2327 2367 2337 2361 2386 2362 2332 2354 2353 2389 2475 2349 2390 2462 2269 2468 2290 2382 2338 2368 2335 2254 2347 2403 2478 2418 2419 2348 2326 2319 2405 2364 2280 2388 2471 2362 2478 2361 2348 2422 2373 2389 2363 2394 2348 2460 2409 2331 2442 2278 2436 2366 2319 2350 2338 2388 2310 2320 2346 2455 2352 2408 2387 2345 2328 2392 2334 2429 2380 2346 2358 2422 2397 2344 2248 2295 2356 2346 2336 2270 2361 2308 2377 2377 2365 2359 2455 2369 2358 2401 2284 2389 2378 2332 2431 2458 2410 2315 2397 2285 2444 2297 2356 2355 2411 2372 2420 2279 2391 2327 2384 2444 2408 2405 2297 2498 2413 2469 2435 2489 2337 2436 2462 2495 2476 2448 2401 2430 2366 2511 2439 2415 2427 2361 2411 2427 2401 2466 2416 2424 2376 2399 2368 2346 2416 2458 2350 2316 2362 2325 2418 2417 2384 2401 2397 2455 2354 2338 2363 2415 2351 2363 2340 2359 2330 2303 2267 2280 2364 2383 2281 2281 2404 2355 2375 2343 2332 2375 2439 2339 2341 2352 2369 2376 2314 2339 2377 2379 2387 2314 2256 2353 2339 2347 2341 2373 2344 2457 2374 2350 2370 2387 2347 2426 2428 2318 2250 2365 2346 2354 2384 2382 2398 2366 2415 2342 2379 2328 2324 2388 2324 2337 2422 2394 2447 2395 2338 2375 2326 2279 2415 2384 2392 2368 2391 2359 2430 2371 2387 2267 2459 2410 2384 2410 2349 2388 2462 2410 2369 2398 2430 2375 2403 2402 2363 2403 2400 2421 2346 2363 2386 2412 2355 2466 2404 2498 2394 2330 2407 2438 2366 2424 2432 2352 2348 2329 2406 2378 2346 2393 2315 2445 2273 2384 2329 2432 2469 2301 2394 2363 2402 2463 2391 2364 2325 2387 2341 2388 2398 2398 2331 2412 2355 2433 2411 2467 2410 2265 2310 2315 2343 2421 2464 2362 2496 2362 2341 2410 2359 2410 2393 2474 2457 2406 2397 2455 2508 2375 2414 2409 2429 2390 2462 2462 2402 2462 2511 2500 2478 2504 2575 2610 2660 2679 2564 2627 2680 2570 2667 2660 2602 2653 2693 2633 2577 2605 2649 2693 2622 2607 2649 2727 2580 2693 2619 2606 2597 2551 2627 2729 2632 2651 2730 2671 2599 2618 2660 2701 2689 2709 2562 2649 2640 2619 2621 2671 2593 2734 2613 2680 2609 2557 2584 2578 2528 2453 2525 2546 2517 2600 2422 2507 2527 2358 2587 2430 2411 2466 2399 2361 2427 2420 2401 2385 2381 2430 2353 2487 2370 2473 2375 2466 2420 2432 2477 2424 2386 2457 2465 2413 2408 2416 2525 2406 2524 2343 2470 2452 2398 2382 2460 2430 2385 2441 2466 2448 2444 2377 2427 2432 2452 2407 2463 2460 2392 2366 2433 2480 2422 2457 2284 2476 2463 2526 2446 2406 2441 2399 2486 2409 2414 2450 2434 2505 2402 2413 2456 2357 2354 2431 2477 2391 2544 2422 2388 2411 2454 2393 2474 2440 2397 2424 2318 2445 2405 2419 2424 2351 2245 2363 2449 2416 2392 2422 2454 2364 2338 2480 2384 2429 2473 2410 2416 2453 2351 2435 2341 2391 2386 2413 2426 2416 2534 2468 2410 2405 2502 2357 2436 2443 2399 2352 2346 2343 2449 2473 2412 2413 2394 2428 2405 2364 2463 2444 2338 2432 2390 2396 2396 2343 2374 2420 2410 2316 2358 2416 2359 2388 2281 2442 2426 2425 2400 2446 2392 2419 2454 2369 2378 2349 2397 2446 2393 2392 2419 2364 2436 2357 2427 2367 2410 2424 2372 2369 2353 2388 2365 2395 2374 2369 2347 2467 2334 2326 2392 2388 2418 2428 2424 2514 2504 2440 2379 2477 2475 2382 2354 2369 2335 2444 2295 2361 2385 2427 2532 2363 2431 2385 2385 2337 2441 2406 2461 2383 2551 2403 2427 2451 2363 2440 2427 2358 2446 2408 2462 2439 2348 2460 2396 2402 2402 2483 2331 2497 2321 2481 2398 2373 2416 2471 2326 2429 2443 2421 2316 2401 2441 2516 2396 2431 2383 2586 2426 2485 2390 2369 2293 2381 2500 2355 2414 2339 2417 2428 2419 2488 2405 2432 2413 2421 2328 2472 2387 2374 2341 2527 2426 2509 2383 2404 2410 2479 2401 2415 2475 2464 2390 2446 2389 2361 2423 2520 2427 2430 2405 2427 2439 2452 2462 2440 2434 2545 2491 2454 2473 2455 2527 2567 2478 2540 2551 2398 2529 2542 2595 2543 2681 2644 2771 2865 2864 2883 2838 3035 3098 3125 3123 3171 3291 3286 3401 3476 3413 3406 3461 3445 3502 3546 3542 3427 3585 3703 3607 3648 3522 3529 3434 3471 3583 3457 3489 3560 3464 3587 3478 3552 3562 3658 3749 3686 3699 3819 3960 3955 3981 4023 3898 4029 4010 4020 3893 3843 3901 3919 3907 3874 4007 3735 3749 3847 3686 3838 3732 3813 3531 3592 3408 3327 3244 3170 3093 3185 3084 3140 3030 3096 3106 3022 2978 2982 2912 2909 2948 2812 2859 2880 2907 3025 3020 3138 3195 3105 3129 3179 3160 3163 3230 3207 3226 3175 3245 3284 3295 3153 3140 3335 3141 3129 3151 3218 3107 3267 3080 3024 3073 2975 2862 2971 2966 2879 2908 2815 2745 2837 2686 2667 2706 2729 2700 2690 2672 2685 2664 2594 2706 2636 2696 2582 2608 2582 2583 2505 2550 2529 2577 2562 2488 2530 2501 2503 2450 2506 2510 2509 2499 2480 2475 2481 2399 2497 2411 2535 2542 2487 2540 2472 2448 2523 2512 2451 2559 2467 2435 2448 2444 2423 2469 2432 2445 2457 2501 2544 2419 2453 2388 2439 2477 2526 2493 2424 2492 2401 2507 2518 2436 2428 2416 2531 2493 2590 2553 2447 2497 2550 2529 2481 2473 2567 2472 2485 2512 2508 2506 2538 2565 2589 2512 2574 2579 2487 2573 2529 2571 2676 2686 2602 2519 2597 2668 2640 2587 2532 2681 2533 2646 2540 2649 2656 2699 2698 2613 2585 2616 2730 2569 2641 2567 2580 2648 2718 2597 2633 2688 2700 2704 2616 2639 2646 2764 2624 2773 2751 2714 2647 2616 2688 2665 2609 2606 2680 2603 2657 2640 2690 2691 2715 2668 2650 2718 2717 2664 2613 2685 2657 2601 2608 2636 2718 2691 2559 2634 2587 2522 2614 2528 2540 2576 2556 2575 2436 2420 2458 2496 2493 2503 2415 2564 2407 2425 2416 2482 2509 2485 2450 2414 2538 2539 2503 2465 2551 2563 2538 2577 2730 2656 2530 2710 2650 2623 2572 2617 2612 2635 2630 2613 2609 2638 2684 2704 2673 2729 2616 2587 2644 2586 2686 2573 2607 2562 2470 2528 2531 2543 2507 2539 2549 2424 2598 2484 2360 2498 2380 2421 2383 2576 2480 2456 2444 2431 2381 2342 2387 2503 2425 2402 2471 2403 2464 2367 2407 2513 2369 2365 2352 2341 2363 2251 2345 2398 2360 2348 2419 2383 2410 2332 2277 2388 2362 2296 2305 2315 2386 2416 2309 2361 2330 2354 2376 2421 2321 2433 2327 2357 2394 2329 2365 2395 2372 2346 2312 2289 2373 2375 2372 2441 2327 2367 2325 2295 2378 2316 2309 2338 2331 2388 2390 2293 2443 2371 2281 2383 2453 2401 2327 2264 2346 2317 2350 2370 2230 2293 2342 2404 2324 2334 2361 2310 2472 2343 2382 2362 2396 2385 2368 2314 2349 2424 2391 2325 2378 2272 2297 2387 2343 2293 2335 2381 2430 2358 2388 2356 2313 2406 2373 2368 2362 2366 2343 2362 2400 2348 2335 2419 2338 2327 2348 2419 2363 2338 2385 2359 2346 2325 2472 2464 2362 2363 2341 2375 2403 2407 2324 2346 2444 2491 2379 2461 2354 2349 2313 2349 2325 2321 2376 2284 2287 2318 2242 2333 2329 2320 2367 2352 2306 2304 2322 2320 2346 2308 2362 2405 2309 2315 2363 2308 2415 2335 2246 2238 2410 2307 2399 2299 2146 2322 2232 2191 2371 2311 2223 2226 2277 2354 2268 2445 2292 2319 2378 2320 2368 2276 2285 2178 2366 2272 2279 2346 2246 2302 2238 2255 2241 2280 2260 2287 2267 2304 2344 2342 2285 2337 2302 2306 2294 2334 2258 2378 2247 2399 2282 2286 2236 2313 2256 2269 2297 2325 2295 2342 2278 2293 2261 2271 2260 2336 2367 2227 2315 2277 2287 2249 2354 2353 2335 2292 2364 2370 2260 2270 2329 2247 2406 2262 2353 2264 2259 2248 2348 2378 2405 2315 2301 2393 2347 2323 2258 2311 2328 2276 2281 2267 2344 2268 2304 2357 2282 2291 2348 2305 2359 2264 2315 2409 2329 2343 2313 2291 2248 2289 2229 2285 2205 2277 2286 2353 2386 2348 2305 2342 2224 2306 2353 2230 2277 2327 2249 2227 2345 2327 2385 2280 2266 2255 2289 2344 2218 2342 2369 2251 2346 2270 2274 2276 2271 2270 2218 2278 2349 2179 2389 2279 2309 2331 2323 2374 2301 2265 2246 2313 2246 2211 2236 2295 2326 2285 2352 2323 2322 2300 2245 2269 2350 2329 2362 2299 2278 2288 2340 2281 2253 2307 2358 2344 2262 2279 2304 2266 2334 2261 2271 2223 2208 2241 2202 2197 2243 2255 2276 2231 2319 2350 2262 2365 2253 2354 2197 2265 2293 2323 2301 2226 2283 2298 2291 2320 2226 2365 2318 2294 2342 2215 2206 2283 2352 2294 2252 2244 2224 2267 2321 2340 2293 2284 2321 2286 2277 2314 2311 2191 2298 2304 2206 2270 2209 2305 2348 2213 2240 2327 2355 2264 2338 2313 2341 2323 2347 2327 2214 2388 2291 2352 2277 2309 2297 2233 2258 2384 2381 2321 2242 2289 2289 2298 2295 2266 2338 2258 2273 2320 2271 2244 2267 2229 2435 2384 2288 2252 2249 2302 2318 2335 2335 2287 2326 2321 2296 2329 2243 2293 2373 2330 2390 2342 2343 2426 2294 2278 2403 2361 2322 2317 2411 2316 2489 2273 2337 2448 2383 2352 2428 2392 2435 2402 2375 2469 2431 2452 2365 2383 2479 2374 2498 2320 2365 2426 2415 2524 2302 2495 2399 2581 2481 2504 2564 2629 2511 2556 2675 2674 2688 2726 2715 2788 2870 2797 2772 2806 2816 2792 2827 2795 2831 2783 2850 2874 2858 2848 2814 2863 2771 2694 2714 2702 2699 2677 2609 2704 2568 2624 2494 2532 2518 2458 2432 2468 2418 2368 2415 2309 2419 2439 2353 2380 2341 2356 2343 2221 2275 2405 2333 2260 2261 2354 2269 2344 2313 2291 2272 2279 2284 2311 2228 2339 2249 2299 2319 2279 2406 2315 2331 2300 2375 2271 2283 2298 2292 2297 2296 2303 2357 2268 2265 2233 2336 2349 2293 2302 2257 2350 2231 2296 2259 2324 2291 2373 2413 2234 2273 2270 2403 2240 2290 2294 2307 2369 2266 2313 2217 2222 2311 2320 2256 2357 2276 2306 2317 2280 2360 2283 2360 2302 2160 2275 2259 2187 2325 2213 2377 2240 2176 2178 2260 2306 2264 2327 2307 2313 2334 2283 2303 2300 2299 2248 2337 2293 2336 2435 2293 2323 2237 2283 2277 2269 2251 2316 2300 2241 2222 2311 2293 2292 2358 2308 2260 2301 2225 2264 2318 2275 2357 2325 2338 2330 2349 2277 2349 2278 2312 2321 2247 2272 2243 2305 2243 2288 2276 2244 2279 2336 2191 2328 2293 2200 2305 2277 2248 2296 2322 2346 2324 2335 2305 2275 2261 2258 2274 2238 2265 2250 2373 2316 2418 2220 2379 2302 2374 2409 2317 2409 2412 2360 2440 2415 2540 2479 2467 2491 2540 2538 2493 2529 2534 2599 2473 2570 2547 2507 2623 2584 2582 2615 2572 2508 2600 2648 2547 2508 2509 2552 2595 2552 2553 2464 2505 2463 2512 2485 2576 2568 2556 2452 2515 2511 2525 2598 2570 2638 2585 2587 2693 2599 2663 2692 2731 2678 2745 2623 2687 2689 2651 2746 2621 2793 2837 2744 2777 2780 2729 2780 2659 2792 2770 2708 2672 2635 2682 2614 2623 2626 2546 2598 2594 2519 2526 2476 2385 2457 2489 2460 2403 2451 2456 2356 2469 2402 2398 2406 2365 2324 2387 2416 2370 2427 2391 2265 2362 2266 2326 2373 2373 2356 2338 2346 2379 2403 2399 2273 2423 2418 2387 2356 2441 2388 2360 2283 2424 2359 2474 2341 2474 2320 2391 2339 2414 2322 2364 2361 2272 2401 2352 2419 2334 2367 2298 2343 2472 2400 2443 2415 2406 2424 2437 2392 2453 2326 2458 2391 2439 2485 2382 2421 2440 2357 2408 2419 2420 2436 2303 2429 2342 2394 2408 2409 2377 2538 2369 2429 2469 2257 2288 2386 2400 2371 2375 2441 2427 2305 2427 2339 2353 2427 2343 2314 2384 2436 2404 2429 2407 2329 2376 2402 2411 2355 2424 2473 2367 2408 2423 2410 2366 2438 2409 2443 2348 2431 2516 2376 2394 2401 2334 2441 2488 2422 2398 2448 2394 2438 2412 2413 2378 2401 2413 2441 2386 2400 2460 2416 2425 2395 2284 2413 2353 2389 2412 2441 2405 2419 2399 2426 2379 2364 2382 2341 2423 2355 2317 2443 2412 2400 2471 2413 2377 2433 2363 2430 2344 2383 2378 2354 2306 2404 2358 2347 2393 2330 2318 2444 2384 2293 2322 2308 2379 2363 2309 2299 2339 2338 2303 2339 2344 2310 2319 2274 2278 2246 2300 2230 2282 2270 2325 2239 2291 2288 2311 2339 2281 2304 2353 2319 2326 2312 2254 2297 2292 2252 2370 2275 2269 2317 2323 2380 2365 2225 2378 2272 2280 2320 2239 2365 2265 2294 2346 2266 2306 2325 2265 2267 2324 2316 2338 2299 2289 2314 2357 2329 2326 2294 2319 2288 2315 2272 2265 2372 2320 2344 2380 2325 2370 2291 2212 2383 2340 2316 2289 2299 2304 2342 2260 2326 2305 2229 2290 2359 2309 2224 2257 2282 2328 2265 2297 2274 2226 2304 2263 2276 2262 2336 2192 2204 2252 2256 2267 2241 2361 2233 2338 2306 2281 2314 2201 2159 2164 2205 2292 2289 2271 2210 2329 2251 2252 2247 2339 2231 2205 2329 2222 2287 2229 2309 2241 2314 2359 2265 2207 2167 2273 2184 2350 2290 2262 2205 2283 2256 2366 2313 2207 2261 2205 2280 2245 2299 2239 2276 2176 2282 2239 2359 2334 2305 2152 2201 2301 2318 2298 2305 2308 2254 2225 2328 2261 2161 2250 2234 2269 2190 2272 2205 2192 2273 2301 2251 2249 2192 2248 2301 2152 2269 2260 2324 2200 2218 2297 2311 2215 2270 2304 2243 2226 2277 2238 2214 2141 2234 2247 2303 2299 2287 2277 2214 2388 2297 2264 2319 2238 2210 2259 2190 2200 2242 2145 2150 2302 2224 2251 2283 2148 2145 2220 2215 2283 2261 2201 2254 2290 2179 2245 2294 2140 2214 2208 2195 2275 2242 2230 2275 2200 2221 2184 2228 2191 2214 2257 2213 2307 2304 2188 2189 2255 2292 2197 2263 2231 2190 2255 2256 2207 2184 2244 2281 2279 2171 2216 2168 2214 2169 2256 2251 2274 2245 2179 2227 2248 2300 2261 2201 2245 2310 2232 2207 2216 2221 2206 2280 2229 2219 2298 2279 2264 2256 2284 2288 2181 2233 2129 2249 2230 2207 2258 2200 2218 2324 2251 2208 2245 2178 2180 2294 2249 2222 2257 2276 2226 2287 2188 2240 2309 2233 2196 2188 2246 2180 2172 2247 2267 2229 2239 2191 2214 2101 2152 2246 2312 2261 2191 2209 2307 2162 2197 2239 2174 2220 2212 2215 2193 2183 2166 2270 2227 2239 2324 2199 2184 2170 2234 2205 2222 2278 2208 2188 2254 2210 2248 2211 2233 2277 2251 2210 2198 2251 2274 2230 2280 2248 2163 2234 2290 2221 2198 2309 2259 2250 2236 2211 2270 2191 2222 2222 2217 2227 2286 2234 2203 2239 2200 2231 2256 2228 2278 2252 2228 2274 2370 2234 2205 2189 2229 2236 2189 2300 2334 2283 2277 2261 2261 2232 2227 2185 2392 2232 2340 2370 2238 2351 2242 2327 2299 2292 2236 2210 2219 2149 2323 2244 2360 2222 2247 2195 2267 2277 2182 2214 2301 2285 2225 2249 2283 2215 2230 2313 2208 2258 2265 2303 2257 2269 2153 2229 2250 2246 2191 2171 2183 2345 2284 2293 2320 2220 2234 2262 2333 2233 2216 2215 2311 2258 2265 2217 2237 2223 2321 2157 2220 2261 2292 2179 2219 2356 2207 2280 2262 2268 2293 2242 2256 2142 2280 2222 2212 2254 2208 2261 2251 2149 2175 2186 2196 2273 2104 2303 2203 2246 2237 2291 2256 2250 2181 2162 2227 2254 2249 2267 2203 2274 2330 2191 2159 2138 2249 2226 2242 2310 2341 2325 2192 2143 2171 2180 2309 2284 2230 2188 2296 2264 2250 2209 2233 2273 2265 2210 2286 2266 2380 2218 2211 2233 2212 2235 2228 2289 2227 2288 2187 2295 2226 2315 2237 2241 2196 2248 2262 2246 2334 2233 2360 2203 2268 2226 2352 2245 2262 2271 2252 2245 2312 2230 2219 2209 2155 2260 2307 2205 2241 2283 2164 2268 2221 2220 2157 2232 2246 2294 2282 2250 2236 2239 2289 2184 2179 2209 2200 2195 2243 2258 2249 2219 2217 2188 2240 2185 2303 2282 2136 2211 2108 2257 2289 2307 2222 2268 2211 2350 2202 2193 2292 2269 2217 2204 2273 2324 2260 2245 2231 2228 2264 2232 2211 2249 2208 2300 2278 2264 2127 2256 2222 2217 2239 2281 2183 2270 2145 2210 2182 2284 2244 2273 2111 2269 2199 2260 2307 2248 2147 2247 2248 2215 2228 2230 2254 2259 2260 2333 2204 2223 2274 2202 2216 2202 2243 2270 2166 2303 2261 2255 2298 2317 2279 2288 2384 2173 2290 2216 2294 2271 2168 2330 2259 2266 2192 2282 2385 2289 2279 2246 2245 2283 2371 2302 2326 2255 2345 2303 2310 2418 2321 2382 2374 2360 2355 2331 2274 2335 2332 2259 2374 2279 2381 2283 2305 2290 2347 2337 2358 2291 2356 2306 2313 2360 2351 2242 2343 2421 2271 2262 2352 2388 2333 2357 2308 2308 2302 2357 2336 2283 2367 2363 2426 2361 2482 2513 2473 2322 2376 2537 2527 2501 2560 2596 2529 2555 2592 2519 2483 2483 2479 2393 2524 2503 2505 2400 2432 2509 2373 2460 2538 2442 2443 2538 2409 2438 2397 2379 2384 2446 2320 2343 2390 2344 2356 2333 2268 2330 2347 2371 2357 2223 2294 2285 2313 2206 2252 2332 2253 2231 2220 2271 2247 2280 2310 2233 2179 2350 2258 2207 2290 2278 2214 2287 2276 2356 2322 2210 2308 2270 2244 2225 2352 2276 2244 2219 2270 2260 2253 2266 2252 2279 2166 2253 2232 2286 2152 2317 2330 2254 2217 2310 2224 2270 2258 2174 2249 2244 2203 2207 2263 2241 2232 2202 2284 2210 2253 2218 2263 2291 2180 2291 2292 2191 2211 2230 2210 2253 2259 2326 2232 2206 2200 2272 2291 2239 2249 2185 2245 2296 2267 2205 2320 2305 2298 2264 2279 2246 2252 2274 2317 2277 2245 2248 2230 2238 2142 2208 2183 2208 2206 2199 2233 2238 2132 2243 2209 2146 2133 2233 2220 2212 2216 2134 2190 2271 2252 2255 2160 2308 2203 2226 2123 2199 2248 2235 2319 2240 2236 2283 2212 2195 2215 2255 2182 2184 2266 2207 2192 2239 2204 2214 2260 2178 2194 2277 2167 2194 2262 2181 2161 2167 2211 2204 2245 2215 2203 2210 2196 2172 2142 2271 2204 2298 2288 2280 2217 2187 2207 2244 2114 2168 2206 2235 2286 2209 2187 2202 2324 2228 2131 2224 2283 2302 2293 2174 2153 2287 2174 2189 2301 2189 2265 2199 2230 2234 2236 2287 2171 2223 2277 2172 2246 2260 2250 2159 2152 2267 2212 2224 2150 2211 2192 2251 2233 2230 2157 2324 2173 2259 2305 2258 2228 2309 2175 2312 2318 2267 2231 2104 2217 2246 2197 2237 2307 2212 2180 2226 2232 2262 2208 2301 2192 2242 2220 2249 2227 2200 2240 2243 2210 2300 2226 2217 2274 2202 2210 2209 2273 2345 2244 2273 2257 2277 2238 2194 2197 2262 2234 2174 2281 2153 2311 2246 2289 2244 2274 2251 2247 2391 2202 2161 2196 2234 2287 2216 2151 2208 2253 2278 2207 2172 2229 2246 2194 2177 2237 2178 2263 2151 2197 2252 2204 2134 2271 2261 2341 2143 2312 2217 2273 2280 2209 2248 2246 2273 2201 2203 2191 2215 2141 2254 2236 2212 2246 2347 2185 2274 2265 2221 2247 2202 2231 2125 2219 2193 2260 2160 2227 2197 2251 2312 2262 2284 2191 2208 2187 2200 2249 2228 2135 2140 2222 2249 2184 2126 2212 2097 2244 2186 2156 2130 2232 2294 2193 2286 2193 2242 2215 2229 2182 2181 2220 2229 2236 2265 2257 2217 2257 2198 2211 2195 2163 2262 2157 2099 2219 2262 2164 2183 2246 2221 2236 2157 2185 2150 2153 2158 2233 2234 2298 2336 2219 2229 2200 2206 2196 2215 2265 2225 2233 2145 2238 2190 2178 2246 2224 2180 2251 2348 2263 2206 2262 2229 2236 2235 2226 2186 2183 2179 2260 2233 2252 2256 2225 2125 2258 2198 2194 2199 2226 2269 2286 2272 2217 2314 2117 2370 2249 2318 2313 2159 2221 2269 2251 2190 2117 2203 2202 2185 2249 2246 2171 2178 2186 2221 2219 2251 2245 2161 2202 2258 2272 2275 2168 2227 2161 2164 2146 2147 2199 2275 2272 2181 2186 2175 2296 2280 2143 2219 2230 2233 2296 2298 2200 2174 2165 2218 2234 2331 2277 2258 2207 2184 2217 2232 2223 2198 2271 2196 2182 2225 2232 2191 2229 2204 2132 2218 2169 2184 2309 2320 2213 2198 2149 2268 2152 2291 2217 2243 2201 2214 2195 2215 2196 2207 2291 2178 2221 2193 2237 2205 2277 2204 2251 2316 2285 2310 2296 2302 2298 2233 2363 2139 2254 2155 2367 2286 2223 2230 2268 2237 2205 2326 2268 2327 2266 2271 2268 2232 2329 2272 2300 2241 2165 2252 2197 2216 2160 2278 2185 2266 2240 2288 2261 2328 2267 2252 2194 2263 2234 2152 2246 2236 2229 2224 2242 2240 2268 2226 2284 2308 2319 2244 2246 2227 2251 2271 2302 2232 2249 2227 2298 2275 2346 2244 2268 2292 2255 2299 2346 2256 2314 2246 2332 2239 2333 2302 2258 2133 2244 2299 2307 2264 2329 2265 2306 2266 2216 2325 2245 2237 2245 2325 2271 2361 2216 2246 2230 2205 2285 2176 2378 2186 2213 2266 2258 2301 2232 2141 2219 2249 2321 2270 2360 2264 2284 2292 2275 2324 2304 2299 2312 2301 2377 2380 2407 2412 2410 2436 2303 2430 2402 2393 2332 2352 2418 2407 2354 2423 2356 2443 2339 2368 2343 2362 2388 2344 2401 2348 2336 2299 2331 2250 2327 2377 2389 2309 2365 2367 2330 2291 2399 2335 2322 2251 2298 2356 2304 2197 2375 2244 2258 2283 2282 2388 2218 2259 2258 2254 2238 2250 2249 2279 2258 2259 2212 2324 2140 2225 2177 2238 2187 2318 2188 2229 2250 2286 2217 2281 2303 2267 2284 2281 2273 2278 2298 2218 2323 2258 2242 2146 2233 2254 2237 2276 2224 2221 2229 2313 2278 2407 2276 2270 2168 2277 2263 2258 2256 2215 2193 2233 2339 2254 2344 2287 2210 2310 2364 2248 2260 2277 2237 2193 2295 2212 2373 2272 2282 2273 2281 2245 2200 2256 2212 2260 2190 2243 2211 2276 2328 2288 2303 2259 2233 2248 2233 2271 2388 2327 2226 2230 2261 2323 2217 2276 2274 2310 2355 2371 2199 2394 2339 2355 2306 2385 2281 2329 2422 2423 2455 2383 2419 2388 2350 2360 2318 2429 2477 2383 2391 2427 2497 2472 2431 2441 2422 2464 2466 2475 2416 2455 2464 2512 2416 2414 2451 2445 2413 2465 2389 2510 2438 2476 2480 2441 2418 2435 2405 2430 2395 2385 2378 2404 2399 2495 2417 2348 2457 2388 2413 2335 2447 2403 2312 2496 2428 2500 2402 2502 2400 2411 2516 2466 2547 2488 2516 2467 2543 2622 2636 2571 2533 2630 2637 2619 2615 2583 2571 2569 2634 2672 2619 2686 2660 2665 2583 2595 2588 2629 2562 2663 2489 2579 2548 2642 2562 2534 2533 2553 2575 2480 2450 2526 2536 2528 2477 2539 2565 2506 2464 2475 2415 2423 2454 2349 2469 2393 2407 2384 2342 2268 2438 2377 2372 2401 2361 2239 2383 2326 2380 2368 2388 2289 2197 2327 2296 2198 2293 2344 2262 2266 2264 2271 2279 2355 2315 2323 2283 2265 2316 2251 2312 2282 2326 2325 2286 2275 2397 2327 2321 2352 2342 2407 2320 2354 2397 2251 2313 2254 2311 2357 2323 2342 2349 2286 2369 2338 2416 2303 2333 2363 2381 2313 2389 2386 2360 2490 2295 2416 2368 2420 2415 2331 2408 2326 2322 2411 2357 2466 2447 2458 2481 2412 2558 2422 2393 2413 2431 2456 2473 2385 2525 2468 2418 2398 2387 2406 2410 2418 2420 2408 2352 2480 2417 2457 2436 2522 2385 2341 2388 2443 2348 2381 2479 2384 2290 2336 2351 2328 2401 2403 2304 2314 2324 2347 2410 2436 2354 2321 2375 2430 2415 2314 2398 2413 2375 2366 2322 2330 2408 2404 2285 2314 2366 2287 2391 2380 2368 2300 2319 2271 2357 2338 2314 2304 2312 2360 2324 2349 2290 2300 2316 2321 2296 2279 2299 2340 2366 2207 2249 2301 2226 2316 2299 2229 2395 2287 2325 2242 2345 2260 2291 2283 2330 2301 2350 2248 2282 2312 2292 2297 2308 2239 2394 2348 2373 2330 2341 2276 2335 2236 2255 2326 2328 2230 2223 2317 2330 2320 2303 2268 2231 2270 2293 2267 2316 2336 2281 2283 2252 2311 2220 2340 2297 2268 2314 2217 2311 2277 2355 2358 2298 2167 2340 2312 2346 2251 2330 2302 2330 2266 2298 2233 2277 2396 2310 2296 2229 2376 2300 2317 2246 2325 2287 2311 2277 2214 2372 2188 2294 2297 2196 2299 2262 2328 2278 2316 2305 2365 2278 2298 2304 2259 2350 2305 2203 2334 2333 2317 2250 2317 2382 2301 2362 2289 2414 2213 2256 2240 2321 2257 2299 2255 2237 2284 2273 2314 2316 2219 2313 2282 2277 2298 2266 2241 2371 2312 2296 2239 2299 2263 2239 2368 2290 2221 2249 2199 2230 2284 2238 2190 2254 2240 2196 2242 2340 2262 2245 2251 2325 2291 2228 2279 2288 2175 2232 2220 2293 2221 2298 2338 2224 2303 2274 2304 2356 2281 2226 2241 2360 2279 2327 2183 2233 2211 2248 2298 2290 2278 2315 2168 2258 2230 2246 2282 2233 2229 2243 2249 2285 2338 2279 2254 2202 2313 2244 2216 2327 2330 2316 2256 2221 2193 2223 2268 2258 2280 2213 2200 2304 2246 2272 2206 2292 2270 2157 2259 2274 2245 2156 2201 2305 2260 2184 2287 2233 2253 2141 2254 2303 2228 2220 2303 2228 2191 2245 2216 2233 2299 2352 2202 2232 2316 2248 2258 2301 2333 2195 2246 2266 2218 2279 2230 2232 2280 2234 2193 2299 2311 2327 2137 2272 2241 2217 2319 2212 2231 2234 2323 2239 2234 2259 2248 2143 2264 2281 2250 2266 2249 2257 2235 2223 2243 2333 2240 2251 2279 2256 2233 2194 2299 2237 2349 2215 2208 2255 2219 2256 2258 2264 2240 2183 2266 2301 2259 2234 2248 2214 2248 2215 2194 2279 2165 2213 2246 2242 2228 2233 2231 2248 2143 2133 2228 2191 2226 2184 2263 2299 2224 2271 2276 2215 2308 2286 2250 2212 2235 2226 2289 2204 2232 2261 2267 2308 2307 2241 2290 2205 2286 2293 2237 2307 2241 2151 2319 2237 2369 2248 2259 2313 2238 2279 2260 2213 2358 2229 2260 2295 2229 2320 2276 2316 2237 2311 2266 2232 2289 2192 2255 2266 2206 2260 2236 2137 2306 2332 2268 2202 2291 2250 2271 2252 2280 2280 2235 2204 2189 2227 2303 2260 2272 2244 2298 2141 2213 2216 2289 2210 2305 2322 2228 2282 2309 2169 2397 2309 2269 2295 2283 2341 2270 2209 2257 2262 2324 2301 2244 2222 2265 2303 2393 2262 2281 2240 2240 2264 2341 2331 2224 2200 2298 2240 2233 2360 2269 2233 2211 2283 2225 2205 2260 2163 2232 2183 2250 2242 2140 2201 2217 2272 2317 2217 2196 2253 2283 2227 2236 2176 2231 2323 2294 2209 2147 2305 2282 2229 2280 2287 2179 2297 2255 2246 2266 2218 2247 2310 2211 2280 2255 2253 2294 2103 2157 2265 2261 2197 2204 2309 2177 2199 2301 2217 2176 2139 2187 2253 2218 2292 2204 2266 2192 2228 2194 2228 2268 2129 2254 2258 2290 2298 2195 2291 2219 2237 2264 2267 2264 2276 2199 2272 2213 2316 2312 2245 2248 2302 2304 2221 2186 2237 2269 2277 2293 2345 2265 2196 2265 2288 2196 2237 2282 2253 2331 2286 2208 2328 2268 2274 2306 2299 2203 2248 2221 2203 2257 2307 2274 2311 2215 2289 2255 2357 2196 2258 2324 2251 2225 2249 2263 2256 2274 2239 2279 2276 2325 2341 2234 2199 2138 2218 2271 2206 2231 2214 2253 2166 2211 2291 2216 2205 2317 2152 2180 2302 2251 2244 2210 2231 2340 2213 2215 2276 2305 2293 2332 2311 2265 2246 2258 2222 2390 2286 2242 2274 2315 2234 2262 2206 2293 2398 2350 2284 2405 2368 2284 2377 2308 2346 2326 2296 2405 2408 2367 2378 2295 2293 2430 2389 2445 2234 2377 2488 2389 2355 2349 2341 2385 2322 2298 2328 2306 2349 2324 2320 2330 2390 2393 2312 2255 2378 2322 2353 2331 2407 2339 2316 2303 2415 2348 2296 2424 2411 2375 2362 2279 2334 2358 2284 2391 2297 2266 2287 2276 2311 2303 2290 2372 2237 2312 2385 2423 2253 2311 2392 2399 2372 2450 2384 2434 2343 2449 2333 2415 2386 2471 2411 2367 2522 2563 2454 2538 2454 2562 2529 2505 2499 2495 2454 2486 2468 2561 2418 2435 2316 2396 2291 2408 2461 2476 2362 2390 2320 2412 2416 2390 2316 2431 2410 2408 2370 2413 2416 2431 2308 2492 2431 2393 2315 2384 2361 2325 2354 2345 2328 2347 2330 2327 2352 2388 2349 2281 2284 2311 2234 2385 2321 2351 2221 2280 2267 2331 2351 2347 2310 2288 2231 2360 2275 2344 2301 2281 2239 2316 2272 2308 2323 2192 2225 2275 2236 2275 2301 2281 2217 2303 2280 2270 2183 2339 2292 2340 2314 2256 2275 2281 2281 2233 2238 2392 2329 2219 2308 2274 2333 2359 2281 2305 2368 2304 2331 2375 2293 2360 2301 2420 2248 2343 2412 2335 2373 2341 2318 2281 2308 2272 2221 2336 2245 2277 2373 2293 2277 2358 2311 2376 2350 2332 2349 2248 2272 2305 2281 2291 2256 2387 2271 2203 2309 2415 2331 2248 2288 2289 2230 2400 2308 2310 2421 2280 2331 2200 2350 2359 2273 2254 2328 2241 2270 2265 2260 2298 2265 2262 2351 2288 2328 2196 2300 2327 2441 2294 2298 2260 2230 2249 2298 2270 2264 2325 2268 2258 2256 2295 2225 2353 2246 2283 2317 2278 2230 2314 2289 2262 2261 2355 2266 2217 2253 2297 2240 2322 2265 2261 2286 2327 2294 2252 2302 2255 2275 2231 2258 2248 2204 2179 2274 2300 2278 2266 2189 2218 2272 2230 2224 2295 2255 2187 2235 2217 2255 2263 2250 2312 2211 2274 2236 2285 2217 2278 2315 2247 2180 2242 2235 2266 2266 2269 2263 2296 2320 2233 2273 2323 2270 2260 2258 2284 2250 2216 2278 2210 2242 2268 2282 2146 2269 2320 2215 2221 2267 2266 2274 2266 2309 2351 2220 2311 2266 2208 2317 2286 2190 2265 2220 2301 2168 2327 2223 2314 2254 2350 2209 2231 2220 2260 2258 2290 2322 2213 2280 2225 2296 2260 2313 2258 2221 2187 2249 2358 2333 2262 2244 2210 2287 2257 2304 2239 2276 2247 2222 2266 2239 2244 2252 2298 2293 2275 2334 2290 2182 2245 2289 2368 2264 2227 2254 2301 2296 2295 2231 2307 2337 2279 2176 2230 2232 2242 2211 2211 2322 2246 2199 2221 2208 2195 2284 2234 2286 2261 2255 2265 2349 2353 2177 2298 2237 2301 2188 2248 2256 2177 2253 2289 2282 2286 2241 2224 2195 2248 2211 2242 2315 2218 2240 2339 2404 2324 2274 2241 2230 2200 2170 2221 2202 2201 2172 2213 2312 2184 2286 2265 2200 2274 2224 2239 2260 2299 2232 2252 2278 2333 2186 2130 2258 2249 2237 2233 2175 2289 2184 2227 2235 2280 2226 2286 2222 2266 2281 2278 2248 2222 2300 2206 2208 2311 2250 2269 2247 2245 2378 2256 2191 2339 2311 2283 2202 2264 2174 2265 2192 2314 2222 2303 2270 2356 2303 2258 2346 2250 2302 2176 2364 2261 2307 2271 2222 2323 2201 2223 2322 2279 2301 2293 2245 2325 2322 2263 2302 2180 2194 2149 2213 2252 2273 2185 2232 2248 2196 2227 2283 2265 2203 2284 2228 2306 2238 2311 2177 2257 2240 2259 2273</counts>
			</dataPoints>
		</scan>
	</xrdMeasurement>
</xrdMeasurements>
