<?xml version="1.0"?>
<xrdMeasurements xmlns="http://www.xrdml.com/XRDMeasurement/2.3" xmlns:xsi="http://www.w3.org/2001/XMLSchema-instance" xsi:schemaLocation="http://www.xrdml.com/XRDMeasurement/2.3 http://www.xrdml.com/XRDMeasurement/2.3/XRDMeasurement.xsd" status="Completed" recordIdentifier="{96806867-7F12-48AC-AC36-90C679B669CE}">
	<comment>
		<entry/>
	</comment>
	<sample type="To be analyzed">
		<id>GPSS_Li2Mn0p8Cr0p2Cl4_111225_691549b847a6a0fd7c6580cd</id>
		<name></name>
		<preparedBy></preparedBy>
	</sample>
	<xrdMeasurement measurementType="Scan" status="Completed" sampleMode="Reflection">
		<usedWavelength intended="K-Alpha 1">
			<kAlpha1 unit="Angstrom">1.5405980</kAlpha1>
			<kAlpha2 unit="Angstrom">1.5444260</kAlpha2>
			<kBeta unit="Angstrom">1.3922500</kBeta>
			<ratioKAlpha2KAlpha1>0.5000</ratioKAlpha2KAlpha1>
		</usedWavelength>
		<incidentBeamPath>
			<radius unit="mm">145.00</radius>
			<xRayTube id="1010048" name="Empyrean Cu LFF HR (9430 033 7310x)">
				<tension unit="kV">40.0</tension>
				<current unit="mA">15.0</current>
				<anodeMaterial>Cu</anodeMaterial>
				<focus type="Line">
					<length unit="mm">12.0</length>
					<width unit="mm">0.4</width>
					<takeOffAngle unit="deg">6.0</takeOffAngle>
				</focus>
			</xRayTube>
			<sollerSlit id="21010002" name="Soller slits 0.04 rad.">
				<opening unit="rad">0.0400</opening>
			</sollerSlit>
			<mask id="22031000" name="Fixed mask 13 mm">
				<width unit="mm">9.00</width>
			</mask>
			<divergenceSlit id="22120001" name="Divergence slit 1°" xsi:type="fixedDivergenceSlitType">
				<distanceToSample unit="mm">50.00</distanceToSample>
				<height unit="mm">1.52</height>
			</divergenceSlit>
		</incidentBeamPath>
		<sampleMovement xsi:type="spinningSampleMovementType">
			<spinnerRevolutionTime unit="seconds">1.0</spinnerRevolutionTime>
		</sampleMovement>
		<diffractedBeamPath>
			<radius unit="mm">145.00</radius>
			<antiScatterSlit id="22090040" name="AS slit 9 mm (PIXcel)" xsi:type="fixedAntiScatterSlitType">
				<height unit="mm">9.00</height>
			</antiScatterSlit>
			<sollerSlit id="21020003" name="Large Soller slits 0.04 rad.">
				<opening unit="rad">0.0400</opening>
			</sollerSlit>
			<filter id="20030001" name="Large beta-filter Nickel">
				<material>Ni</material>
				<thickness unit="mm">0.020</thickness>
			</filter>
			<detector id="7010019" name="PIXcel1D-Medipix3 detector" xsi:type="rtmsDetectorType">
				<phd unit="keV">
					<lowerLevel>4.02</lowerLevel>
					<upperLevel>11.27</upperLevel>
				</phd>
				<mode>Scanning</mode>
				<activeLength unit="deg">5.542</activeLength>
			</detector>
		</diffractedBeamPath>
		<scan appendNumber="0" mode="Continuous" scanAxis="Gonio" status="Completed">
			<header>
				<startTimeStamp>2025-11-16T16:10:46-08:00</startTimeStamp>
				<endTimeStamp>2025-11-16T16:18:54-08:00</endTimeStamp>
				<author>
					<name>AutomatedUser</name>
				</author>
				<source>
					<applicationSoftware version="1.7b (136)">PANalytical Aeris Instrument Suite</applicationSoftware>
					<instrumentControlSoftware version="3.2.00000000 20240306">AERIS</instrumentControlSoftware>
					<instrumentID>950485</instrumentID>
				</source>
			</header>
			<dataPoints>
				<positions axis="2Theta" unit="deg">
					<startPosition>10.00943322</startPosition>
					<endPosition>99.99442286</endPosition>
				</positions>
				<positions axis="Omega" unit="deg">
					<startPosition>5.00471661</startPosition>
					<endPosition>49.99721143</endPosition>
				</positions>
				<commonCountingTime unit="seconds">12.495</commonCountingTime>
				<counts unit="counts">2799 2888 2806 2909 2884 2863 2813 2767 2880 2885 2778 2747 2886 2793 2857 2855 2761 2741 2825 2678 2741 2822 2788 2723 2814 2848 2869 2824 2888 2875 2841 2810 2816 2748 2836 2755 2803 2719 2857 2831 2785 2708 2874 2844 2877 2877 2866 2875 2829 2895 2843 2796 2872 2776 2755 2753 2743 2739 2870 2865 2866 2817 2791 2853 2775 2839 2829 2942 2834 2826 2755 2846 2743 2884 2911 2826 2801 2954 2814 2890 2870 2923 2961 2888 2859 2903 2844 2834 2867 2894 2824 2869 3032 2893 2866 2888 2900 2851 2814 2858 2959 2854 2895 2981 2827 2925 2938 2909 2977 2802 2861 2795 2851 2823 2888 2874 2926 2908 2801 2895 2877 2965 2935 3047 2845 2892 2839 2866 2835 2828 2913 2921 2882 2916 2882 2857 2908 2845 2772 2913 2885 2916 2837 2854 2764 2800 2853 2886 2927 2936 2837 2818 2793 2930 2814 2855 2870 2854 2817 2891 2901 2896 3007 2846 2937 2779 2829 2880 2892 2917 2960 2861 2890 2861 2939 2879 2941 2925 2838 2835 2817 2892 2893 2841 2841 2869 2862 2853 2794 2834 2894 2835 2937 2742 2928 2864 2926 2901 2879 2869 2882 2898 2841 2931 2811 2897 2863 2894 2823 2840 2834 2896 2834 2923 2842 2855 2742 2851 2888 2970 2788 2910 2845 2913 2949 2817 2785 2871 2874 2684 2918 2850 2903 2899 2957 2758 2825 2895 2819 2798 2808 2873 2890 2838 2826 2829 2862 2777 2816 2821 2867 2859 2805 2858 2815 2773 2909 2808 2846 2774 2832 2848 2708 2826 2841 2883 2774 2869 2803 2798 2735 2923 2817 2791 2736 2814 2737 2798 2767 2905 2824 2804 2824 2773 2728 2883 2762 2862 2807 2784 2741 2886 2934 2815 2823 2888 2833 2882 2891 2923 2938 2891 2850 2861 2930 2883 2847 2906 2957 2882 2848 2988 2812 2902 2895 2847 2834 2922 2889 2878 2914 2946 2882 2794 2898 2914 2945 2821 2936 2861 2932 2896 2908 2903 3017 2985 3001 2931 2913 3012 2907 2949 3010 2939 2961 3038 2929 2917 2999 3070 2959 2931 2985 2959 3051 3056 2943 2969 3049 3031 3096 3044 3002 3107 3081 3144 3065 3111 3054 3111 3111 3150 3200 3042 3067 3161 3109 3249 3183 3116 3184 3145 3160 3114 3180 3191 3221 3205 3213 3267 3262 3195 3178 3309 3222 3302 3221 3169 3251 3242 3332 3375 3241 3339 3373 3260 3334 3280 3256 3326 3342 3398 3405 3550 3452 3447 3487 3532 3398 3526 3514 3567 3561 3581 3575 3651 3642 3728 3760 3757 3842 3755 3873 3766 3860 3851 3904 3946 3931 3798 4103 4027 4081 4057 4063 4035 4073 3909 4032 4069 4064 3963 3883 3986 4091 4001 4040 3997 3997 4078 3984 3918 4067 4218 3929 4134 4112 4114 4130 4252 4133 4210 4320 4412 4341 4404 4452 4685 4553 4653 4609 4580 4631 4703 4714 4808 4719 4704 4654 4707 4664 4713 4677 4580 4622 4494 4293 4347 4313 4114 4280 4121 4178 4081 4032 4198 3813 3875 3920 4005 3953 3813 3876 3704 3776 3815 3894 3843 3861 3827 3856 3666 3803 3736 3756 3772 3644 3625 3618 3718 3551 3603 3524 3353 3478 3331 3414 3289 3269 3255 3227 3274 3172 3314 3106 3139 3291 3159 3280 3247 3192 3106 3184 3144 3134 3123 3070 3164 3147 3160 3174 3180 3114 3101 3077 3234 3135 3151 3135 3063 3100 3078 3015 3121 3007 3085 3015 2909 2941 3066 3097 3017 3062 3014 3054 3001 3059 3071 2976 2995 3059 3009 2899 2976 3045 2932 2916 3038 2986 2844 2899 3008 2948 2966 2946 3093 2935 2999 3020 3020 3079 3030 2930 2979 2908 2905 2888 2980 2937 2834 3028 2923 2949 2979 2968 2972 2949 2893 2965 3033 2869 2959 2892 2923 2983 2903 2915 2863 2818 2915 2979 2945 2999 3005 2886 2842 2906 2884 2974 2933 2844 2893 2826 3005 2930 2855 2957 2851 2914 2862 2894 2898 2836 2862 2862 2895 2794 2725 2907 2905 2939 2856 2890 2809 2807 2841 2807 2800 2896 2843 2898 2810 2863 2876 2877 2938 2904 2812 2930 2827 2694 2816 2827 2886 2915 2685 2833 2799 2852 2780 2900 2874 2795 2847 2886 2860 2962 2826 2784 2820 2782 2772 2759 2863 2876 2813 2885 2708 2848 2816 2840 2874 2745 2792 2715 2700 2802 2813 2705 2721 2916 2848 2826 2866 2853 2718 2837 2737 2841 2858 2837 2731 2892 2755 2835 2825 2767 2760 2813 2800 2684 2916 2770 2731 2835 2793 2817 2755 2734 2906 2830 2791 2857 2757 2839 2735 2783 2854 2832 2799 2768 2726 2743 2740 2774 2653 2794 2806 2699 2718 2705 2779 2816 2718 2812 2850 2833 2636 2813 2815 2778 2795 2767 2636 2730 2753 2729 2827 2845 2815 2698 2863 2711 2747 2792 2803 2772 2793 2647 2766 2691 2682 2740 2686 2672 2750 2816 2681 2715 2788 2795 2693 2750 2706 2767 2770 2787 2627 2667 2703 2680 2681 2693 2652 2744 2729 2629 2717 2658 2736 2688 2748 2753 2639 2685 2686 2586 2679 2564 2628 2641 2658 2626 2738 2672 2681 2579 2647 2759 2715 2687 2695 2600 2641 2696 2722 2668 2730 2696 2686 2734 2713 2613 2637 2629 2624 2693 2672 2729 2655 2721 2727 2714 2879 2693 2657 2620 2689 2636 2655 2645 2653 2769 2710 2669 2575 2608 2624 2629 2627 2707 2673 2640 2602 2560 2706 2679 2686 2677 2661 2582 2774 2719 2793 2637 2783 2762 2827 2811 2894 2769 2927 2845 2837 2934 2946 2881 2975 2978 3022 3130 3092 3010 3164 3009 3040 3056 3068 3147 3067 3143 3194 3097 3037 2996 3052 2942 2953 3003 2976 2907 2881 2896 2914 2847 2844 2819 2710 2813 2824 2805 2821 2829 2820 2874 2828 2831 2864 2876 2767 2734 2791 2714 2840 2744 2782 2736 2650 2797 2709 2724 2774 2711 2690 2634 2617 2627 2621 2566 2556 2629 2582 2617 2616 2485 2649 2614 2596 2573 2521 2627 2508 2401 2571 2556 2572 2589 2604 2551 2547 2602 2509 2632 2466 2391 2548 2533 2468 2534 2525 2596 2425 2487 2618 2522 2488 2494 2580 2412 2485 2551 2514 2482 2537 2529 2593 2521 2519 2481 2539 2591 2545 2494 2605 2537 2469 2534 2503 2525 2496 2428 2469 2601 2545 2547 2483 2581 2546 2602 2553 2540 2619 2454 2601 2514 2533 2579 2450 2576 2535 2526 2393 2450 2494 2510 2534 2537 2543 2488 2617 2528 2553 2505 2444 2580 2503 2518 2482 2664 2544 2478 2500 2473 2510 2515 2476 2510 2469 2525 2506 2587 2456 2589 2517 2513 2544 2457 2465 2554 2477 2492 2500 2504 2556 2494 2468 2494 2550 2514 2539 2576 2499 2468 2526 2519 2449 2492 2564 2464 2614 2461 2504 2516 2532 2495 2531 2380 2478 2519 2476 2483 2450 2438 2407 2447 2502 2490 2541 2446 2395 2446 2429 2462 2424 2470 2492 2501 2411 2439 2502 2409 2357 2428 2451 2441 2360 2589 2363 2458 2439 2415 2397 2449 2355 2421 2445 2366 2321 2306 2461 2451 2271 2390 2348 2468 2315 2338 2409 2274 2341 2336 2366 2419 2409 2227 2303 2366 2481 2319 2394 2336 2352 2281 2343 2281 2263 2298 2358 2372 2277 2197 2268 2335 2226 2311 2302 2240 2215 2305 2269 2313 2273 2238 2197 2196 2243 2211 2298 2196 2253 2285 2161 2319 2151 2218 2223 2255 2136 2201 2145 2192 2182 2190 2202 2194 2189 2140 2171 2147 2176 2227 2092 2174 2088 2166 2111 2100 2121 2130 2172 2215 2204 2134 2134 2111 2165 2160 2169 2194 2135 2117 2109 2076 2145 2174 2142 2115 2099 2092 2103 2136 2118 2041 2069 2061 2039 2086 2084 2011 2049 2074 2050 2096 2087 2016 2040 1990 2061 2098 2063 2009 2095 2108 2066 2024 2028 2027 2064 2014 2015 2031 2011 2039 2140 2018 2041 1996 1982 2020 1991 2034 1969 1915 1983 1962 2011 1885 2041 1955 2128 1909 1945 2005 1906 1988 2011 1998 2022 2019 1905 2045 1993 2078 1986 2003 2003 1996 1938 2010 2019 1983 1964 1951 2053 1972 1946 2002 1969 1939 2013 1921 1983 2076 1911 2020 1944 1895 1951 1940 1958 1974 2013 1907 1913 1942 1958 1935 2015 1947 1943 1981 1951 1983 1960 1908 1995 1893 1925 1993 2014 1942 1982 1990 1942 1938 1967 1996 1993 2031 1900 1905 2022 1906 2014 2029 1966 1939 1934 1993 1979 1902 1919 1968 1997 1925 1964 1948 1879 2034 1964 2005 1998 1879 1941 1945 1910 1980 1869 1935 1934 1960 1996 1874 1980 1951 1911 1887 1939 2014 1926 1887 1949 1921 1957 1977 1994 1967 1983 2017 1931 1941 1993 1972 2014 1936 1946 2036 1953 1944 2005 1881 1956 1909 1940 1992 1913 1861 1986 1926 2000 1965 1858 1920 1939 1882 1900 1954 1933 1944 1948 1803 1940 1981 1952 1990 1935 1884 1931 1946 1998 1940 1956 2012 2025 1882 1918 1947 1869 1957 2010 1942 2023 2041 1969 1967 2046 1986 1963 1964 1954 1897 1939 1935 1957 1918 1952 1951 2017 1868 2019 1931 1991 1920 1887 2007 1955 2009 1844 1913 1969 1945 1955 1914 1930 1889 1912 1875 1869 1941 1935 1939 1932 1940 1990 1903 1866 1923 1965 1940 1887 1961 1941 1943 1933 1927 1906 1943 1927 1987 1897 1944 1910 1939 1943 1902 1965 1914 1937 1953 1907 1958 1962 1927 1952 1899 1870 1841 1922 1885 1921 1844 1869 1860 1961 1877 1902 1878 1771 1926 1866 1810 1842 1859 1789 1888 1857 1863 1840 1901 1841 1877 1931 1860 1868 1836 1839 1896 1891 1768 1903 1901 1814 1799 1768 1878 1845 1787 1738 1762 1826 1786 1689 1704 1686 1777 1743 1769 1801 1784 1728 1816 1806 1734 1750 1741 1706 1680 1695 1724 1782 1894 1755 1790 1799 1785 1759 1721 1796 1778 1821 1703 1791 1766 1780 1863 1718 1747 1814 1817 1904 1824 1852 1802 1867 1876 1900 1895 1912 2019 2019 2073 2104 2045 2217 2185 2205 2217 2254 2387 2309 2330 2448 2487 2474 2582 2575 2590 2768 2764 2729 2766 2854 2794 2792 2759 2731 2699 2773 2724 2588 2616 2500 2438 2386 2260 2278 2211 2173 2136 2104 2102 2038 2065 1975 1999 1968 1995 1916 2002 2003 1930 1977 1878 1853 1983 1927 1973 1874 1928 1886 1852 1875 1839 1924 1858 1787 1795 1764 1818 1736 1716 1745 1738 1689 1655 1613 1658 1663 1681 1633 1701 1653 1587 1630 1634 1548 1695 1609 1558 1618 1588 1682 1590 1613 1562 1557 1616 1594 1587 1637 1593 1716 1614 1664 1666 1619 1644 1626 1615 1610 1612 1701 1711 1723 1861 1815 1849 1849 1851 1890 1881 2016 1976 2104 2103 2122 2172 2184 2115 2380 2330 2430 2407 2398 2501 2512 2511 2509 2595 2623 2676 2673 2624 2557 2539 2536 2522 2499 2441 2403 2363 2351 2337 2175 2194 2178 2126 1984 2112 2050 2009 2009 2121 2134 2040 2002 2056 2012 2032 2132 2215 2178 2248 2282 2296 2296 2405 2529 2514 2496 2659 2632 2698 2738 2758 2750 2819 2954 2875 2995 2940 2986 3006 3102 3075 3154 3032 2823 2959 2772 2732 2603 2645 2417 2385 2139 2108 2101 2012 1929 1943 1839 1751 1796 1673 1755 1748 1619 1723 1636 1767 1701 1738 1702 1674 1687 1727 1605 1627 1689 1715 1628 1595 1705 1647 1631 1600 1612 1619 1553 1582 1653 1593 1656 1668 1661 1669 1743 1628 1668 1753 1673 1702 1754 1762 1718 1771 1807 1785 1781 1810 1795 1800 1642 1760 1883 1782 1782 1807 1818 1787 1733 1721 1728 1768 1655 1730 1668 1672 1593 1556 1575 1539 1605 1555 1442 1527 1461 1558 1504 1507 1533 1478 1584 1487 1498 1474 1465 1500 1640 1467 1581 1509 1491 1548 1424 1496 1527 1419 1409 1504 1375 1377 1393 1483 1466 1425 1405 1464 1314 1367 1463 1325 1428 1399 1397 1356 1437 1345 1340 1390 1385 1357 1376 1303 1386 1362 1412 1393 1337 1364 1331 1281 1348 1419 1288 1326 1392 1300 1396 1422 1459 1333 1332 1364 1337 1358 1347 1378 1334 1354 1380 1335 1424 1337 1264 1446 1361 1349 1420 1403 1304 1336 1403 1376 1377 1338 1360 1398 1353 1318 1345 1325 1344 1388 1329 1356 1364 1415 1373 1386 1445 1393 1394 1304 1362 1390 1324 1448 1382 1509 1362 1369 1463 1416 1407 1464 1443 1411 1434 1449 1368 1487 1399 1485 1439 1477 1479 1449 1511 1521 1445 1490 1584 1508 1521 1492 1507 1598 1575 1597 1553 1582 1554 1546 1559 1548 1473 1499 1485 1494 1420 1494 1439 1466 1387 1466 1382 1448 1368 1475 1406 1391 1453 1382 1450 1438 1375 1378 1492 1426 1441 1414 1393 1392 1414 1497 1478 1403 1440 1403 1407 1425 1411 1487 1417 1428 1493 1383 1437 1460 1453 1366 1371 1459 1433 1438 1430 1405 1411 1475 1453 1460 1433 1443 1444 1455 1420 1426 1403 1474 1442 1538 1478 1459 1433 1460 1508 1457 1492 1463 1424 1489 1465 1556 1492 1512 1548 1503 1578 1512 1599 1529 1610 1498 1660 1556 1660 1641 1642 1632 1609 1654 1665 1724 1706 1634 1712 1804 1849 1844 1928 1915 1944 1995 2116 2098 2257 2324 2361 2436 2579 2771 2892 3020 3071 3193 3221 3417 3554 3521 3673 3763 3910 3965 4210 4228 4322 4441 4356 4462 4552 4462 4583 4597 4500 4405 4338 4303 4150 4113 4073 4067 3913 3837 3881 3803 3883 3885 3796 3918 3876 3953 3887 3919 4037 4007 4151 4151 4318 4343 4408 4520 4675 4547 4649 4588 4767 4827 4710 4672 4723 4709 4702 4858 4775 4679 4625 4589 4636 4388 4548 4373 4415 4458 4588 4533 4613 4380 4652 4432 4571 4478 4761 4595 4689 4699 4590 4597 4542 4235 4383 4258 4115 3851 3681 3519 3424 3147 3090 2761 2725 2518 2392 2277 2171 2113 1985 1904 1862 1951 1738 1764 1668 1724 1741 1629 1682 1625 1640 1636 1615 1534 1510 1560 1546 1524 1549 1519 1446 1449 1488 1452 1422 1471 1412 1421 1455 1423 1344 1333 1295 1366 1399 1356 1365 1373 1356 1352 1321 1337 1391 1328 1392 1374 1363 1323 1357 1254 1292 1324 1325 1335 1303 1308 1307 1276 1296 1289 1339 1319 1322 1367 1322 1348 1290 1398 1250 1288 1346 1313 1267 1242 1273 1291 1329 1302 1314 1335 1357 1311 1313 1271 1251 1325 1332 1233 1286 1277 1329 1287 1298 1255 1328 1263 1312 1316 1327 1316 1355 1286 1363 1254 1286 1268 1297 1225 1219 1300 1247 1296 1277 1307 1240 1258 1230 1294 1294 1266 1246 1220 1211 1256 1200 1262 1311 1281 1278 1288 1245 1269 1226 1204 1265 1248 1329 1280 1303 1270 1293 1208 1230 1237 1209 1273 1211 1273 1287 1254 1209 1176 1302 1232 1246 1205 1186 1254 1237 1240 1247 1204 1271 1259 1214 1179 1252 1205 1240 1230 1255 1225 1228 1217 1201 1219 1212 1222 1255 1234 1253 1296 1244 1219 1269 1285 1247 1219 1241 1303 1189 1291 1240 1201 1209 1280 1323 1283 1283 1287 1247 1273 1213 1244 1253 1255 1228 1318 1233 1321 1258 1238 1251 1318 1233 1264 1243 1280 1273 1326 1231 1258 1313 1222 1248 1289 1317 1311 1213 1242 1312 1353 1256 1263 1270 1303 1349 1340 1288 1358 1344 1354 1341 1310 1400 1324 1311 1292 1359 1329 1381 1411 1418 1437 1488 1279 1375 1356 1386 1301 1349 1424 1440 1360 1388 1352 1356 1370 1323 1274 1302 1283 1268 1260 1297 1305 1229 1217 1253 1199 1224 1232 1223 1224 1191 1187 1276 1204 1194 1180 1186 1213 1285 1156 1179 1184 1234 1248 1185 1140 1194 1229 1107 1132 1198 1133 1169 1199 1171 1259 1204 1158 1216 1132 1186 1201 1120 1220 1174 1171 1158 1213 1132 1133 1183 1188 1196 1130 1177 1152 1175 1137 1131 1147 1143 1135 1195 1158 1201 1126 1175 1138 1179 1176 1161 1127 1106 1150 1152 1167 1127 1178 1138 1125 1203 1182 1176 1162 1239 1104 1164 1117 1168 1170 1148 1178 1135 1155 1121 1137 1224 1131 1146 1203 1176 1108 1163 1135 1106 1192 1172 1117 1066 1108 1157 1122 1187 1151 1164 1134 1175 1097 1093 1071 1098 1201 1136 1155 1076 1129 1101 1124 1133 1108 1130 1116 1118 1089 1147 1158 1097 1086 1147 1074 1051 1084 1135 1151 1042 1139 1121 1153 1211 1147 1161 1240 1141 1103 1154 1146 1091 1073 1172 1099 1101 1107 1139 1098 1208 1104 1079 1106 1068 1080 1173 1150 1135 1104 1118 1120 1211 1073 1154 1173 1126 1150 1146 1085 1152 1095 1132 1176 1139 1108 1171 1102 1126 1125 1181 1192 1208 1224 1182 1132 1323 1234 1180 1230 1219 1222 1180 1245 1207 1313 1233 1265 1314 1260 1333 1322 1288 1268 1216 1348 1246 1287 1253 1269 1240 1277 1268 1286 1310 1265 1219 1285 1196 1230 1217 1178 1185 1153 1206 1152 1260 1287 1324 1206 1221 1167 1160 1140 1205 1233 1185 1150 1258 1180 1153 1206 1163 1151 1159 1109 1217 1154 1108 1129 1141 1121 1121 1174 1126 1172 1165 1137 1176 1158 1159 1149 1117 1133 1091 1119 1147 1093 1108 1117 1120 1090 1124 1119 1073 1075 1067 1078 1152 1185 1099 1100 1097 1153 1157 1117 1124 1140 1175 1138 1120 1103 1144 1155 1138 1141 1157 1096 1120 1113 1149 1102 1186 1091 1090 1159 1127 1049 1103 1126 1102 1152 1136 1112 1097 1087 1142 1094 1168 1130 1189 1162 1091 1141 1133 1149 1164 1172 1192 1189 1280 1238 1217 1306 1283 1271 1366 1282 1284 1307 1361 1340 1359 1354 1336 1372 1407 1384 1413 1400 1391 1435 1348 1339 1383 1379 1313 1380 1243 1292 1249 1240 1294 1224 1227 1280 1203 1214 1216 1198 1202 1155 1196 1160 1183 1167 1170 1185 1182 1141 1182 1172 1174 1176 1161 1134 1174 1176 1150 1179 1119 1105 1211 1129 1175 1142 1141 1088 1127 1029 1131 1111 1108 1124 1075 1074 1074 1117 1118 1103 1121 1113 1054 1049 1079 1070 1088 1082 1118 1071 1130 1112 1112 1086 1084 1091 1119 1077 1133 1049 1129 1107 1070 1123 1075 1119 1055 1122 1099 1098 1026 1063 1143 1107 1071 1082 1142 1060 1136 1158 1156 1083 1136 1078 1067 1090 1133 1057 1074 1079 1077 1078 1110 1171 1052 1123 1119 1080 1105 1146 1062 1116 1069 1136 1042 1086 1145 1116 1123 1048 1080 1103 1140 1122 1130 1123 1122 1085 1161 1128 1093 1143 1114 1121 1134 1121 1108 1110 1114 1096 1170 1104 1158 1095 1087 1095 1068 1096 1117 1076 1079 1122 1087 1102 1109 1094 1118 1096 1118 1087 1099 1089 1102 1156 1117 1150 1115 1125 1073 1094 1065 1150 1103 1091 1110 1075 1080 1110 1107 1096 1100 1099 1048 1052 1105 1143 1095 1073 1124 1125 1123 1056 1169 1077 1091 1133 1062 1104 1138 1105 1127 1138 1183 1058 1156 1097 1082 1102 1004 1093 1127 1110 1105 1074 1085 1144 1118 1142 1083 1125 1067 1134 1178 1196 1183 1216 1123 1157 1179 1222 1258 1175 1184 1281 1251 1312 1277 1328 1357 1344 1252 1376 1362 1358 1355 1392 1397 1405 1322 1360 1414 1448 1346 1291 1259 1288 1304 1274 1267 1276 1271 1244 1250 1227 1246 1238 1199 1207 1193 1163 1174 1175 1159 1181 1155 1150 1135 1076 1130 1186 1142 1119 1206 1196 1140 1101 1152 1132 1182 1169 1104 1156 1098 1108 1088 1093 1117 1165 1162 1170 1102 1110 1171 1153 1157 1147 1101 1167 1134 1161 1144 1141 1126 1155 1094 1181 1145 1264 1251 1199 1226 1152 1302 1287 1307 1272 1241 1255 1304 1280 1284 1304 1328 1315 1346 1326 1369 1280 1302 1254 1350 1294 1307 1313 1342 1256 1230 1293 1246 1260 1188 1205 1173 1223 1214 1223 1248 1192 1185 1174 1170 1202 1154 1080 1117 1124 1094 1165 1099 1111 1140 1167 1170 1162 1064 1139 1140 1070 1152 1182 1148 1118 1097 1119 1130 1191 1096 1114 1158 1088 1095 1081 1127 1062 1127 1097 1174 1072 1106 1109 1089 1078 1080 1106 1148 1098 1091 1159 1037 1176 1070 1145 1093 1063 1100 1143 1045 1055 1159 1097 1070 1100 1074 1045 1088 1056 1084 1110 1039 1056 1078 1048 1034 1098 1091 1112 1044 1095 1039 1022 1025 986 1047 1136 1072 1130 1050 1076 1090 1080 1078 1138 1055 1084 1007 1076 1040 1101 1084 1075 1104 1082 1107 1089 1160 1047 1055 1097 1112 1090 1149 1036 1063 1068 1046 1142 1089 1037 1057 1072 1144 1100 1058 1134 1077 1103 1097 1077 1155 1095 1065 1061 1019 1086 1062 1096 1098 1107 1139 1138 1136 1041 1103 1124 1125 1151 1136 1150 1100 1110 1147 1072 1095 1039 1096 1085 1081 1093 1036 1055 1133 1082 1092 1113 1065 1086 1080 1154 1082 1116 1044 1069 1067 1157 1088 1103 1148 1089 1108 1140 1142 1054 1088 1108 1140 1125 1069 1106 1094 1088 1119 1105 1130 1152 1083 1104 1062 1076 1107 1096 1084 1087 1092 1115 1147 1108 1115 1149 1141 1116 1112 1137 1138 1098 1186 1137 1140 1131 1170 1192 1145 1148 1176 1203 1150 1278 1190 1224 1243 1223 1226 1261 1255 1323 1295 1316 1293 1361 1387 1356 1384 1397 1457 1470 1439 1388 1494 1534 1572 1569 1628 1725 1667 1870 1891 2041 2201 2136 2229 2470 2471 2580 2787 2812 3022 3123 3332 3405 3570 3544 3589 3878 3886 3881 3906 3749 3877 3714 3605 3543 3429 3277 3243 3221 3028 2962 2794 2828 2557 2568 2507 2230 2242 2116 2051 1994 1985 1889 1797 1810 1771 1732 1719 1677 1654 1776 1676 1709 1718 1691 1656 1613 1634 1607 1565 1533 1461 1511 1460 1541 1492 1429 1412 1365 1355 1326 1390 1305 1258 1347 1291 1292 1196 1286 1304 1264 1285 1272 1252 1220 1284 1244 1263 1245 1273 1345 1299 1402 1328 1450 1552 1423 1416 1518 1540 1620 1702 1621 1683 1764 1856 1905 1988 2030 2203 2197 2197 2277 2352 2405 2453 2460 2440 2559 2492 2503 2424 2463 2432 2407 2372 2362 2316 2285 2177 2210 2105 2095 1999 1968 2042 1896 1740 1822 1758 1667 1595 1633 1544 1533 1453 1517 1452 1409 1440 1400 1356 1330 1289 1323 1306 1269 1253 1294 1261 1267 1210 1241 1238 1255 1171 1126 1167 1185 1190 1182 1179 1149 1148 1065 1175 1105 1102 1125 1052 1163 1108 1050 1175 1128 1131 1103 1111 1100 1074 1111 1123 1066 1075 1078 1094 1132 1125 1077 1193 1091 1145 1120 1146 1087 1184 1118 1157 1138 1051 1180 1101 1089 1073 1166 1068 1132 1110 1172 1197 1144 1191 1191 1197 1184 1132 1186 1143 1263 1217 1243 1253 1292 1229 1353 1295 1375 1378 1377 1377 1408 1429 1491 1416 1540 1494 1498 1493 1556 1566 1533 1655 1564 1635 1530 1521 1505 1502 1516 1470 1469 1427 1385 1372 1392 1321 1387 1319 1333 1297 1281 1262 1248 1262 1173 1263 1217 1220 1173 1226 1165 1189 1184 1148 1120 1101 1120 1154 1140 1170 1166 1136 1104 1112 1150 1113 1056 1040 1065 1068 1096 1066 1061 1022 1140 1042 1040 1042 1074 1077 1111 1047 1049 1076 1034 1074 1014 1046 1076 1010 1079 1077 1052 1076 1053 1083 1053 1076 1053 1040 1076 1050 1072 1048 1012 1085 1082 1062 1071 1082 1052 992 1021 1058 1056 1044 1044 1009 1095 1022 1020 1038 1010 1060 980 1054 997 1015 1104 1068 1100 1116 1072 1012 1064 1076 1076 1092 1047 1053 1044 1022 1059 1034 1014 1023 1025 1003 1064 1077 1073 1007 1034 1060 989 1023 1052 1041 1007 1028 1017 1005 996 1028 1028 1020 1058 984 974 1014 991 1025 1077 1038 979 1046 987 951 994 1016 1051 993 1034 1024 930 1028 1015 996 1028 959 1035 1000 989 1050 1021 992 1014 1013 991 993 1056 1114 1053 1022 992 1022 1046 1047 1004 1037 991 1055 984 983 1003 1005 1001 995 989 1027 992 1028 1024 994 1055 1014 1030 1009 1049 1063 1002 1027 984 1050 966 964 954 948 1016 1002 947 996 1021 990 1013 967 998 1032 995 1010 995 985 992 1009 971 961 1020 945 988 1005 985 993 1018 1016 954 924 929 1003 974 979 946 970 1014 971 993 980 965 967 1044 984 1000 1000 1022 940 955 1025 929 978 994 981 1000 1007 1016 1010 1013 961 918 966 951 1029 1021 960 1001 1009 984 1035 991 1011 1008 1045 1088 1022 1014 1032 1055 1080 1068 1054 1075 1089 1096 1036 1017 1054 1025 997 999 1033 1001 1011 1020 1038 974 1024 1009 1060 989 925 960 1059 997 1016 977 966 967 1018 1002 980 1014 934 974 1021 1020 998 1013 1006 997 932 942 974 1012 941 1013 1012 995 957 972 946 940 967 968 981 958 953 974 969 980 919 1033 1012 977 963 978 990 957 933 944 1018 985 986 1019 994 919 976 993 997 1052 948 971 973 968 941 947 996 976 944 972 986 982 974 973 969 934 976 943 926 978 975 978 964 1004 1015 1005 942 940 956 997 1011 999 960 951 1002 962 1006 1014 959 944 965 963 1000 971 974 903 976 1053 1013 1019 978 978 907 1016 982 920 943 950 955 912 1009 991 995 991 972 979 983 962 969 976 911 1023 910 979 952 995 1008 964 984 1034 1007 996 1004 987 940 1042 971 996 981 1009 996 991 936 1029 1003 974 947 1020 956 1010 1008 987 992 943 1000 1019 911 956 942 1003 930 942 951 945 937 1039 979 979 996 1006 986 979 960 943 966 1006 997 1029 953 1001 1001 1016 950 1008 934 980 921 956 964 1013 952 1003 936 948 961 1061 986 1034 1007 994 985 1035 978 1050 1022 1006 985 1046 978 950 1067 1029 1128 1052 1074 1053 1010 1018 1088 1066 1084 1082 1050 1111 1115 1126 1100 1078 1077 1109 1135 1078 1057 1006 1050 1071 993 1076 1083 1007 1008 1070 1010 1003 983 971 1013 1030 1084 987 975 1013 965 990 1009 1052 997 997 1003 1044 1011 1028 1003 965 1021 997 998 996 1015 1027 1014 1075 999 1097 1113 1076 1060 1084 1053 1159 1096 1056 1088 1056 1117 1147 1114 1139 1150 1141 1157 1134 1170 1143 1159 1103 1120 1116 1138 1133 1128 1085 1080 1072 1047 1096 1042 1062 1048 1036 1072 1029 1058 1008 1013 983 1073 1098 1004 955 994 1075 1056 1060 1004 1023 1025 1048 1002 978 1023 988 1051 994 930 1051 992 1061 1036 990 986 996 973 1015 987 997 1005 1029 936 928 955 978 986 961 1015 995 1004 1006 952 1021 1000 1035 966 997 1013 995 990 946 1022 1006 1028 973 978 973 1058 1056 985 1024 1004 1047 1051 1100 1041 1072 1112 1151 1094 1162 1165 1127 1232 1281 1245 1261 1289 1345 1425 1374 1467 1519 1597 1611 1564 1619 1565 1534 1568 1521 1569 1478 1509 1467 1485 1483 1510 1502 1459 1439 1385 1423 1340 1393 1330 1192 1301 1176 1188 1223 1087 1112 1123 1113 1128 1146 1089 1065 1054 1041 1017 1051 1029 1066 981 982 1005 1016 962 970 949 1067 1014 1007 1031 1059 944 1007 918 1029 997 991 996 967 1046 992 1017 983 921 976 958 981 1029 993 994 953 1013 951 1005 1048 956 1013 1010 990 933 1000 1003 952 1008 980 982 1019 985 967 990 961 1014 1005 960 1006 965 1002 955 975 949 978 960 971 957 992 970 900 954 998 1034 976 984 929 995 952 968 958 997 961 931 1009 959 1052 1047 1056 1018 1036 1053 1056 1090 1058 1126 1114 1138 1229 1163 1245 1220 1289 1243 1209 1279 1297 1365 1357 1437 1346 1382 1465 1452 1452 1473 1437 1486 1439 1398 1481 1537 1447 1478 1531 1577 1555 1508 1534 1518 1445 1450 1509 1487 1472 1404 1490 1427 1401 1419 1376 1314 1329 1342 1328 1334 1283 1290 1318 1217 1268 1245 1182 1191 1219 1134 1175 1204 1134 1067 1157 1079 1100 1078 1085 1076 1092 1127 1068 1104 1025 1031 1043 1067 1054 1027 1046 1067 1006 1056 976 1051 1004 1057 1132 1009 1016 1045 1032 1036 1067 1014 1062 1032 1043 1017 1065 1000 1003 994 1053 973 1066 993 1024 1041 989 1102 987 1028 990 1015 1112 1051 1007 1002 1088 1049 1053 1116 1122 1043 1139 1114 1105 1158 1183 1162 1123 1206 1223 1244 1317 1256 1271 1236 1219 1251 1143 1220 1258 1224 1237 1207 1202 1246 1200 1106 1178 1080 1134 1078 1085 1148 1122 1094 1086 1085 1107 1067 1104 1047 1002 1078 1053 1047 1022 1033 1032 1055 971 988 994 1020 1016 974 1007 1056 1014 1051 1061 1024 1008 942 982 965 996 1012 976 1019 1043 1013 961 995 1044 1044 1120 1068 1101 1048 993 1097 1058 1086 1042 1007 1144 1068 1113 1119 1080 1131 1092 1175 1155 1182 1142 1077 1101 1045 1174 1142 1161 1038 1131 1128 1108 1086 1091 1115 1064 1083 1086 1122 1075 1079 1102 1179 1066 1083 1067 1079 1075 1060 1082 1088 1002 1090 1079 1033 1057 1047 983 1000 1007 941 991 976 1005 1022 994 994 958 1007 1011 944 994 992 1075 964 984 1015 1006 957 984 1096 967 1046 970 923 1043 1057 1020 1073 988 1080 1053 1021 1025 1024 995 999 1103 1033 1044 1039 1075 1026 1014 1032 1026 1018 978 993 997 1023 1059 1010 1004 1046 989 959 942 1025 1024 956 901 974 961 971 971 985 923 940 986 958 996 939 982 915 923 936 909 932 995 962 964 986 888 918 919 1004 999 986 931 963 912 977 932 913 886 953 971 927 915 943 926 923 926 939 998 1002 973 896 959 932 964 962 1068 954 950 1014 987 1031 983 1009 992 1015 1022 986 991 972 967 1002 950 1001 986 981 1038 1027 1020 927 1001 930 1043 925 993 994 945 944 951 963 1001 952 922 936 972 957 943 970 944 958 906 913 946 954 928 919 915 974 952 929 970 903 891 934 909 942 919 925 932 984 920 989 935 942 906 913 901 920 907 949 940 946 919 933 827 1003 932 922 912 919 935 948 932 835 909 947 923 891 848 904 906 949 886 932 976 943 930 936 904 893 964 863 923 923 928 914 925 851 933 893 930 835 872 952 910 955 963 944 934 912 900 922 1003 834 853 954 920 908 904 902 917 875 940 905 923 905 951 955 925 932 863 908 906 918 885 915 923 830 909 965 921 898 879 967 838 925 881 884 896 896 893 947 863 913 907 920 894 917 892 946 917 928 899 903 908 966 926 877 883 901 913 897 944 908 916 924 915 894 884 911 921 942 949 897 916 901 850 896 895 892 838 913 951 911 932 907 936 894 908 891 936 870 909 906 885 871 862 873 894 915 923 933 863 922 913 890 952 881 900 959 876 888 916 921 942 904 895 925 878 871 908 935 925 925 933 919 976 938 903 888 899 916 853 961 891 882 900 946 928 897 897 953 921 876 908 928 899 951 937 883 880 907 947 872 928 857 911 962 924 886 879 906 911 920 922 885 895 898 925 1007 923 879 890 995 930 935 940 903 933 965 911 902 921 930 953 921 930 876 912 1008 888 958 953 907 898 942 940 903 1009 885 1013 942 969 945 926 1047 982 992 1008 1050 1023 961 1059 930 974 931 938 986 1022 949 930 971 911 956 960 986 947 944 994 977 929 1030 927 913 950 935 940 932 897 1003 900 953 948 941 936 928 884 971 898 918 906 937 961 950 952 993 912 968 931 959 910 921 937 936 932 942 995 978 978 946 991 996 951 926 980 989 950 940 935 929 960 1006 961 902 957 953 903 934 1009 954 867 857 952 968 982 934 950 959 998 909 990 936 913 936 908 969 979 957 976 931 953 916 937 944 953 983 942 918 946 1008 906 925 945 955 970 929 880 920 921 908 916 925 921 992 942 944 903 876 914 924 897 929 942 969 909 920 954 927 927 890 971 907 916 935 858 948 900 941 875 967 892 897 939 896 919 917 868 886 881 927 895 917 915 884 876 884 875 897 918 937 853 901 894 989 907 881 943 911 910 921 884 950 931 909 930 930 859 912 892 938 873 963 872 890 886 890 907 922 940 867 876 870 884 867 928 863 883 908 930 967 865 914 894 862 917 880 908 897 919 884 887 932 911 900 919 881 899 906 856 878 901 862 914 912 921 871 895 896 868 903 855 897 906 917 890 907 910 855 875 949 902 963 936 877 881 893 952 901 917 903 917 914 900 959 887 915 883 945 901 942 918 942 900 874 899 911 885 874 915 943 925 959 981 913 900 937 924 930 919 981 1030 960 1058 973 1030 993 1019 1014 1066 1015 1058 1071 1068 981 1086 1025 1061 1054 1006 1012 1046 1020 1002 1019 1020 1034 990 1015 1083 1026 1000 1057 1039 1065 990 982 960 1005 1016 961 988 984 975 973 958 1055 937 906 999 957 931 926 935 958 957 988 989 913 973 901 961 916 921 960 998 929 923 934 914 899 946 913 967 947 981 960 920 985 963 954 944 936 937 956 976 1024 960 986 989 961 968 1011 1019 1024 1025 1081 1044 1012 1006 1032 1037 1067 1046 1017 1036 1026 980 936 984 1020 989 959 959 1036 967 996 988 982 942 949 991 951 960 1016 958 975 920 933 995 953 925 1029 987 965 992 945 941 960 931 937 941 901 998 955 988 1023 943 1020 1060 1027 967 1028 1051 1045 1001 1041 1027 1035 998 1056 993 1060 1076 1069 1057 1003 1087 1043 1040 1040 1086 1052 1026 1007 989 1034 1031 1054 1017 1035 994 1015 998 929 974 963 1000 1055 978 948 961 1040 1007 931 987 965 941 919 918 883 954 916 859 897 922 907 875 892 955 924 949 978 884 895 922 900 873 924 901 924 938 913 903 923 909 909 901 889 848 909 910 893 943 875 919 860 946 923 911 899 909 949 852 867 885 871 877 890 906 844 858 906 914 968 888 903 856 923 910 931 918 885 872 870 863 871 868 904 832 866 939 886 896 878 896 914 900 889 868 913 891 909 855 847 883 894 879 861 893 870 896 854 914 874 879 904 911 924 926 910 878 858 880 905 901 885 847 827 879 918 891 853 889 891 920 911 860 875 834 839 838 929 932 940 899 886 922 918 841 911 887 860 952 940 848 857 853 888 875 852 883 865 957 897 887 915 914 867 913 908 929 868 872 840 814 933 903 882 885 927 859 915 922 978 865 868 902 829 902 874 879 937 848 866 952 860 962 922 916 946 928 921 884 858 890 930 924 910 884 911 890 897 869 826 891 912 896 892 880 878 877 903 912 963 927 907 890 944 921 844 863 914 833 901 903 889 925 886 907 930 883 905 864 958 883 886 905 904 900 863 886 874 905 951 868 931 893 889 827 872 890 949 846 911 943 915 898 932 937 905 931 882 895 962 884 894 926 888 869 890 946 904 885 844 919 886 855 868 850 877 860 910 895 874 930 947 909 953 867 915 917 959 885 952 871 901 914 889 863 903 904 887 899 847 952 913 824 921 817 874 908 923 864 847 890 901 875 851 890 889 907 884 912 880 919 885 913 907 851 938 872 896 835 908 942 900 826 934 871 913 906 861 879 897 859 904 889 919 894 906 953 843 889 880 896 908 867 915 886 860 901 854 872 897 934 872 927 924 851 871 878 936 934 869 964 885 885 866 884 961 901 923 874 890 906 879 871 923 887 933 915 905 853 830 904 929 914 887 931 881 880 957 913 934 948 929 862 931 926 852 886 926 948 871 926 889 902 933 941 906 904 918 929 944 890 917 917 898 914 937 903 886 930 923 901 957 1005 867 933 889 931 959 931 858 855 941 911 956 974 845 933 974 913 981 954 967 1040 988 1000 1030 995 975 982 988 989 961 995 1009 977 1089 1026 1032 1002 965 951 979 914 1004 1009 947 917 990 998 1022 1016 924 1022 922 963 973 993 907 990 993 963 964 939 890 892 974 943 915 972 965 915 968 972 977 940 984 943 857 930 943 866 966 949 965 927 970 971 955 999 1060 998 946 983 929 1002 921 893 956 1006 988 970 951 969 948 873 1012 915 959 1017 926 940 963 919 941 955 919 952 921 977 950 985 964 908 947 954 892 991 919 933 964 940 915 895 947 921 961 892 884 959 910 923 924 932 946 952 987 933 940 921 949 915 955 884 899 890 924 877 907 880 894 932 897 894 877 932 904 905 885 886 921 901 889 853 871 856 890 895 919 884 875 903 907 922 894 928 892 850 850 893 947 946 952 878 903 927 908 910 1005 922 869 972 899 925 911 920 967 936 958 929 939 912 871 899 868 915 866 907 956 953 891 940 912 888 943 898 877 937 934 902 944 892 971 929 918 974 1003 884 935 948 949 913 951 992 985 960 950 1000 975 975 1023 943 1019 974 993 1067 1076 1118 982 1014 1011 1057 1104 1088 1086 1110 1175 1113 1101 1127 1107 1140 1040 1115 1040 1085 1083 1037 1108 1091 1033 1089 1090 1098 1059 1078 1082 1102 1065 1057 1107 1092 1145 1076 1073 1092 1097 1032 1083 1080 1007 1043 1091 1063 1039 1056 1129 1082 1045 1105 1171 1130 1182 1211 1117 1269 1323 1186 1264 1287 1282 1335 1229 1323 1259 1323 1274 1372 1367 1314 1340 1313 1331 1369 1372 1309 1307 1392 1302 1360 1340 1346 1320 1409 1363 1264 1273 1345 1295 1234 1351 1355 1297 1229 1247 1191 1215 1184 1197 1231 1169 1188 1092 1119 1095 1113 1120 1079 1096 1057 1139 1086 1091 1072 1059 1062 1048 992 1026 1009 1022 1046 1013 980 1009 1023 1018 1008 943 1048 1010 966 945 990 986 950 915 926 974 978 964 980 1004 982 921 956 943 884 926 925 953 916 941 978 1003 930 915 975 943 929 944 974 925 954 1008 951 928 894 985 966 938 973 947 938 892 960 920 936 886 908 945 924 894 897 972 955 957 948 969 942 886 937 931 947 990 957 968 937 911 972 981 973 925 907 907 931 968 931 881 973 984 967 993 995 944 977 993 1006 961 1012 996 1026 1093 1007 1074 1049 1043 1150 1141 1090 1098 1127 1121 1193 1217 1188 1157 1261 1307 1316 1341 1403 1319 1329 1350 1328 1400 1429 1372 1367 1366 1346 1385 1425 1289 1329 1301 1332 1305 1326 1287 1308 1317 1286 1315 1288 1288 1291 1208 1192 1256 1199 1201 1229 1191 1212 1181 1116 1185 1129 1109 1095 1017 1113 1003 1036 1016 1032 1013 1083 1019 1052 950 1004 949 990 974 971 979 939 937 933 1012 936 970 885 956 887 996 945 948 914 903 868 910 918 960 890 899 935 896 954 942 931 924 877 942 965 947 913 949 893 929 905 960 880 906 859 944 975 978 864 899 894 903 931 903 856 921 932 975 903 888 905 965 896 908 911 915 875 905 882 864 914 937 919 954 959 929 872 978 872 940 893 979 904 948 987 911 951 926 886 923 975 878 963 949 957 941 921 902 914 943 938 978 934 968 955 917 967 935 981 994 922 863 919 918 897 896 842 934 961 964 907 896 896 932 908 938 954 898 901 933 910 959 920 897 896 921 920 965 887 912 936 938 891 860 918 983 916 971 889 936 913 918 936 921 881 902 921 939 953 887 930 897 971 953 887 915 951 904 923 970 931 890 919 890 873 940 935 901 871 942 935 966 918 895 886 920 889 898 889 899 876 932 880 908 908 861 877 922 917 896 886 864 898 904 924 890 909 910 899 887 905 861 927 947 916 869 870 873 895 948 889 885 907 880 942 882 851 908 907 807 906 898 947 891 904 902 876 921 903 886 909 872 853 917 925 960 866 917 920 868 895 945 950 934 899 933 912 924 901 893 915 923 875 904 885 966 952 876 915 911 895 901 908 889 929 923 889 944 949 901 899 911 886 831 960 871 938 878 913 890 929 890 904 882 901 930 893 899 919 950 910 892 879 855 899 947 962 893 897 905 883 929 924 883 854 972 879 859 895 894 866 909 910 894 899 919 946 932 855 882 872 968 899 856 863 914 871 872 878 932 883 905 888 879 891 909 847 924 920 909 865 892 930 897 934 916 934 858 921 931 903 891 908 1007 890 908 858 899 931 904 931 937 918 945 884 907 914 894 931 921 913 939 891 915 909 938 989 920 943 902 923 883 949 912 986 953 864 948 888 892 952 915 953 907 900 949 910 908 941 960 963 948 931 918 920 913 961 929 931 898 946 892 910 892 942 884 931 915 911 925 902 884 919 903 916 916 909 890 897 949 913 882 871 898 943 956 905 877 967 941 925 933 948 951 923 938 926 955 940 938 937 957 933 871 943 953 909 924 900 882 978 976 901 961 881 943 905 967 963 917 904 956 942 926 922 943 951 938 865 888 911 936 890 882 924 909 888 886 932 942 945 927 947 908 929 896 929 869 907 903 865 903 912 858 959 967 908 873 892 884 879 933 910 916 916 890 927 869 889 882 917 893 924 887 924 888 932 909 871 902 910 852 917 875 865 896 866 895 852 979 885 849 969 859 891 898 910 938 864 887 906 927 886 940 938 955 932 934 942 899 887 957 948 858 860 943 915 861 893 896 922 916 938 861 877 923 948 873 881 855 864 931 940 923 894 906 927 915 869 944 887 953 956 996 937 970 899 864 900 928 946 967 871 891 927 926 923 869 932 899 884 869 938 988 881 939 945 888 943 898 911 898 941 879 924 973 953 968 903 869 911 947 929 906 919 953 928 874 894 916 953 940 958 986 971 982 990 992 955 1009 970 1003 1024 1094 1052 1045 1078 1062 1144 1168 1184 1123 1192 1228 1260 1228 1295 1241 1205 1225 1257 1236 1236 1165 1172 1147 1144 1150 1181 1087 1134 1115 1134 1115 1091 1124 1104 1107 1057 1171 1172 1154 1185 1101 1097 1138 1093 1123 1127 1180 1063 1049 999 1066 1013 1030 1074 981 1001 1026 981 1082 985 962 1003 1085 944 988 998 991 955 976 1030 987 964 931 988 965 964 971 961 949 1000 987 983 959 979 974 1051 1009 1005 1084 1044 1051 1022 1025 1028 1001 1010 984 1056 1040 1042 952 1007 924 966 985 1088 957 950 1021 986 963 1015 952 973 976 975 963 987 1004 972 947 1023 983 974 967 941 989 960 969 978 951 960 955 898 930 914 877 930 962 868 969 938 961 936 922 952 903 943 976 890 942 878 924 943 903 905 1011 916 937 947 883 949 899 897 971 872 940 885 943 926 906 949 920 973 927 962 903 937 924 996 933 899 977 988 916 955 919 971 950 958 927 919 969 929 986 932 1010 951 964 955 1031 938 967 958 913 955 963 963 966 971 916 974 936 946 928 977 992 1001 954 1007 972 996 1019 985 994 1024 1032 1012 1071 1050 1031 1060 1048 1052 1022 1041 1083 1055 1070 1023 1002 1048 1035 1044 1053 1098 1044 1002 992 1049 1000 1017 958 1045 976 1027 1043 980 1008 995 1029 1019 1018 1037 971 979 988 935 996 983 963 966 1010 930 957 936 962 941 972 923 930 933 922 931 941 922 914 934 888 950 888 941 997 958 951 900 928 856 915 900 926 904 882 868 976 883 901 896 909 835 886 889 903 976 898 942 905 914 907 875 927 906 881 907 893 824 864 860 957 939 889 952 926 896 956 912 913 984 978 946 916 909 924 896 901 951 982 955 955 951 876 975 907 896 946 875 885 908 886 844 977 1012 923 927 940 922 876 905 922 922 886 915 893 919 949 953 903 920 877 916 883 959 899 915 859 909 927 845 881 893 941 888 912 920 925 913 894 878 917 882 943 936 900 893 892 950 913 901 871 899 858 871 878 920 889 928 897 848 912 932 922 897 958 935 890 930 941 913 876 868 827 944 847 884 901 876 928 877 898 919 854 865 853 859 927 861 875 834 884 872 899 953 899 909 902 932 882 870 882 927 930 952 892 956 853 924 885 920 821 935 931 895 917 897 909 935 898 881 880 842 936 932 881 871 887 882 879 907 856 961 906 925 915 845 907 884 922 869 825 865 897 894 910 884 924 876 956 934 908 928 891 886 893 883 903 905 901 916 943 895 849 923 905 911 879 929 913 876 890 870 879 860 882 896 927 894 918 887 949 864 907 861 903 857 863 855 897 907 881 890 904 882 864 870 892 883 869 885 914 906 882 845 879 837 917 864 907 925 943 871 846 886 885 888 883 903 934 901 917 816 881 867 868 860 826 905 866 926 859 892 842 842 887 875 875 908 934 865 866 870 873 870 906 888 901 872 915 905 923 880 895 888 882 880 882 846 904 947 860 886 899 938 920 886 878 933 911 939 885 917 926 921 913 889 940 978 885 988 945 941 924 912 931 975 960 899 928 930 944 952 940 902 981 910 891 923 959 883 880 903 949 954 919 948 892 931 915 903 882 862 943 926 834 966 906 908 950 928 922 941 903 875 894 974 971 972 895 888 907 900 872 926 933 906 951 958 918 925 935 918 925 942 902 884 957 925 901 921 900 924 927 853 920 915 880 922 889 892 876 888 938 940 911 885 882 924 930 949 961 943 855 939 920 926 948 876 926 947 924 927 912 894 961</counts>
			</dataPoints>
		</scan>
	</xrdMeasurement>
</xrdMeasurements>
