<?xml version="1.0"?>
<xrdMeasurements xmlns="http://www.xrdml.com/XRDMeasurement/2.3" xmlns:xsi="http://www.w3.org/2001/XMLSchema-instance" xsi:schemaLocation="http://www.xrdml.com/XRDMeasurement/2.3 http://www.xrdml.com/XRDMeasurement/2.3/XRDMeasurement.xsd" status="Completed" recordIdentifier="{7009C127-7B3F-4D7A-BCCD-7119958DE62D}">
	<comment>
		<entry/>
	</comment>
	<sample type="To be analyzed">
		<id>GPSS_Li1p65Mn0p70Fe0p25V0p15Cl4_121825_6943d914f4d05ae3d69790ab</id>
		<name></name>
		<preparedBy></preparedBy>
	</sample>
	<xrdMeasurement measurementType="Scan" status="Completed" sampleMode="Reflection">
		<usedWavelength intended="K-Alpha 1">
			<kAlpha1 unit="Angstrom">1.5405980</kAlpha1>
			<kAlpha2 unit="Angstrom">1.5444260</kAlpha2>
			<kBeta unit="Angstrom">1.3922500</kBeta>
			<ratioKAlpha2KAlpha1>0.5000</ratioKAlpha2KAlpha1>
		</usedWavelength>
		<incidentBeamPath>
			<radius unit="mm">145.00</radius>
			<xRayTube id="1010048" name="Empyrean Cu LFF HR (9430 033 7310x)">
				<tension unit="kV">40.0</tension>
				<current unit="mA">15.0</current>
				<anodeMaterial>Cu</anodeMaterial>
				<focus type="Line">
					<length unit="mm">12.0</length>
					<width unit="mm">0.4</width>
					<takeOffAngle unit="deg">6.0</takeOffAngle>
				</focus>
			</xRayTube>
			<sollerSlit id="21010002" name="Soller slits 0.04 rad.">
				<opening unit="rad">0.0400</opening>
			</sollerSlit>
			<mask id="22031000" name="Fixed mask 13 mm">
				<width unit="mm">9.00</width>
			</mask>
			<divergenceSlit id="22120001" name="Divergence slit 1°" xsi:type="fixedDivergenceSlitType">
				<distanceToSample unit="mm">50.00</distanceToSample>
				<height unit="mm">1.52</height>
			</divergenceSlit>
		</incidentBeamPath>
		<sampleMovement xsi:type="spinningSampleMovementType">
			<spinnerRevolutionTime unit="seconds">1.0</spinnerRevolutionTime>
		</sampleMovement>
		<diffractedBeamPath>
			<radius unit="mm">145.00</radius>
			<antiScatterSlit id="22090040" name="AS slit 9 mm (PIXcel)" xsi:type="fixedAntiScatterSlitType">
				<height unit="mm">9.00</height>
			</antiScatterSlit>
			<sollerSlit id="21020003" name="Large Soller slits 0.04 rad.">
				<opening unit="rad">0.0400</opening>
			</sollerSlit>
			<filter id="20030001" name="Large beta-filter Nickel">
				<material>Ni</material>
				<thickness unit="mm">0.020</thickness>
			</filter>
			<detector id="7010019" name="PIXcel1D-Medipix3 detector" xsi:type="rtmsDetectorType">
				<phd unit="keV">
					<lowerLevel>4.02</lowerLevel>
					<upperLevel>11.27</upperLevel>
				</phd>
				<mode>Scanning</mode>
				<activeLength unit="deg">5.542</activeLength>
			</detector>
		</diffractedBeamPath>
		<scan appendNumber="0" mode="Continuous" scanAxis="Gonio" status="Completed">
			<header>
				<startTimeStamp>2025-12-19T11:05:23-08:00</startTimeStamp>
				<endTimeStamp>2025-12-19T11:13:30-08:00</endTimeStamp>
				<author>
					<name>AutomatedUser</name>
				</author>
				<source>
					<applicationSoftware version="1.7b (136)">PANalytical Aeris Instrument Suite</applicationSoftware>
					<instrumentControlSoftware version="3.2.00000000 20240306">AERIS</instrumentControlSoftware>
					<instrumentID>950485</instrumentID>
				</source>
			</header>
			<dataPoints>
				<positions axis="2Theta" unit="deg">
					<startPosition>10.00943322</startPosition>
					<endPosition>99.99442286</endPosition>
				</positions>
				<positions axis="Omega" unit="deg">
					<startPosition>5.00471661</startPosition>
					<endPosition>49.99721143</endPosition>
				</positions>
				<commonCountingTime unit="seconds">12.495</commonCountingTime>
				<counts unit="counts">3310 3194 3351 3142 3199 3116 3216 3264 3305 3253 3331 3211 3172 3240 3196 3198 3309 3119 3245 3222 3284 3286 3363 3260 3196 3374 3282 3251 3156 3186 3298 3239 3236 3404 3240 3366 3345 3379 3212 3320 3297 3343 3392 3363 3309 3314 3286 3326 3227 3208 3315 3338 3301 3323 3248 3395 3249 3375 3465 3362 3242 3397 3500 3444 3347 3361 3475 3473 3319 3448 3555 3543 3408 3337 3488 3442 3453 3544 3457 3511 3545 3588 3527 3574 3469 3683 3501 3569 3562 3478 3668 3482 3558 3650 3432 3603 3725 3490 3496 3555 3517 3527 3571 3606 3588 3555 3578 3484 3591 3435 3475 3492 3493 3421 3421 3507 3535 3484 3407 3503 3492 3481 3557 3528 3581 3559 3477 3603 3466 3589 3410 3435 3612 3427 3501 3478 3666 3391 3491 3523 3551 3499 3488 3512 3463 3473 3559 3612 3519 3565 3579 3480 3512 3431 3537 3543 3494 3557 3541 3543 3504 3466 3448 3488 3504 3376 3336 3463 3599 3597 3424 3621 3620 3398 3542 3460 3473 3506 3507 3490 3494 3457 3542 3420 3441 3540 3435 3437 3377 3488 3582 3506 3459 3467 3617 3536 3509 3577 3563 3454 3319 3444 3504 3490 3433 3538 3434 3404 3420 3377 3463 3418 3370 3467 3390 3387 3420 3469 3406 3418 3580 3464 3469 3355 3441 3557 3457 3471 3478 3402 3520 3313 3363 3416 3466 3491 3460 3416 3423 3457 3350 3461 3319 3361 3323 3315 3292 3386 3298 3381 3437 3310 3432 3361 3486 3431 3356 3338 3370 3359 3310 3293 3357 3377 3328 3338 3381 3343 3277 3314 3242 3365 3467 3368 3614 3340 3330 3413 3275 3388 3400 3409 3374 3430 3346 3473 3373 3378 3425 3272 3345 3466 3270 3255 3351 3336 3367 3458 3262 3368 3357 3457 3461 3373 3467 3439 3424 3488 3474 3395 3386 3526 3360 3345 3496 3474 3522 3521 3409 3347 3469 3557 3449 3451 3427 3556 3459 3494 3439 3451 3463 3405 3599 3524 3477 3566 3519 3540 3435 3423 3521 3514 3635 3597 3497 3483 3596 3534 3609 3606 3575 3554 3720 3467 3685 3643 3730 3501 3583 3614 3615 3585 3642 3587 3713 3711 3615 3573 3627 3545 3641 3671 3653 3582 3648 3714 3710 3809 3669 3771 3847 3799 3812 3842 3815 3785 3858 3908 3694 3831 3824 3824 3800 3890 3860 3835 3837 4133 3939 3909 3953 3922 3899 3899 4030 4134 3870 4137 4216 4256 4232 4181 4297 4280 4355 4485 4642 4810 4938 5111 5148 5241 5386 5560 5734 5861 6023 5879 6112 6157 5987 5936 5934 5806 5527 5533 5413 5244 5176 5158 4929 4940 4841 4602 4653 4668 4437 4560 4417 4434 4371 4272 4292 4268 4293 4093 4119 4082 4051 3968 3939 3915 3919 3901 3833 3894 3818 3854 3809 3943 3903 3937 3778 3881 3721 3848 3884 3594 3816 3737 3671 3728 3787 3707 3816 3655 3779 3740 3621 3742 3606 3689 3565 3696 3699 3789 3662 3605 3629 3635 3555 3537 3621 3483 3624 3651 3679 3529 3580 3513 3502 3563 3498 3557 3400 3552 3531 3472 3513 3508 3576 3522 3511 3446 3549 3418 3570 3489 3402 3433 3481 3372 3401 3325 3426 3386 3442 3442 3339 3488 3324 3520 3350 3402 3457 3382 3434 3368 3340 3291 3427 3302 3359 3332 3427 3284 3278 3333 3451 3327 3330 3337 3230 3338 3297 3347 3315 3182 3241 3332 3268 3311 3275 3337 3301 3274 3317 3360 3235 3316 3136 3456 3279 3315 3137 3154 3217 3267 3276 3312 3113 3209 3232 3275 3175 3295 3350 3232 3161 3252 3421 3173 3288 3203 3147 3223 3193 3173 3220 3236 3296 3138 3177 3177 3135 3209 3162 3103 3115 3169 3121 3099 3196 3145 3111 3261 3137 3216 3289 3188 3240 3146 3176 3109 3176 3205 3243 3122 3263 3097 3119 3237 3161 3120 3151 3082 3206 3248 3206 3176 3177 3097 3146 3141 3152 3074 3138 3110 3019 3176 3163 3213 3042 3181 3185 3140 3194 3195 3212 3107 3159 3115 3223 3074 3189 3143 3113 3090 3170 3172 3109 3071 3190 3172 3103 3233 3162 3189 3135 3150 3166 3116 3092 3116 3118 3059 3110 3148 3154 3088 3129 3046 3046 3069 3051 3054 3124 3080 3076 2999 3114 3122 3051 3137 3082 3036 3112 3067 3104 3166 2969 3114 2997 2937 3092 3052 3087 3009 3031 3047 3059 3030 3058 3102 3085 3074 3161 3115 3032 3105 3095 3079 3192 3130 3056 3050 3089 3074 3099 3125 3066 3042 3020 2897 3006 3037 3073 3021 2906 3068 3080 3044 3076 3031 3060 3059 3007 3050 2927 2928 3040 2986 2998 2988 3150 3005 3027 2873 2993 3119 2967 3052 2987 3071 3070 2943 2984 2947 2995 2905 2975 2897 2966 2950 3005 2969 3000 2929 3020 2967 2984 2961 2918 3015 2994 3033 2901 2987 2979 2815 3069 3042 2921 3002 2979 3058 2953 3041 2979 3020 3034 2940 2939 2971 2991 2997 2978 2948 2920 2923 2960 2931 2931 2965 2861 3020 2939 3004 2814 2997 2884 2940 2886 2910 2973 2920 2900 3013 2981 2944 2957 2870 2947 2944 2921 2979 2835 2880 2910 2913 2922 2954 2937 2962 2946 2877 2900 2965 2888 2868 2878 2920 2895 2980 2882 2909 2909 2925 2936 2956 2839 2894 2926 2827 2825 2917 2855 2904 2899 2945 2912 2911 2931 2930 2816 2944 2835 2823 2902 2940 2807 2946 2888 2901 2968 2876 2792 2845 2843 2866 2895 2848 2890 2856 2872 2815 2931 2837 2851 2797 2902 2704 2842 2801 2820 2880 2779 2883 2800 2842 2861 2826 2822 2859 2787 2888 2830 2810 2776 2868 2671 2894 2808 2898 2786 2805 2773 2802 2913 2851 2876 2741 2691 2813 2758 2859 2850 2841 2769 2761 2860 2787 2815 2823 2841 2804 2801 2810 2840 2689 2770 2812 2751 2760 2888 2750 2808 2828 2839 2774 2776 2838 2855 2804 2798 2781 2842 2750 2782 2824 2780 2769 2879 2640 2781 2834 2805 2870 2788 2883 2759 2832 2814 2718 2810 2801 2735 2774 2817 2823 2772 2754 2840 2824 2821 2788 2793 2796 2823 2791 2791 2766 2717 2725 2833 2784 2785 2731 2844 2833 2873 2850 2963 2808 2720 2735 2835 2663 2809 2833 2823 2836 2788 2762 2769 2806 2878 2872 2751 2746 2909 2878 2901 2821 2756 2780 2773 2782 2845 2718 2891 2747 2908 2878 2878 2794 2780 2822 2856 2752 2781 2804 2809 2822 2893 2802 2844 2770 2720 2749 2846 2732 2909 2901 2740 2801 2808 2692 2747 2884 2903 2798 2840 2801 2856 2708 2800 2735 2714 2867 2748 2772 2788 2695 2706 2754 2792 2764 2764 2688 2883 2724 2719 2734 2734 2786 2815 2823 2670 2758 2751 2736 2698 2659 2710 2669 2682 2637 2718 2745 2728 2732 2745 2726 2715 2599 2799 2652 2649 2669 2750 2640 2635 2564 2765 2676 2671 2764 2748 2689 2667 2690 2692 2679 2604 2613 2657 2603 2682 2594 2675 2694 2600 2629 2656 2706 2681 2683 2738 2558 2622 2506 2700 2610 2511 2566 2533 2605 2603 2524 2569 2627 2548 2652 2575 2557 2561 2511 2582 2441 2453 2520 2521 2500 2483 2494 2543 2438 2558 2513 2485 2560 2472 2437 2445 2403 2442 2444 2439 2430 2493 2481 2435 2441 2399 2414 2437 2462 2444 2484 2399 2456 2470 2469 2455 2447 2385 2342 2384 2334 2407 2368 2326 2246 2364 2374 2366 2332 2471 2315 2378 2384 2354 2362 2391 2396 2375 2335 2298 2389 2298 2410 2375 2331 2330 2360 2306 2257 2283 2215 2369 2282 2297 2269 2324 2281 2309 2220 2317 2249 2163 2247 2245 2262 2300 2274 2236 2273 2244 2203 2251 2318 2201 2184 2171 2310 2280 2233 2179 2222 2229 2333 2246 2208 2182 2175 2313 2247 2215 2218 2210 2263 2245 2195 2204 2160 2181 2112 2244 2156 2227 2216 2218 2208 2129 2104 2230 2223 2164 2202 2167 2213 2164 2211 2145 2128 2099 2253 2164 2205 2214 2165 2246 2115 2166 2178 2191 2196 2197 2172 2169 2058 2151 2172 2164 2189 2032 2236 2160 2198 2144 2201 2133 2091 2245 2129 2120 2146 2259 2174 2094 2152 2188 2243 2095 2076 2131 2120 2162 2095 2119 2198 2089 2154 2154 2144 2125 2126 2175 2171 2150 2180 2101 2139 2084 2102 2220 2146 2122 2133 2156 2179 2124 2164 2102 2101 2190 2078 2171 2140 2180 2132 2132 2143 2111 2262 2226 2202 2186 2140 2186 2183 2149 2163 2235 2162 2137 2083 2143 2118 2190 2151 2187 2184 2212 2134 2253 2209 2151 2177 2120 2088 2152 2097 2119 2149 2203 2186 2139 2125 2231 2230 2198 2135 2173 2159 2185 2163 2153 2199 2219 2094 2206 2194 2086 2173 2239 2200 2186 2081 2273 2214 2173 2163 2195 2193 2189 2250 2068 2201 2151 2253 2191 2260 2179 2114 2167 2126 2192 2177 2214 2173 2265 2172 2069 2140 2184 2208 2234 2259 2229 2228 2194 2186 2132 2087 2187 2134 2194 2154 2133 2248 2158 2172 2110 2087 2107 2169 2111 2089 2188 2123 2107 2110 2193 2207 2123 2105 2175 2182 2135 2067 2198 2042 2202 2107 2070 2119 2148 1985 2116 2066 2096 2042 2020 2109 2100 2077 2095 2065 2028 2102 2133 2162 2079 2058 2013 2071 2020 2019 1937 2088 2018 2078 2036 2029 2000 2069 1980 2056 1979 2031 2026 1991 2045 1974 2059 1987 2014 2033 1991 2064 1926 1909 1918 1994 1983 1983 1999 2051 1934 1984 2037 1936 1949 1923 2003 1930 2008 1952 1956 1937 1911 1985 1988 2032 1950 1922 1855 1917 1930 1918 1980 2005 1870 1907 1947 1912 1837 1844 1839 1839 1928 1867 1863 1914 1840 1884 1909 1896 1817 1877 1944 1930 1891 1886 1867 1965 1883 1869 1916 1882 1922 1937 2041 1856 1864 1899 1908 1816 1837 1812 1857 1922 1861 1900 1876 1925 1859 1842 1863 1864 1865 1956 1801 1884 1830 1827 1849 1918 1878 1941 1961 1942 2054 2122 2183 2143 2193 2283 2461 2521 2543 2752 2829 2960 3011 3132 3282 3387 3301 3363 3460 3312 3373 3227 3150 3070 2966 2762 2812 2614 2558 2528 2399 2441 2307 2175 2325 2199 2245 2138 2116 2053 1973 1983 1945 1983 1869 1905 1926 1932 1956 1793 1884 1785 1853 1823 1764 1811 1889 1743 1823 1809 1813 1699 1661 1796 1778 1719 1688 1732 1741 1691 1737 1791 1717 1632 1749 1702 1705 1680 1690 1703 1730 1680 1678 1678 1711 1733 1693 1718 1696 1675 1729 1652 1686 1635 1696 1694 1679 1769 1655 1671 1709 1714 1716 1823 1776 1773 1779 1721 1744 1746 1756 1791 1781 1759 1891 1845 1921 2009 2001 2088 2242 2303 2480 2579 2737 2880 3106 3292 3509 3766 3906 4234 4376 4722 4554 4659 4706 4513 4524 4366 4228 3977 3969 3668 3591 3428 3086 2977 2904 2713 2624 2505 2341 2311 2217 2167 2170 2112 2012 2033 2002 1976 1946 1892 1822 1818 1836 1739 1804 1681 1790 1790 1714 1714 1726 1771 1703 1661 1755 1704 1690 1684 1667 1674 1708 1687 1658 1614 1681 1630 1611 1630 1649 1576 1591 1547 1554 1533 1582 1516 1636 1498 1509 1580 1679 1573 1546 1620 1485 1537 1536 1576 1558 1589 1565 1558 1623 1553 1630 1527 1558 1486 1476 1512 1552 1525 1561 1534 1570 1538 1599 1633 1598 1601 1610 1574 1578 1547 1528 1550 1556 1489 1581 1483 1526 1585 1652 1568 1560 1551 1536 1551 1558 1580 1610 1630 1534 1528 1560 1589 1495 1466 1565 1478 1556 1520 1520 1475 1589 1570 1475 1563 1424 1539 1537 1512 1473 1461 1479 1507 1437 1484 1499 1397 1427 1480 1465 1426 1529 1465 1515 1491 1480 1484 1544 1440 1531 1425 1425 1544 1439 1521 1488 1553 1447 1481 1409 1483 1442 1496 1453 1486 1559 1515 1467 1461 1451 1508 1418 1414 1470 1451 1468 1476 1445 1478 1495 1463 1434 1523 1431 1494 1588 1430 1489 1484 1450 1512 1508 1535 1452 1423 1443 1484 1486 1514 1506 1500 1450 1485 1473 1465 1518 1517 1448 1436 1418 1454 1474 1493 1442 1409 1434 1452 1498 1494 1478 1502 1425 1481 1352 1521 1490 1476 1538 1497 1497 1470 1437 1497 1450 1502 1555 1544 1546 1525 1533 1597 1503 1522 1501 1502 1490 1567 1499 1499 1456 1528 1473 1550 1582 1543 1497 1524 1563 1594 1579 1512 1505 1528 1546 1512 1573 1526 1580 1563 1567 1567 1574 1492 1483 1523 1459 1545 1470 1472 1534 1502 1450 1466 1433 1499 1519 1493 1455 1415 1438 1418 1492 1441 1499 1411 1426 1437 1474 1404 1471 1482 1443 1481 1514 1503 1560 1417 1479 1529 1459 1438 1555 1542 1567 1478 1503 1441 1442 1439 1524 1451 1521 1522 1471 1549 1450 1494 1485 1460 1440 1504 1382 1473 1524 1486 1484 1443 1508 1496 1590 1443 1489 1491 1417 1499 1519 1504 1484 1515 1493 1419 1416 1466 1470 1443 1399 1514 1571 1451 1509 1429 1548 1476 1513 1437 1511 1446 1607 1548 1524 1515 1530 1515 1480 1517 1533 1571 1560 1567 1613 1566 1655 1581 1595 1585 1670 1680 1602 1691 1734 1684 1705 1720 1718 1630 1808 1843 1950 1919 1975 1998 2136 2331 2493 2635 2877 3176 3611 3821 4356 4870 5438 5994 6964 7480 8332 8963 9503 9884 10460 10664 11166 10995 10966 10788 10423 10173 9515 8946 8668 7937 7677 6897 6701 5952 5632 5054 4735 4311 4119 3784 3560 3323 3181 2966 2760 2834 2648 2511 2377 2307 2210 2167 2114 2052 2072 2008 1871 1910 1773 1933 1850 1749 1714 1683 1700 1669 1696 1617 1653 1703 1648 1702 1653 1633 1614 1583 1551 1694 1617 1604 1519 1598 1561 1585 1532 1602 1546 1517 1388 1461 1412 1602 1493 1476 1526 1467 1452 1427 1462 1458 1399 1493 1434 1465 1402 1499 1414 1413 1461 1476 1420 1456 1528 1443 1429 1390 1498 1467 1464 1456 1434 1544 1462 1464 1447 1418 1408 1490 1391 1428 1423 1486 1417 1425 1382 1353 1425 1412 1437 1470 1416 1445 1411 1451 1394 1465 1405 1432 1493 1397 1403 1374 1384 1417 1373 1405 1396 1363 1376 1491 1363 1389 1382 1447 1388 1408 1366 1352 1398 1398 1409 1379 1391 1327 1371 1411 1336 1323 1298 1332 1328 1306 1421 1329 1432 1322 1438 1404 1389 1362 1323 1354 1345 1362 1439 1358 1305 1332 1345 1347 1334 1398 1366 1331 1368 1370 1348 1215 1339 1316 1363 1357 1263 1405 1357 1354 1311 1396 1389 1352 1290 1360 1381 1328 1339 1304 1319 1263 1356 1272 1330 1358 1292 1272 1350 1365 1332 1287 1329 1301 1346 1271 1293 1314 1281 1376 1281 1284 1302 1339 1337 1304 1355 1301 1361 1331 1308 1297 1309 1353 1376 1336 1302 1263 1323 1311 1353 1292 1320 1308 1305 1368 1365 1333 1277 1334 1370 1368 1259 1254 1353 1348 1325 1363 1246 1296 1274 1334 1319 1355 1290 1392 1276 1325 1310 1304 1339 1321 1364 1392 1395 1371 1313 1322 1335 1431 1379 1376 1472 1425 1431 1441 1472 1398 1461 1463 1404 1421 1428 1375 1449 1438 1349 1430 1423 1396 1382 1347 1357 1343 1427 1365 1332 1358 1308 1309 1300 1317 1320 1284 1266 1257 1338 1249 1309 1252 1254 1288 1333 1268 1321 1288 1265 1294 1282 1273 1227 1287 1364 1358 1383 1292 1283 1291 1342 1290 1373 1275 1225 1301 1311 1284 1322 1269 1321 1268 1301 1295 1271 1177 1342 1295 1281 1305 1295 1262 1214 1272 1223 1311 1305 1288 1239 1292 1245 1225 1227 1217 1243 1253 1239 1289 1313 1261 1316 1256 1290 1244 1266 1269 1274 1300 1290 1317 1248 1253 1279 1206 1283 1255 1307 1248 1288 1196 1282 1159 1322 1248 1250 1201 1245 1258 1250 1318 1218 1275 1226 1298 1209 1276 1244 1258 1220 1276 1297 1224 1258 1237 1256 1216 1245 1259 1273 1270 1265 1182 1197 1225 1182 1185 1217 1275 1304 1231 1265 1223 1266 1270 1220 1227 1263 1243 1266 1197 1256 1196 1220 1233 1247 1295 1272 1159 1159 1196 1218 1233 1234 1260 1212 1244 1223 1294 1187 1177 1281 1256 1257 1358 1218 1267 1251 1176 1212 1230 1249 1199 1232 1211 1337 1289 1278 1223 1243 1227 1198 1177 1314 1197 1228 1232 1257 1207 1242 1185 1266 1231 1302 1205 1200 1216 1227 1264 1230 1274 1245 1236 1250 1246 1265 1190 1210 1205 1218 1259 1250 1245 1166 1227 1189 1194 1186 1193 1200 1188 1193 1172 1173 1261 1248 1254 1162 1221 1231 1269 1247 1269 1191 1193 1246 1178 1163 1241 1239 1236 1237 1201 1230 1295 1209 1213 1246 1188 1184 1239 1185 1253 1264 1260 1258 1267 1247 1169 1244 1233 1229 1234 1223 1196 1187 1268 1252 1154 1237 1261 1209 1219 1229 1225 1237 1183 1207 1240 1183 1217 1270 1227 1194 1256 1305 1247 1170 1168 1172 1208 1233 1219 1230 1189 1253 1196 1276 1146 1209 1238 1153 1191 1210 1205 1215 1133 1289 1260 1279 1305 1157 1255 1254 1290 1266 1200 1239 1186 1236 1157 1214 1231 1220 1255 1225 1183 1219 1268 1173 1228 1172 1231 1199 1273 1212 1207 1234 1171 1176 1202 1222 1187 1251 1209 1208 1209 1120 1153 1230 1186 1193 1199 1234 1289 1162 1224 1152 1190 1220 1279 1231 1200 1139 1192 1166 1253 1252 1245 1237 1141 1193 1245 1208 1228 1167 1156 1178 1204 1185 1185 1196 1226 1254 1161 1229 1217 1223 1225 1230 1209 1237 1229 1178 1192 1244 1230 1153 1265 1229 1191 1193 1182 1219 1221 1199 1166 1231 1226 1151 1218 1227 1211 1192 1234 1280 1225 1195 1231 1198 1125 1169 1170 1193 1198 1261 1199 1257 1232 1251 1296 1238 1216 1188 1226 1215 1208 1150 1217 1189 1236 1223 1224 1256 1196 1286 1221 1184 1221 1261 1234 1163 1199 1239 1215 1199 1194 1143 1207 1175 1149 1144 1180 1231 1197 1189 1190 1179 1188 1200 1272 1230 1182 1161 1211 1278 1209 1269 1241 1238 1144 1216 1207 1253 1165 1173 1230 1154 1204 1166 1176 1143 1191 1202 1222 1196 1186 1189 1212 1240 1263 1197 1271 1178 1223 1236 1164 1191 1184 1238 1206 1167 1196 1174 1186 1195 1205 1161 1192 1183 1214 1197 1196 1219 1212 1209 1176 1267 1211 1209 1221 1171 1229 1168 1216 1112 1167 1163 1206 1181 1244 1206 1211 1250 1243 1245 1183 1233 1208 1180 1224 1198 1191 1137 1197 1185 1216 1233 1223 1163 1155 1235 1226 1154 1252 1188 1299 1217 1308 1158 1254 1218 1203 1256 1197 1218 1210 1190 1221 1238 1199 1197 1247 1201 1221 1236 1200 1209 1181 1226 1208 1218 1241 1227 1164 1255 1222 1255 1261 1168 1252 1200 1265 1168 1216 1191 1179 1240 1135 1258 1176 1227 1247 1225 1203 1217 1164 1168 1230 1201 1294 1232 1150 1212 1207 1254 1222 1143 1203 1209 1213 1191 1192 1244 1204 1255 1188 1245 1129 1238 1260 1175 1193 1205 1237 1182 1208 1212 1251 1178 1283 1254 1220 1283 1260 1229 1304 1301 1378 1372 1270 1479 1461 1485 1556 1670 1728 1814 1852 1949 1946 2066 2053 2185 2216 2152 2179 2216 2148 2114 2058 2066 2050 1987 1918 1943 1867 1799 1746 1761 1690 1684 1630 1541 1476 1514 1480 1352 1393 1369 1290 1275 1300 1269 1238 1258 1289 1189 1267 1292 1226 1304 1205 1230 1253 1247 1215 1260 1230 1280 1179 1197 1184 1137 1180 1187 1164 1199 1157 1185 1237 1201 1149 1241 1114 1152 1192 1131 1278 1200 1231 1175 1208 1158 1126 1209 1146 1197 1157 1197 1220 1162 1184 1167 1194 1213 1232 1168 1157 1223 1187 1247 1190 1160 1137 1180 1174 1147 1118 1142 1178 1149 1106 1142 1149 1135 1212 1156 1171 1148 1248 1213 1141 1154 1190 1124 1222 1086 1222 1186 1189 1164 1163 1202 1187 1118 1145 1153 1162 1184 1182 1178 1097 1122 1158 1178 1113 1215 1181 1089 1129 1197 1139 1154 1174 1167 1180 1188 1136 1140 1191 1148 1189 1162 1141 1166 1177 1159 1155 1165 1094 1147 1184 1166 1176 1173 1112 1128 1129 1179 1171 1196 1166 1168 1238 1083 1158 1196 1165 1170 1186 1145 1152 1128 1149 1220 1174 1223 1160 1107 1205 1183 1199 1168 1134 1122 1110 1153 1191 1172 1165 1221 1169 1110 1136 1107 1156 1171 1136 1072 1161 1156 1114 1161 1156 1252 1133 1210 1193 1171 1148 1179 1169 1118 1185 1117 1193 1255 1206 1194 1164 1171 1207 1152 1221 1132 1188 1230 1153 1199 1156 1144 1230 1125 1197 1174 1235 1174 1215 1198 1161 1193 1238 1147 1191 1139 1148 1179 1214 1179 1154 1186 1183 1225 1158 1172 1113 1216 1190 1181 1130 1233 1225 1196 1126 1215 1134 1173 1123 1148 1211 1162 1259 1163 1182 1180 1173 1179 1183 1232 1153 1147 1187 1158 1201 1125 1158 1134 1113 1160 1184 1193 1132 1189 1167 1133 1119 1135 1202 1158 1127 1126 1187 1175 1215 1143 1162 1170 1198 1227 1192 1173 1155 1203 1201 1119 1229 1162 1168 1203 1177 1190 1156 1265 1234 1267 1186 1184 1210 1237 1194 1243 1207 1187 1216 1199 1309 1197 1219 1190 1184 1178 1206 1209 1239 1239 1280 1327 1296 1239 1266 1314 1233 1356 1259 1294 1349 1360 1432 1356 1271 1354 1432 1382 1482 1473 1493 1559 1709 1737 1877 1967 2134 2376 2639 2717 3164 3470 3756 4307 4426 4815 5090 5268 5503 5524 5710 5609 5571 5469 5331 5407 5137 4995 5067 4838 4582 4533 4220 4070 3836 3602 3554 3319 3085 2814 2728 2589 2361 2288 2142 2058 2050 1802 1803 1766 1745 1674 1655 1584 1572 1531 1524 1387 1486 1423 1369 1384 1389 1295 1347 1255 1311 1237 1294 1221 1234 1203 1229 1269 1217 1283 1279 1262 1185 1146 1213 1234 1209 1191 1165 1133 1211 1126 1228 1255 1171 1210 1271 1148 1170 1210 1227 1251 1213 1208 1186 1217 1231 1269 1196 1196 1217 1155 1143 1227 1213 1232 1228 1219 1198 1235 1129 1191 1202 1236 1263 1236 1254 1192 1221 1216 1178 1193 1143 1202 1151 1165 1157 1156 1253 1166 1225 1201 1190 1170 1225 1120 1173 1172 1186 1160 1197 1163 1220 1161 1241 1161 1151 1189 1173 1222 1182 1151 1127 1150 1195 1172 1201 1192 1184 1092 1127 1192 1134 1124 1215 1053 1158 1146 1200 1163 1183 1122 1187 1135 1079 1170 1220 1135 1101 1128 1116 1190 1127 1155 1132 1130 1193 1143 1138 1122 1196 1131 1126 1127 1130 1176 1147 1148 1126 1185 1140 1167 1167 1112 1118 1211 1112 1165 1245 1104 1142 1098 1122 1140 1188 1201 1166 1184 1107 1205 1189 1182 1233 1232 1237 1298 1338 1366 1430 1552 1494 1502 1564 1641 1614 1652 1676 1632 1661 1630 1619 1571 1560 1592 1561 1628 1480 1505 1569 1557 1426 1422 1398 1412 1379 1409 1349 1236 1367 1282 1199 1189 1335 1215 1183 1239 1152 1173 1170 1124 1199 1243 1161 1141 1153 1170 1136 1199 1126 1142 1196 1133 1102 1138 1121 1154 1120 1145 1073 1136 1160 1121 1104 1148 1136 1091 1064 1134 1105 1127 1127 1141 1141 1051 1111 1149 1133 1067 1145 1124 1135 1129 1128 1132 1140 1109 1122 1033 1149 1042 1198 1165 1116 1166 1070 1047 1070 1090 1112 1118 1136 1093 1111 1097 1103 1095 1105 1083 1116 1136 1124 1091 1137 1064 1086 1127 1086 1146 1069 1087 1123 1093 1129 1168 1070 1107 1071 1096 1100 1152 1139 1091 1087 1052 1053 1039 1098 1101 1073 1122 1109 1100 1159 1091 1111 1103 1116 1098 1109 1090 1104 1042 1027 1060 1142 1117 1048 1102 1080 1158 1067 1029 1040 1138 1093 1041 1114 1074 1015 1074 1034 1030 1070 1108 1043 1101 1059 1123 1131 1114 1076 1144 1121 1095 1056 1052 1084 1130 1052 1113 1070 1054 1144 1098 1043 1121 1075 1108 1043 1079 992 1104 1078 1067 1160 1119 1109 1099 1130 1094 1045 1091 1061 1126 1105 1099 1075 1053 1103 1076 1064 1087 1164 1081 1107 1119 1041 1064 1015 1019 1024 1072 1109 1126 1006 1072 1021 1110 1119 1082 1040 1109 1099 1055 1038 1056 1124 1072 1065 1117 1029 1063 1074 1046 1043 1064 1048 1037 1093 1127 1093 1069 1083 1112 1050 1126 1073 1053 1101 1066 1065 1126 1050 1031 1033 1068 1110 1094 1064 1054 1078 1039 1092 1086 1102 985 1066 1025 1047 1058 1088 1029 1026 1045 1091 1053 1081 1159 1091 1040 1050 1030 1114 1024 1126 1052 982 1052 1088 1069 1091 1128 1086 1129 1040 1073 996 1094 1096 988 1063 1018 1047 1069 1065 1025 1120 1100 1070 1053 1005 1061 1057 1081 1045 1007 1092 1080 1121 1060 1094 1092 1112 1024 1024 1010 1075 1042 1097 1102 1038 1090 1060 1090 1062 1050 1026 1084 1032 1053 1040 1036 1034 1109 1054 1080 1067 1107 1011 1073 1108 1021 1065 1044 1066 989 1039 1076 1126 1063 1043 1102 1046 1045 1052 1062 1036 1057 1043 990 1025 1056 1018 1108 1103 1086 1040 1039 1070 997 1017 1100 1024 1102 1003 1044 1044 1094 1041 1073 1045 1104 1070 1037 1070 1030 1124 1042 1082 1046 1052 1037 1029 1033 1036 1050 1078 1049 1072 1039 1060 1043 1050 1038 1059 1075 1050 1038 1014 1050 1041 1099 1016 1094 1031 1106 1056 1048 1107 1021 1064 1059 1104 1107 989 1066 1069 1075 1112 1085 1018 1085 1075 1070 1077 1016 1086 1081 1026 1029 1043 1078 1059 1047 1088 1072 1024 1046 1094 1055 1054 1032 1022 1024 1058 1052 1048 1037 1068 1022 1030 1019 1044 1026 1038 1051 1073 1023 1059 1016 1042 1050 1051 1016 1063 1090 1056 1017 1053 1012 1087 1053 1024 1049 1043 1104 1006 1044 1076 1053 1054 1042 1034 1068 1099 1084 985 1092 982 1036 1031 1081 1052 1059 1092 1078 1014 1036 1062 1033 1104 1100 1098 1024 1069 974 1061 1125 1054 1035 1128 1108 1093 1068 1112 1096 1095 1053 1175 1058 1114 1144 1141 1113 1183 1182 1153 1201 1180 1171 1165 1157 1112 1198 1095 1143 1154 1132 1140 1117 1052 1097 1140 1124 1118 1130 1145 1048 1124 1085 1135 1133 1059 1150 1102 1086 1057 1051 1055 1045 1048 1103 1086 1023 1020 1067 1050 1064 1064 1105 1091 1069 1025 1173 1116 1170 1131 1155 1148 1189 1149 1161 1210 1270 1255 1314 1340 1305 1439 1454 1522 1461 1494 1546 1580 1583 1520 1431 1532 1509 1463 1490 1521 1402 1434 1414 1416 1399 1348 1335 1338 1362 1364 1292 1260 1183 1284 1172 1171 1132 1247 1105 1144 1155 1134 1108 1089 1113 1115 1072 1071 1098 1131 1063 1104 1082 1038 1054 1119 1037 1037 1091 1039 1095 1062 1005 1065 1012 1071 1044 1008 1061 1031 1017 1065 1036 1076 1086 1052 1044 1043 1067 997 1097 1039 1112 1110 1050 1068 1030 1095 1096 1082 1050 1084 1076 1037 1052 1021 1092 972 1076 1062 1033 1085 1124 1076 1090 1032 1092 1045 1053 1073 975 1073 1053 1101 1080 1077 1066 1050 1036 1062 1072 1044 1064 1065 1064 1056 1033 1050 1005 1047 1005 1043 1070 1067 1098 1080 1076 1032 1048 1051 1001 1070 974 1018 1043 1037 1046 1032 1095 1044 1060 1060 1030 1031 1110 1037 1040 1027 1050 1045 1031 1026 1027 989 1030 1049 1044 1014 1007 1015 1016 1014 1064 1030 1028 1041 998 1071 1042 1055 1015 961 1089 1036 1000 1016 992 1057 1049 1012 1086 1085 1053 1056 983 1032 1074 1122 1038 1053 1010 1074 1044 1077 1082 1043 1073 1054 1058 993 1022 1045 1026 1067 1063 1022 987 1053 1036 1006 1072 1063 1043 1119 1054 1069 1052 1037 1049 1073 1061 1048 1019 1082 1032 1048 1025 1028 1023 1039 1037 1097 1040 1140 1047 1133 1072 1170 1137 1060 1101 1115 1091 1124 1118 1157 1050 1148 1157 1208 1199 1179 1260 1385 1422 1429 1532 1583 1612 1612 1740 1806 1938 1975 1978 2101 2139 2086 2053 2123 2032 2013 1867 1829 1879 1888 1842 1806 1790 1876 1750 1768 1765 1721 1665 1673 1579 1615 1508 1464 1413 1450 1379 1270 1274 1208 1230 1232 1199 1215 1168 1156 1242 1153 1140 1170 1140 1144 1078 1075 1079 1172 1070 1082 1075 1042 1081 1116 1143 1049 1028 1075 1074 1076 997 955 1059 1079 1079 1044 1086 1049 999 1021 1047 1014 1021 1030 1069 1028 1029 1040 982 1073 1084 981 1115 1082 1072 1065 1059 1066 1055 1004 1011 990 1071 1078 1096 1005 1020 1041 988 1017 1049 1039 994 1075 1008 1058 1035 1034 1028 1045 1065 997 985 1066 1032 993 996 959 1097 995 1025 1036 995 1031 1075 1013 1046 1067 968 1012 1013 1044 1009 975 1007 969 1064 1055 1024 983 998 1049 980 1067 983 1049 1012 998 1024 1076 1113 1047 989 1040 1056 1029 1022 994 1056 1059 1013 1053 985 1007 1013 998 1069 1056 1019 1112 1009 1082 1029 1037 1080 1080 1054 1094 1016 1073 1078 1088 1091 1050 1132 1138 1143 1116 1148 1270 1193 1226 1236 1201 1247 1234 1207 1301 1277 1258 1297 1283 1213 1270 1201 1182 1186 1210 1248 1203 1167 1168 1235 1229 1129 1122 1169 1182 1183 1187 1099 1108 1029 1060 1095 1091 1047 1047 1055 1037 1044 1057 1020 1030 997 990 1046 1003 1002 1064 980 986 1064 968 1004 984 1026 1036 1017 1035 986 1018 975 990 1015 997 932 989 1001 1012 983 969 1030 991 1079 1020 988 1051 1037 1010 1065 971 1028 1007 1026 1034 1067 1003 954 1011 1002 1035 1023 1029 987 978 1034 1014 977 1010 1014 1050 982 1019 930 1028 1003 1000 991 1022 1016 1031 936 1000 1004 955 1003 986 1025 959 968 959 1025 1021 991 956 1023 966 979 1036 1008 1068 998 1051 1008 1015 1007 1008 959 1009 1003 1080 1049 1052 1007 1010 939 1008 963 1005 1011 1072 959 944 974 1004 1093 983 1013 999 1035 998 1042 1007 1015 931 1053 1010 949 1000 1059 1024 995 947 956 986 991 984 977 977 986 983 996 957 1008 940 1077 964 967 990 1022 973 967 991 984 1056 1031 1035 1025 973 937 953 1017 1072 965 1005 1014 965 981 991 945 1007 974 975 1039 970 940 980 981 1006 1009 965 965 988 997 1035 968 1089 996 962 1035 972 973 1008 968 996 1000 1020 972 996 963 1008 994 899 1001 971 928 1003 1021 1005 991 991 970 1012 972 989 964 968 995 955 976 1010 1003 1003 901 988 985 997 994 939 1006 947 1009 1029 1016 1027 991 979 1042 967 1022 958 970 1002 1028 942 1024 989 995 1016 1026 929 1041 948 986 1023 1028 967 950 988 1010 971 977 1039 1019 980 934 979 985 1029 1008 977 1021 1035 1007 1014 1001 974 1015 1000 959 1018 1066 1004 1027 1004 989 953 960 978 1037 998 1003 1000 1002 961 954 968 965 991 993 1000 977 995 978 940 989 996 974 968 976 960 981 1074 1011 989 928 978 981 1025 958 1028 983 1001 1023 926 990 979 978 983 1019 970 1030 970 997 970 968 949 988 974 956 964 1065 990 945 998 1020 982 970 983 1070 1009 1023 975 1016 948 975 985 1033 1047 998 1015 1006 1000 952 965 990 984 953 1044 1041 1001 1005 946 977 939 975 1018 945 1055 956 955 958 983 1019 991 992 1018 988 1008 1002 968 992 1009 948 913 1029 1014 981 995 981 1001 957 996 960 955 992 1001 1012 1004 985 939 1022 1022 1002 996 955 991 985 1007 1004 1016 999 937 1024 975 1019 993 990 1021 981 984 934 964 936 932 974 1022 1045 983 985 1024 973 996 993 1013 983 1022 992 936 967 991 972 1033 997 984 1030 993 1051 1106 1129 1101 1095 1123 1148 1160 1200 1082 1088 1118 1155 1138 1045 1114 1152 1135 1090 1082 1027 1103 1016 1085 1077 1073 1123 1077 1090 1088 1063 1069 1051 1039 1057 990 1083 1030 1047 1055 1053 954 1030 999 985 1028 1046 1054 1026 951 965 1023 1032 963 971 1047 971 957 997 997 977 1033 1001 994 971 1035 978 991 956 1009 1016 960 915 991 946 1016 975 981 957 959 1011 945 1011 921 961 953 997 977 953 985 946 998 1039 988 999 987 971 923 1016 955 959 999 967 987 976 993 981 975 1007 955 972 918 930 986 1013 981 1013 1001 961 990 1022 965 966 939 978 948 967 953 1014 1027 907 933 984 978 920 919 992 941 988 969 1028 964 990 982 992 968 943 937 1018 995 995 912 957 947 989 1002 977 969 1025 1009 981 987 939 992 951 952 952 993 964 935 1008 1028 963 920 999 976 939 983 970 973 961 931 987 996 1025 989 995 929 989 948 1018 1027 962 989 973 944 937 975 965 910 947 1007 940 967 964 940 962 974 963 978 974 974 972 964 974 957 997 962 952 966 922 976 927 971 962 928 986 985 997 1017 978 930 1002 919 998 1004 996 968 979 983 933 923 979 997 986 943 979 1007 1015 946 946 952 977 990 1008 1002 1005 971 998 984 1006 942 941 937 1063 1005 985 1011 1036 936 936 948 1023 1019 981 1008 968 980 1036 997 998 932 1015 1053 994 996 1019 1000 1041 1033 1043 995 990 1014 1025 1043 1097 1099 1120 1125 1142 1158 1190 1210 1228 1305 1266 1288 1224 1374 1375 1410 1347 1358 1326 1366 1316 1345 1322 1365 1342 1316 1303 1318 1344 1282 1273 1234 1211 1194 1218 1216 1243 1203 1241 1191 1210 1141 1217 1185 1120 1158 1210 1092 1059 1058 1034 1026 1071 1068 1047 1038 946 985 1025 999 1036 1021 963 1024 1009 1001 979 996 991 977 1019 1021 964 981 912 999 968 974 1014 991 992 974 999 986 1019 976 982 959 977 1001 967 978 1008 990 1039 982 952 991 936 976 978 1008 953 999 977 999 1005 987 963 1001 957 949 950 928 1005 988 984 1011 953 1045 1029 999 1013 942 954 992 1000 960 1039 954 973 980 950 902 970 923 992 927 935 978 963 930 969 1003 941 961 1040 968 958 990 1006 950 1007 960 985 957 966 1004 943 972 1024 974 946 942 932 988 977 978 1005 962 977 942 939 980 995 1022 931 919 985 1004 982 974 950 963 912 970 947 977 953 946 987 1000 942 997 958 1009 950 930 931 999 1038 985 986 998 886 950 995 974 977 937 952 953 975 975 997 995 931 910 990 932 972 909 997 968 966 965 1008 941 971 1023 1013 910 971 930 942 985 948 1001 935 962 980 1015 926 952 958 982 950 992 963 936 964 979 927 964 961 976 946 941 970 971 994 953 1006 951 982 951 952 933 949 976 990 956 992 984 935 1008 1034 1011 991 1018 982 979 1008 911 1020 987 969 941 931 976 910 943 985 932 967 981 918 960 962 979 976 977 1003 969 991 960 978 973 966 973 975 986 969 983 952 974 1011 899 950 961 969 966 956 927 986 910 944 949 925 917 1006 942 944 997 948 957 962 1044 996 1009 1001 978 999 1015 952 982 944 976 960 950 936 998 980 951 965 964 949 967 972 931 933 1008 1025 949 1017 929 908 964 940 986 969 938 976 1024 936 962 970 972 950 971 993 945 992 945 985 948 983 987 944 939 1017 992 962 949 936 983 1008 959 1032 956 1028 979 968 917 962 949 953 1006 936 1020 1011 958 976 907 980 990 939 950 951 921 952 966 1015 920 987 980 959 936 1000 928 949 970 930 966 995 917 1013 970 964 1011 915 955 963 962 981 953 974 973 989 987 913 923 975 952 970 929 962 944 995 1035 970 975 911 952 959 940 993 1019 967 979 962 972 952 938 972 970 956 1005 1025 982 943 948 946 908 954 976 1001 972 1013 956 980 942 974 958 975 906 919 952 971 940 1038 946 960 892 949 954 971 959 949 1017 903 996 1018 947 975 967 975 939 981 969 955 945 1027 952 953 957 1001 929 966 944 975 918 973 919 1003 920 969 950 932 948 931 939 965 961 985 974 934 986 919 1011 899 973 992 963 907 947 927 971 1008 951 984 964 930 1025 998 952 949 972 1011 959 926 988 1019 987 987 990 976 958 966 959 961 938 984 937 913 983 948 962 963 986 952 1026 970 897 957 969 959 958 992 975 990 984 946 924 984 985 1006 936 950 1001 1012 977 1006 942 1012 960 1026 1030 958 971 907 992 967 994 971 993 1005 915 984 941 975 982 990 998 969 1025 1000 985 1010 970 1017 1072 1003 1002 1043 995 1002 1025 1009 975 1021 1068 1017 1020 1024 1047 1052 981 1047 1036 1054 1042 1042 1096 1100 1059 1134 1073 1137 1079 1048 1111 1019 1076 1060 1091 1043 1099 1044 1009 1004 993 1089 1060 1071 1079 1054 1057 982 1080 1019 1036 1066 1092 1026 1046 1042 1030 1039 1023 1012 1034 981 1022 1071 993 995 1020 1117 1013 1013 1045 1029 1092 1072 1073 1073 1076 1119 1079 1046 1077 1095 1075 1071 1081 1081 1126 1112 1061 1084 1074 1109 1064 1015 1102 1041 1087 1053 1056 1087 1030 1028 1077 1123 1121 1060 1048 1063 1057 1036 1059 1037 1047 1005 1099 986 1003 1052 1053 1017 1034 1032 1042 1002 1008 992 1037 1019 985 954 1013 1042 1045 960 995 1009 999 993 1003 1001 902 1013 1014 934 978 966 985 974 951 990 955 999 1048 988 973 1002 1023 1034 903 1037 962 964 988 1000 986 899 1019 972 949 1004 982 967 955 953 997 990 993 980 998 979 999 1007 945 982 993 971 980 991 968 956 999 1036 954 957 948 903 993 974 946 1005 932 996 936 969 954 987 962 943 1028 1009 1017 1007 1009 957 991 901 969 1020 952 965 946 945 1037 948 991 964 957 960 981 974 974 955 1047 1020 1026 1008 995 1031 963 951 930 985 1004 1007 1007 964 1024 1007 944 993 970 988 971 1007 938 988 968 986 975 1008 990 1003 1025 965 1040 1009 1080 981 1010 1022 1070 954 1031 898 1033 1009 1036 977 1014 1029 1063 1006 1046 1042 1014 1014 1066 1032 1074 1074 1051 1045 1058 1136 1095 1090 1119 1235 1207 1232 1277 1264 1323 1363 1309 1443 1547 1546 1570 1715 1808 1711 1671 1773 1680 1768 1751 1744 1717 1671 1706 1758 1642 1658 1632 1543 1551 1518 1427 1563 1560 1534 1500 1552 1526 1518 1480 1522 1482 1447 1409 1393 1381 1446 1407 1320 1288 1304 1294 1258 1256 1182 1221 1141 1101 1171 1129 1163 1127 1146 1112 1163 1096 1066 1070 1051 1071 1155 1114 1053 1019 965 1021 1012 1091 1016 1004 1026 1011 990 993 1058 1051 1026 990 990 1054 1006 975 1045 999 1027 1011 1049 956 1028 977 1044 1064 980 1081 962 993 912 982 1001 1039 997 1020 1007 980 979 1002 967 1003 992 956 992 898 974 992 1003 999 996 956 955 1010 975 973 985 1062 987 936 977 1017 975 972 977 994 967 971 994 956 1040 1058 1015 1015 996 968 957 981 954 1016 992 1009 1031 974 980 1030 964 970 959 1016 962 1005 1039 989 1002 966 1049 994 1044 1096 1075 1030 985 1052 1034 1044 1027 1066 1049 1044 1062 1073 1024 1022 1056 998 1075 1051 1141 1032 1080 1013 1042 1003 1039 1024 1055 987 1003 998 1097 1083 986 990 967 1004 1019 980 983 930 994 978 1032 983 1051 971 1064 997 974 979 975 1018 937 1067 1029 983 1060 1015 965 981 969 932 1010 1000 972 1065 948 945 968 948 958 977 977 963 947 998 929 946 979 923 958 1009 1030 998 1003 998 954 953 968 994 966 924 954 959 917 970 950 965 948 1005 949 990 1003 977 926 959 1057 959 1041 985 951 963 1052 982 945 1006 984 1018 972 970 981 957 971 953 984 927 1001 949 951 947 994 972 977 976 942 982 971 988 898 916 963 976 937 948 942 979 936 917 929 939 979 927 965 975 922 940 945 966 944 938 928 957 971 963 928 925 990 944 958 981 1004 983 982 899 915 909 950 978 973 916 892 920 964 989 927 939 958 1004 933 936 989 959 979 932 980 921 930 964 933 950 939 903 956 959 955 912 972 994 980 926 952 929 959 986 976 974 968 962 951 986 960 991 978 910 1006 951 983 884 947 967 1008 950 952 946 1031 953 972 877 1003 857 988 958 939 971 1005 934 930 946 974 991 973 976 931 991 962 956 1001 855 1001 976 920 972 995 960 981 954 931 968 906 948 932 943 989 889 990 905 942 995 908 922 963 962 983 964 956 905 998 902 968 970 994 1000 953 955 961 956 974 964 968 1010 955 959 992 993 989 947 944 995 954 957 971 954 922 920 926 924 909 988 940 1011 972 964 977 931 890 967 936 992 940 985 990 893 966 955 899 968 958 981 975 940 909 941 982 983 990 1007 986 941 939 985 975 948 984 992 907 961 952 958 923 939 939 990 938 938 1003 968 979 957 968 924 953 1046 911 963 989 944 979 934 1002 935 899 942 972 924 941 998 927 955 938 903 988 926 928 985 949 964 846 899 940 950 959 958 948 932 1006 945 923 995 1007 966 944 946 945 909 936 988 931 988 957 978 1011 948 1002 942 971 946 1001 947 1001 952 918 1001 965 991 967 931 969 943 953 954 1001 957 1017 948 953 957 934 909 957 953 993 970 981 1013 1004 989 948 948 1022 983 971 1039 967 944 1006 1031 1041 1068 1017 1036 1019 1020 1067 1013 1055 1041 1068 1045 1024 1057 999 979 1100 1035 1009 1027 987 995 1024 995 1019 1057 1010 982 987 1023 1031 1041 1024 1009 959 1010 1020 996 998 993 954 1019 1029 969 936 982 971 965 950 1006 1004 994 967 953 916 948 1051 999 990 968 1009 952 954 925 970 909 951 930 903 1012 1020 998 961 978 1015 932 995 998 933 954 909 976 969 934 944 951 934 960 967 979 973 963 944 906 957 940 933 972 967 993 912 917 997 929 968 938 953 941 984 945 951 929 943 972 946 930 928 979 936 997 933 955 945 996 984 963 931 940 938 929 950 941 937 957 955 956 967 993 926 945 967 1008 940 976 938 920 961 949 964 971 957 975 1000 942 926 951 931 953 1009 967 978 979 947 998 966 1004 924 988 991 912 963 946 915 921 916 941 980 923 983 990 1031 912 948 930 940 926 981 961 937 901 969 960 949 971 970 1016 947 951 960 1002 912 954 954 1001 969 945 947 981 945 975 910 908 928 999 926 976 964 936 995 921 935 995 956 944 947 879 914 933 983 879 988 951 941 1009 971 1022 996 937 959 982 1007 975 916 957 950 986 932 940 970 963 935 945 999 1012 956 971 981 934 975 929 985 969 968 999 1011 982 1004 994 1025 1072 1018 1005 1091 1046 1091 1053 1061 1104 1148 1134 1137 1140 1163 1259 1230 1309 1275 1298 1324 1369 1443 1421 1409 1415 1517 1526 1440 1412 1445 1457 1416 1361 1358 1332 1322 1279 1294 1296 1232 1270 1206 1236 1217 1190 1271 1270 1271 1249 1271 1267 1211 1254 1318 1253 1294 1249 1241 1231 1221 1136 1238 1103 1142 1120 1171 1095 1143 1095 1119 1074 1064 1054 1015 1098 965 1026 1036 1045 1007 1031 984 1070 1039 966 995 1073 995 956 972 939 1002 973 996 1009 929 984 1019 970 974 1007 1002 1006 931 951 997 999 1020 961 956 1043 972 968 953 936 994 980 991 1002 917 961 1029 941 990 958 962 918 995 972 923 967 945 878 956 964 990 1005 983 961 972 963 917 958 967 1003 973 936 982 955 913 899 994 983 1044 993 1012 933 910 954 924 970 984 911 1015 918 968 932 982 927 964 910 964 935 951 962 937 1011 1012 941 990 883 909 972 948 999 918 1018 956 921 1019 991 1014 975 968 985 960 937 907 1052 959 957 953 1011 1030 1003 980 983 970 966 940 998 1028 943 992 945 955 1040 1005 998 985 950 932 906 983 1026 949 990 944 1020 956 964 968 981 1030 911 1006 945 999 971 934 962 928 920 996 1007 939 893 911 929 948 946 1020 1015 930 956 920 983 925 899 911 900 931 960 983 933 970 925 1004 965 964 956 944 970 927 922 907 936 974 937 948 928 1016 919 968 951 955 989 979 948 996 927 931 1022 930 927 963 909 941 919 944 952 910 913 1042 945 899 949 938 939 905 990 913 906 977 951 990 925 949 893 938 905 889 937 950 903 960 925 940 958 963 924 951 941 914 918 914 915 967 990 941 981 937 983 965 909 939 930 913 918 946 954 992 972 925 961 975 958 926 972 924 951 967 909 968 934 906 981 974 900 854 989 948 936 972 896 944 982 1009 905 938 945 920 976 976 956 898 984 942 909 932 934 919 967 986 945 957 976 970 921 938 910 913 901 898 946 925 939 951 971 832 934 943 955 961 958 876 893 950 930 977 948 939 918 991 962 983 951 928 965 896 933 982 1009 930 957 968 892 895 1037 1011 984 908 982 926 943 1012 991 932 960 937 943 932 901 955 935 953 974 925 973 934 903 947 912 911 978 891 980 867 979 944 933 988 947 949 970 964 963 936 976 943 911 922 943 889 898 966 901 914 991 962 954 910 997 866 972 910 904 950 920 954 877 903 1008 955 875 945 912 953 882 943 956 914 922 948 1003 947 926 916 892 989 957 966 908 922 957 933 950 946 857 975 972 952 898 921 953 967 928 922 930 917 940 945 930 950 965 937 972 939 967 913 953 889 1031 920 950 911 919 952 935 965 991 901 995 950 964 963 916 961 938 934 903 953 990 903 967 972 919 921 944 967 914 865 945 949 951 901 944 893 958 974 965 935 936 941 888 962 939 982 946 891 986 904 914 953 960 971 991 917 916 997 952 917 929 994 993 967 952 928 920 990 932 952 967 985 864 953 1006 998 929 1001 942 903 951 916 1008 936 960 945 961 960 983 1000 964 970 978 1046 1032 1027 978 1042 989 1059 1017 1038 1009 1039 1101 1056 1049 1045 1029 1106 1077 1085 1027 1059 1064 1033 1017 1021 996 1002 970 1046 1014 1020 992 1033 1054 1020 1048 1023 968 955 1026 993 1022 995 1014 996 991 1024 1085 1040 1018 1018 1054 1031 1001 1021 1005 1080 1028 1053 1003 1012 994 1039 1020 969 1015 1024 1058 991 945 1052 1007 996 968 1000 1065 1058 964 1025 969</counts>
			</dataPoints>
		</scan>
	</xrdMeasurement>
</xrdMeasurements>
