<?xml version="1.0"?>
<xrdMeasurements xmlns="http://www.xrdml.com/XRDMeasurement/2.3" xmlns:xsi="http://www.w3.org/2001/XMLSchema-instance" xsi:schemaLocation="http://www.xrdml.com/XRDMeasurement/2.3 http://www.xrdml.com/XRDMeasurement/2.3/XRDMeasurement.xsd" status="Completed" recordIdentifier="{7968089B-8036-4FDA-955D-2F408D289700}">
	<comment>
		<entry/>
	</comment>
	<sample type="To be analyzed">
		<id>GPSS_Li1p8Bi0p2Ca0p2Mg0p6Cl4_121225_693c5ab8f4d05ae3d6974f1d</id>
		<name></name>
		<preparedBy></preparedBy>
	</sample>
	<xrdMeasurement measurementType="Scan" status="Completed" sampleMode="Reflection">
		<usedWavelength intended="K-Alpha 1">
			<kAlpha1 unit="Angstrom">1.5405980</kAlpha1>
			<kAlpha2 unit="Angstrom">1.5444260</kAlpha2>
			<kBeta unit="Angstrom">1.3922500</kBeta>
			<ratioKAlpha2KAlpha1>0.5000</ratioKAlpha2KAlpha1>
		</usedWavelength>
		<incidentBeamPath>
			<radius unit="mm">145.00</radius>
			<xRayTube id="1010048" name="Empyrean Cu LFF HR (9430 033 7310x)">
				<tension unit="kV">40.0</tension>
				<current unit="mA">15.0</current>
				<anodeMaterial>Cu</anodeMaterial>
				<focus type="Line">
					<length unit="mm">12.0</length>
					<width unit="mm">0.4</width>
					<takeOffAngle unit="deg">6.0</takeOffAngle>
				</focus>
			</xRayTube>
			<sollerSlit id="21010002" name="Soller slits 0.04 rad.">
				<opening unit="rad">0.0400</opening>
			</sollerSlit>
			<mask id="22031000" name="Fixed mask 13 mm">
				<width unit="mm">9.00</width>
			</mask>
			<divergenceSlit id="22120001" name="Divergence slit 1°" xsi:type="fixedDivergenceSlitType">
				<distanceToSample unit="mm">50.00</distanceToSample>
				<height unit="mm">1.52</height>
			</divergenceSlit>
		</incidentBeamPath>
		<sampleMovement xsi:type="spinningSampleMovementType">
			<spinnerRevolutionTime unit="seconds">1.0</spinnerRevolutionTime>
		</sampleMovement>
		<diffractedBeamPath>
			<radius unit="mm">145.00</radius>
			<antiScatterSlit id="22090040" name="AS slit 9 mm (PIXcel)" xsi:type="fixedAntiScatterSlitType">
				<height unit="mm">9.00</height>
			</antiScatterSlit>
			<sollerSlit id="21020003" name="Large Soller slits 0.04 rad.">
				<opening unit="rad">0.0400</opening>
			</sollerSlit>
			<filter id="20030001" name="Large beta-filter Nickel">
				<material>Ni</material>
				<thickness unit="mm">0.020</thickness>
			</filter>
			<detector id="7010019" name="PIXcel1D-Medipix3 detector" xsi:type="rtmsDetectorType">
				<phd unit="keV">
					<lowerLevel>4.02</lowerLevel>
					<upperLevel>11.27</upperLevel>
				</phd>
				<mode>Scanning</mode>
				<activeLength unit="deg">5.542</activeLength>
			</detector>
		</diffractedBeamPath>
		<scan appendNumber="0" mode="Continuous" scanAxis="Gonio" status="Completed">
			<header>
				<startTimeStamp>2025-12-16T15:00:00-08:00</startTimeStamp>
				<endTimeStamp>2025-12-16T15:08:07-08:00</endTimeStamp>
				<author>
					<name>AutomatedUser</name>
				</author>
				<source>
					<applicationSoftware version="1.7b (136)">PANalytical Aeris Instrument Suite</applicationSoftware>
					<instrumentControlSoftware version="3.2.00000000 20240306">AERIS</instrumentControlSoftware>
					<instrumentID>950485</instrumentID>
				</source>
			</header>
			<dataPoints>
				<positions axis="2Theta" unit="deg">
					<startPosition>10.00943322</startPosition>
					<endPosition>99.99442286</endPosition>
				</positions>
				<positions axis="Omega" unit="deg">
					<startPosition>5.00471661</startPosition>
					<endPosition>49.99721143</endPosition>
				</positions>
				<commonCountingTime unit="seconds">12.495</commonCountingTime>
				<counts unit="counts">2865 2905 2907 2899 2887 2913 2782 2771 2850 2750 2758 2837 2754 2802 2895 2828 2900 2823 2722 2878 2888 2752 2960 2869 2825 2739 2837 2783 2842 2827 2798 2754 2922 2841 2776 2777 2774 2871 2869 2767 2753 2836 2721 2867 2767 2759 2877 2725 2901 2893 2864 2825 2848 2770 2942 2891 2832 2775 2950 2850 2879 2797 3009 2783 2938 2886 2851 2869 2810 2914 2767 2998 2879 2901 2941 2964 2788 2902 2867 2779 2928 2897 2981 2858 2992 2897 2971 2885 2882 2809 2825 2882 2977 2940 2860 3009 2864 2937 2937 2906 2887 2893 2875 2935 2953 2877 3021 2962 2961 2861 2886 2956 2909 2911 2909 2871 2932 2965 2951 2824 2861 2966 2956 3004 2977 2907 2941 2934 2937 2966 2961 2980 2936 2982 2974 2923 2933 2820 3001 2942 2909 2911 2909 2973 3014 2989 2963 2926 3028 3020 2904 3017 2908 3044 3013 2929 2942 3023 2991 3024 2962 3053 3003 3077 2942 2885 2927 2911 3009 3044 2974 3110 3002 3031 2996 3013 2989 3037 2901 3016 3064 3011 2977 3065 2955 3002 2937 3070 3120 2993 3006 3010 3013 2948 2985 3052 2989 3030 3045 3040 3086 3096 2826 3037 3052 2885 3007 2932 2988 2885 2943 3003 2953 3009 3127 3014 3005 2947 3018 2896 3116 2941 3053 3030 3078 3053 3043 2965 3023 3022 2901 3007 2894 2914 3033 2934 2975 3032 2971 3037 2943 2941 2892 2948 2922 2959 2997 3041 3086 2972 2870 2984 2944 2852 2906 2897 2947 3021 2894 2951 2967 2969 2940 2941 2988 2941 2985 2961 2967 2873 2924 2927 3010 3045 3021 2991 3010 3012 3004 2911 2839 2997 2955 3040 3015 2890 2958 3041 2947 2958 2952 2949 3100 2953 2995 2894 2915 2925 3043 3013 3078 2967 2939 2895 3005 2941 3003 3045 2995 2911 3027 2979 2968 3004 2992 2959 3033 2985 3017 2920 2991 3125 3081 3091 3011 3080 3168 3132 2985 2987 3109 3078 2975 3161 3141 3023 2964 3072 3052 3061 3154 3122 3142 3034 3175 3095 3103 3152 3200 3215 3027 3207 3128 3265 3122 3289 3266 3119 3117 3186 3135 3283 3089 3280 3153 3222 3178 3214 3277 3259 3201 3201 3223 3189 3196 3208 3298 3251 3244 3359 3292 3321 3335 3223 3232 3307 3271 3318 3307 3394 3330 3433 3337 3404 3289 3459 3376 3404 3423 3405 3288 3245 3460 3399 3443 3504 3401 3507 3526 3525 3544 3716 3589 3524 3569 3702 3528 3563 3577 3732 3686 3734 3739 3762 3774 3782 3773 3750 3673 3792 3841 3790 3816 3818 3931 3843 3824 3887 3925 3928 3859 3937 4091 3983 4217 4067 4151 4197 4073 4225 4258 4264 4308 4287 4177 4359 4240 4405 4382 4228 4232 4418 4255 4428 4333 4312 4314 4274 4106 4006 3983 4048 3915 3838 4086 3814 3898 3934 3911 3903 3940 3874 3881 3836 3852 3898 3950 3984 3899 3999 4034 3898 3869 3889 3919 3830 3771 3781 3801 3877 3753 3777 3714 3670 3764 3770 3782 3734 3848 3730 3803 3885 3736 3787 3806 3743 3585 3541 3534 3541 3467 3381 3296 3291 3204 3285 3279 3183 3131 3283 3207 3156 3078 3233 3161 3106 3194 3081 3095 3114 3154 3088 3210 3097 3049 3046 3156 3144 3125 3105 3074 3040 3057 3098 3036 3037 2961 3045 2975 3044 2970 2992 2916 3086 3024 3001 3001 2967 2998 3030 3047 2976 2898 2988 3044 3022 2979 2988 2960 2861 2946 2914 2940 2946 2821 2915 2999 2958 2899 2923 2930 2881 2929 2948 2934 2925 2841 2856 2816 2860 2949 2945 2928 2939 2821 2850 2866 2876 2874 2863 2896 2877 2865 2810 2757 2818 2868 2749 2804 2876 2893 2856 2833 2784 2840 2940 2853 2859 2713 2749 2800 2823 2737 2740 2865 2818 2823 2720 2831 2844 2786 2818 2875 2740 2775 2751 2791 2872 2821 2750 2798 2760 2800 2790 2860 2789 2837 2720 2674 2780 2801 2838 2844 2757 2730 2706 2774 2734 2737 2778 2730 2719 2800 2825 2770 2773 2709 2726 2742 2755 2750 2745 2791 2823 2700 2831 2761 2742 2704 2719 2666 2725 2696 2655 2641 2760 2656 2721 2767 2640 2734 2709 2617 2725 2607 2674 2669 2641 2772 2652 2672 2624 2592 2696 2691 2671 2583 2697 2626 2741 2711 2549 2713 2695 2623 2665 2695 2740 2647 2644 2706 2657 2629 2661 2760 2643 2743 2652 2675 2626 2626 2683 2703 2746 2584 2627 2648 2698 2648 2706 2623 2733 2548 2531 2711 2622 2569 2588 2575 2590 2633 2630 2561 2476 2580 2576 2554 2569 2481 2618 2587 2591 2662 2660 2630 2640 2579 2583 2666 2618 2666 2663 2570 2582 2674 2581 2629 2600 2573 2727 2546 2512 2598 2489 2574 2541 2648 2632 2559 2574 2533 2493 2505 2613 2555 2579 2550 2585 2497 2599 2502 2505 2608 2543 2590 2629 2546 2585 2511 2552 2602 2605 2461 2617 2469 2498 2582 2563 2630 2482 2463 2447 2539 2535 2598 2550 2580 2602 2485 2541 2606 2469 2515 2506 2492 2509 2494 2598 2502 2483 2548 2524 2595 2411 2544 2422 2529 2536 2527 2469 2534 2563 2569 2628 2528 2456 2522 2501 2505 2536 2466 2561 2541 2489 2583 2510 2486 2555 2493 2476 2567 2613 2700 2545 2624 2556 2694 2583 2683 2690 2700 2626 2623 2747 2676 2648 2585 2724 2597 2633 2676 2660 2613 2677 2579 2507 2633 2627 2663 2672 2795 2703 2646 2773 2787 2723 2724 2745 2706 2734 2654 2787 2749 2742 2778 2690 2697 2821 2752 2648 2671 2637 2618 2515 2488 2409 2478 2452 2466 2496 2307 2415 2425 2376 2369 2331 2357 2290 2346 2391 2381 2377 2402 2409 2311 2396 2404 2443 2320 2371 2422 2392 2365 2368 2290 2306 2393 2403 2396 2462 2417 2316 2324 2328 2448 2427 2380 2398 2429 2279 2273 2445 2297 2388 2277 2374 2436 2451 2364 2419 2487 2373 2267 2396 2294 2315 2382 2288 2346 2413 2327 2322 2248 2345 2273 2327 2314 2354 2324 2345 2329 2342 2255 2347 2353 2379 2236 2393 2473 2361 2354 2275 2254 2289 2374 2343 2378 2349 2337 2331 2369 2304 2362 2273 2362 2334 2336 2341 2281 2336 2326 2254 2331 2400 2328 2328 2338 2263 2305 2282 2307 2369 2338 2417 2386 2344 2450 2303 2255 2462 2395 2340 2316 2371 2325 2327 2314 2337 2347 2255 2307 2357 2355 2397 2383 2377 2376 2361 2359 2373 2292 2270 2337 2313 2280 2279 2212 2289 2268 2366 2440 2264 2296 2283 2298 2371 2492 2312 2280 2247 2326 2360 2339 2308 2322 2363 2353 2234 2185 2394 2256 2387 2346 2281 2226 2405 2272 2284 2257 2305 2209 2343 2295 2327 2206 2275 2251 2321 2361 2288 2280 2252 2242 2300 2205 2276 2255 2304 2323 2294 2261 2310 2215 2245 2297 2286 2274 2247 2243 2259 2245 2231 2296 2125 2183 2250 2203 2219 2252 2121 2204 2222 2205 2217 2182 2228 2222 2198 2160 2162 2313 2174 2225 2105 2128 2131 2085 2150 2115 2072 2281 2171 2116 2189 2233 2136 2150 2096 2023 2142 2103 2103 2130 2133 2098 2063 2088 2050 2087 2046 2187 2051 1954 2126 2071 1999 2057 2033 2089 2046 2130 2055 2058 1965 1998 2008 2038 1957 2038 2006 1966 1933 2010 2022 1998 1985 1901 2062 1970 1922 1854 2078 2013 1921 1943 1950 1886 1966 1948 1899 1903 1883 1914 1863 1989 1839 1921 1879 1873 1860 1826 1885 1889 1927 1875 1814 1888 1826 1892 1841 1838 1916 1821 1968 1861 1845 1798 1846 1873 1840 1874 1796 1873 1794 1853 1776 1955 1868 1788 1834 1777 1820 1792 1769 1743 1738 1848 1743 1772 1736 1857 1743 1790 1740 1803 1835 1762 1762 1770 1820 1726 1817 1782 1757 1805 1729 1782 1647 1779 1748 1789 1803 1735 1796 1670 1713 1741 1735 1715 1725 1753 1612 1734 1741 1748 1748 1705 1787 1765 1753 1749 1768 1719 1707 1702 1763 1613 1683 1659 1738 1677 1704 1728 1654 1721 1668 1672 1626 1670 1646 1704 1642 1675 1724 1684 1666 1673 1688 1628 1648 1702 1654 1621 1630 1634 1680 1641 1686 1564 1630 1604 1632 1670 1638 1737 1628 1743 1644 1667 1704 1591 1622 1686 1658 1706 1672 1650 1707 1730 1679 1679 1692 1615 1701 1587 1734 1636 1757 1772 1679 1675 1681 1631 1730 1677 1621 1641 1701 1655 1576 1708 1724 1730 1721 1742 1726 1691 1702 1654 1764 1720 1748 1723 1729 1678 1774 1741 1762 1803 1749 1706 1700 1728 1657 1763 1697 1703 1749 1717 1713 1639 1723 1679 1691 1622 1774 1645 1694 1646 1765 1712 1749 1790 1769 1718 1769 1748 1780 1649 1790 1663 1672 1762 1641 1726 1668 1730 1663 1768 1767 1693 1735 1732 1724 1722 1673 1680 1655 1725 1680 1717 1643 1768 1676 1695 1699 1664 1723 1601 1637 1745 1648 1719 1551 1630 1629 1613 1686 1681 1630 1575 1652 1694 1630 1656 1627 1686 1615 1680 1597 1582 1602 1623 1663 1568 1609 1679 1600 1731 1632 1652 1549 1597 1661 1575 1622 1609 1542 1649 1532 1643 1660 1544 1568 1664 1642 1561 1678 1594 1609 1576 1565 1518 1583 1607 1579 1578 1563 1585 1559 1616 1540 1639 1496 1563 1601 1512 1579 1603 1613 1564 1586 1603 1518 1574 1572 1546 1570 1657 1561 1564 1667 1482 1536 1548 1490 1472 1540 1490 1509 1522 1461 1503 1454 1528 1488 1535 1489 1486 1486 1503 1536 1548 1392 1489 1430 1529 1486 1439 1422 1438 1463 1408 1450 1427 1477 1483 1413 1467 1488 1380 1467 1470 1456 1487 1458 1515 1526 1459 1418 1509 1493 1406 1409 1384 1384 1433 1432 1470 1418 1376 1411 1443 1438 1456 1300 1403 1384 1441 1311 1390 1347 1346 1365 1419 1327 1372 1371 1398 1331 1389 1348 1302 1340 1349 1366 1329 1408 1314 1291 1338 1302 1369 1274 1363 1311 1326 1292 1391 1395 1306 1299 1374 1442 1388 1359 1376 1497 1395 1498 1486 1458 1449 1387 1431 1427 1474 1493 1447 1521 1536 1411 1459 1429 1499 1474 1431 1512 1495 1466 1484 1467 1509 1507 1510 1512 1493 1459 1539 1596 1562 1620 1629 1531 1617 1555 1638 1563 1595 1553 1542 1509 1524 1535 1444 1472 1455 1396 1467 1380 1375 1418 1422 1321 1342 1341 1288 1331 1314 1299 1331 1298 1324 1412 1306 1357 1343 1421 1373 1377 1402 1435 1436 1393 1400 1434 1477 1558 1626 1570 1577 1611 1579 1583 1577 1531 1601 1614 1628 1529 1619 1546 1555 1646 1624 1683 1550 1759 1719 1695 1703 1817 1805 1826 1910 2079 2171 2259 2174 2365 2548 2468 2677 2773 3006 3039 3252 3306 3311 3399 3284 3408 3390 3486 3408 3376 3344 3449 3219 3312 3278 3373 3181 3407 3438 3552 3653 3764 3891 4078 4286 4489 4647 4841 4924 5100 5268 5422 5462 5531 5576 5666 5739 5780 5654 5795 5810 5464 5473 5415 5310 5139 4909 4715 4559 4250 4003 4093 3832 3882 3741 3559 3457 3373 3316 3283 3201 3266 3280 3255 3348 3225 3265 3224 3200 3222 3187 3223 3224 3179 3117 3011 3014 2927 2778 2731 2589 2589 2461 2482 2260 2243 2252 2162 2009 1982 1979 1851 1837 1772 1847 1809 1813 1826 1765 1673 1612 1536 1467 1421 1417 1436 1323 1352 1236 1184 1159 1162 1113 1230 1088 1177 1154 1047 1164 1115 1133 1144 1048 1120 1105 1093 1058 1095 1136 1089 1135 1061 1130 1089 1126 1169 1128 1030 1152 1161 1139 1244 1149 1195 1235 1192 1208 1208 1210 1250 1187 1112 1200 1197 1193 1180 1179 1155 1194 1147 1141 1181 1195 1182 1247 1137 1220 1204 1214 1234 1123 1226 1186 1204 1188 1227 1261 1186 1117 1261 1175 1240 1191 1165 1152 1129 1169 1158 1176 1137 1148 1069 1070 1055 1059 1021 1076 1120 1088 1034 1056 1042 1005 1076 1019 996 1005 1012 1093 1010 961 978 972 1019 994 1073 990 1016 1026 1001 1005 972 1082 1021 1001 997 968 1029 1021 990 991 1042 1016 1009 1000 1015 1004 955 957 1034 948 1001 973 995 946 1046 973 1006 927 1050 951 988 1005 947 980 1013 964 1011 1027 1004 964 996 933 957 978 951 988 964 943 933 983 919 933 975 907 934 919 906 984 930 960 950 972 915 926 917 944 928 909 910 941 946 962 911 957 982 960 901 893 939 968 978 958 964 898 902 985 940 925 936 974 935 953 927 975 920 958 904 960 935 904 880 865 987 946 887 974 911 947 914 955 910 895 944 936 902 909 876 896 910 913 953 964 982 929 984 954 961 1003 937 954 948 1008 1013 943 965 890 933 939 915 982 975 960 959 1011 1022 1030 1034 972 995 1005 1032 1038 981 1014 1019 1012 1003 1028 1029 1028 1089 977 1034 1074 980 1005 1004 1051 1047 1083 1078 1051 1001 986 1002 1005 987 1015 1015 999 951 955 1039 1012 1036 975 1026 1036 1028 1059 1089 1012 1068 1091 1141 1106 1091 1119 1107 1173 1172 1253 1296 1318 1433 1497 1524 1683 1688 1904 1881 2047 2019 2138 2250 2365 2486 2503 2567 2600 2681 2765 2791 2881 2904 2939 3044 3137 3311 3327 3533 3510 3511 3657 3773 3859 4120 4132 4233 4120 4400 4503 4487 4489 4692 4725 4668 4621 4946 4861 4768 4864 4807 4767 4601 4551 4496 4526 4416 4203 4252 3956 3927 3624 3736 3480 3406 3247 3233 3038 3089 2831 2929 2783 2735 2740 2822 2612 2713 2688 2603 2612 2506 2606 2581 2499 2542 2564 2444 2373 2396 2404 2321 2246 2195 2276 2086 2126 2017 1955 1978 1905 1839 1899 1690 1685 1590 1534 1411 1390 1378 1262 1300 1291 1170 1171 1163 1157 1120 1086 1097 1009 1052 1006 1004 1010 947 992 975 968 950 921 966 982 935 953 977 925 902 869 922 984 902 985 872 945 906 938 940 855 936 938 955 981 928 983 936 965 915 942 847 909 936 900 1005 994 985 887 937 899 943 955 999 917 938 1037 979 943 902 961 942 953 985 942 986 972 911 962 1002 1012 982 984 1024 998 1056 999 988 1010 1026 1058 985 1016 1005 1010 1038 991 1014 1007 1006 1015 1000 1100 1013 1008 957 1015 965 1018 993 1007 992 974 957 943 915 962 885 920 896 901 867 980 915 875 922 817 897 875 854 820 833 815 837 848 868 815 848 822 812 853 835 822 851 822 825 880 791 850 825 774 863 785 825 832 842 852 832 818 857 850 799 795 796 841 895 862 828 766 822 828 795 799 797 812 789 862 841 795 822 823 779 830 850 789 842 829 850 850 755 823 820 809 764 837 836 787 799 791 848 762 800 771 834 759 814 834 808 818 760 835 781 776 794 806 827 822 788 780 796 805 730 771 785 791 807 818 784 817 801 806 769 811 762 902 771 824 786 797 805 816 850 795 836 832 802 817 874 864 823 858 874 822 891 812 902 867 842 853 850 873 872 875 874 903 939 857 883 857 893 835 901 894 941 921 888 941 918 927 937 903 892 948 992 879 883 920 993 942 989 894 971 968 948 977 1010 885 935 969 920 950 906 956 967 937 1004 938 963 1019 986 958 968 965 1018 930 959 943 1007 968 966 1050 1067 1069 1012 1008 1036 1076 1037 980 1053 1021 1056 1022 1043 934 959 954 905 879 907 932 857 893 867 870 821 818 780 808 810 760 823 774 808 779 805 768 778 783 773 756 781 761 727 787 750 727 798 774 818 770 843 774 749 734 739 796 752 740 770 765 775 781 787 758 760 767 747 732 718 718 757 760 748 756 790 771 755 751 699 738 727 762 746 776 753 767 711 774 750 722 783 768 777 804 699 774 698 737 740 747 755 725 741 697 707 715 774 735 708 768 719 762 749 731 757 787 841 831 805 763 799 760 768 822 792 752 806 779 781 779 834 828 837 819 776 781 840 804 861 839 867 861 845 874 894 882 867 868 874 885 871 819 886 819 873 898 758 841 800 839 806 857 825 828 770 773 763 775 749 761 780 725 706 701 701 712 747 772 762 714 707 729 801 736 727 732 733 699 718 717 706 747 741 736 724 739 740 742 677 755 757 711 710 756 687 733 758 741 668 675 700 723 710 762 737 744 760 699 750 703 705 708 717 715 738 714 704 762 705 696 726 755 734 727 715 694 734 718 672 696 691 679 720 750 715 702 672 702 685 680 684 731 656 654 695 693 700 684 645 662 693 646 703 717 711 741 712 676 695 720 663 692 684 706 701 670 723 673 696 691 697 672 712 756 717 759 659 693 668 774 688 692 682 660 641 674 661 723 669 704 679 742 689 715 696 742 707 774 762 765 810 807 773 778 754 779 719 776 788 767 690 704 766 708 736 754 768 733 755 815 729 806 739 732 735 775 788 777 814 780 794 804 772 786 853 832 759 791 866 859 811 837 762 831 836 814 811 816 812 763 768 757 788 798 746 768 780 723 709 722 746 799 739 749 766 728 781 745 716 716 721 774 761 744 753 750 742 791 766 770 797 743 739 717 748 769 715 732 713 844 747 781 766 780 743 719 714 740 691 780 723 755 736 715 762 755 777 762 757 756 777 730 710 793 759 732 747 796 724 713 732 732 748 784 781 799 748 712 782 776 776 792 813 790 782 815 789 791 794 822 853 796 768 821 816 734 749 732 773 747 796 753 782 754 680 733 728 714 726 745 701 683 681 679 668 670 710 718 693 684 685 637 680 652 656 657 686 679 703 641 680 674 691 734 643 738 723 677 730 765 723 723 722 778 749 712 701 720 758 749 714 734 785 719 782 768 750 796 770 760 791 793 783 836 847 802 845 854 830 852 823 882 842 931 848 844 917 954 884 907 860 838 844 877 828 814 869 775 838 887 803 766 811 851 800 812 738 804 740 733 726 732 733 725 715 789 748 788 753 742 723 766 744 773 745 768 786 762 849 806 810 857 782 818 906 857 884 862 908 890 890 890 892 894 902 919 955 943 912 985 964 986 962 965 990 972 1077 1044 1049 995 956 998 991 961 1022 949 1029 989 937 958 929 899 917 897 888 880 837 870 817 803 814 791 825 787 819 737 762 758 746 745 692 714 730 694 733 744 706 722 683 721 739 754 730 714 703 678 712 694 659 717 688 723 695 781 657 713 696 750 714 704 749 688 728 650 664 654 646 621 672 714 656 691 706 694 651 657 687 668 695 687 665 680 646 720 627 664 626 653 638 681 682 611 658 673 636 713 633 608 617 638 616 641 618 656 641 653 644 658 649 654 607 657 633 606 663 655 628 658 638 683 624 637 616 675 619 691 666 607 635 628 632 600 571 657 640 630 652 739 641 657 621 636 644 645 616 630 622 623 615 623 571 665 580 640 651 649 609 639 652 635 646 626 615 651 633 640 685 680 671 656 664 687 679 624 667 649 631 696 671 675 650 631 674 648 708 642 694 744 631 708 705 675 683 708 682 709 702 729 729 710 759 697 722 762 728 726 725 718 768 781 756 771 741 797 721 781 794 783 859 802 770 809 781 822 786 816 762 738 826 844 812 803 766 818 754 754 709 761 751 749 700 762 763 754 770 759 684 748 696 695 693 693 693 719 684 682 720 710 741 694 692 689 687 688 713 702 677 726 695 711 726 731 745 652 703 705 657 696 699 664 695 676 722 700 748 663 707 661 734 662 683 648 692 690 653 678 658 624 715 694 722 637 668 698 689 657 701 739 673 654 689 680 688 678 758 704 765 692 668 704 718 742 720 781 728 731 744 779 728 775 763 768 795 795 813 763 756 802 806 761 775 791 814 802 837 806 868 913 890 1018 992 1081 1156 1178 1229 1327 1326 1412 1386 1492 1552 1512 1548 1582 1658 1773 1697 1805 1826 1829 1918 1920 2040 2144 2118 2213 2231 2397 2338 2425 2563 2616 2596 2708 2644 2778 2774 2853 2839 2809 2863 2784 2902 2791 2818 2723 2696 2689 2744 2624 2468 2405 2476 2374 2206 2269 2142 2028 2086 2040 1990 1785 1793 1757 1815 1672 1664 1563 1582 1530 1484 1547 1433 1489 1415 1421 1339 1386 1390 1399 1310 1348 1337 1380 1363 1348 1442 1336 1390 1391 1486 1391 1418 1459 1338 1463 1480 1449 1416 1416 1324 1348 1449 1443 1353 1327 1344 1391 1346 1342 1189 1290 1148 1174 1180 1066 1089 1004 1053 1007 993 989 883 873 799 808 849 772 875 830 780 817 757 759 732 746 709 757 743 667 717 679 683 684 728 699 696 640 652 654 663 642 669 683 706 677 662 668 696 663 641 655 665 676 644 677 718 704 645 691 688 638 666 705 679 653 672 662 667 644 674 645 648 698 694 659 687 650 664 651 635 647 626 651 664 685 669 635 675 672 658 628 619 596 594 615 680 655 687 603 604 618 631 669 642 648 626 626 649 607 656 612 608 627 649 658 666 666 705 695 669 698 654 674 645 713 745 690 670 749 706 804 766 768 779 757 766 761 791 735 811 794 805 767 813 740 817 812 878 807 785 772 830 861 812 781 846 801 813 788 775 788 825 791 815 833 804 727 752 815 741 732 773 693 726 780 693 709 753 710 713 730 755 711 716 733 718 730 732 672 720 682 736 701 679 714 707 666 674 689 745 704 709 681 674 728 707 706 695 699 707 678 675 671 654 676 663 655 656 601 659 612 618 653 611 644 643 633 634 601 611 641 589 613 573 611 628 644 639 596 553 602 604 613 527 590 576 555 569 550 552 617 573 612 575 543 583 549 617 615 593 554 595 588 573 567 568 586 575 552 572 588 578 575 607 535 587 574 566 588 620 603 593 585 597 577 572 588 566 540 538 603 579 616 527 585 578 583 590 594 543 594 526 579 623 580 585 581 559 512 591 580 582 600 563 571 536 563 591 590 579 589 549 540 520 556 573 570 509 593 584 654 542 540 599 575 552 564 563 589 592 599 598 565 595 586 609 552 559 529 599 602 607 589 581 590 577 580 595 560 585 545 591 548 602 569 590 580 603 632 603 577 596 567 609 596 625 640 628 594 626 615 602 617 618 631 596 640 639 637 634 625 579 628 668 667 692 648 654 700 643 704 656 661 719 671 703 644 721 644 669 669 653 678 681 691 671 673 618 627 677 636 637 619 647 637 613 603 572 618 608 579 582 603 573 607 608 579 564 619 596 607 626 589 570 584 518 552 596 541 588 546 570 576 593 515 557 587 591 528 560 533 604 530 525 528 560 521 527 563 536 523 566 532 592 569 585 535 545 547 546 553 556 572 515 549 555 585 566 545 551 542 559 553 494 543 543 521 515 514 577 543 509 520 514 543 575 594 525 533 513 542 567 515 527 565 563 522 530 541 582 578 523 517 530 570 553 565 539 536 552 541 532 542 540 546 600 569 548 528 553 582 607 574 605 525 568 584 578 567 565 619 562 521 586 522 545 552 601 563 587 525 546 574 611 575 556 589 551 539 553 564 590 569 584 597 575 608 575 623 601 537 586 593 626 602 626 579 627 624 587 597 649 614 610 595 579 571 607 608 610 647 586 657 531 587 605 555 570 567 564 560 573 577 590 564 586 538 552 521 531 554 540 532 550 516 570 556 539 529 553 565 532 523 560 538 560 584 554 567 514 528 536 532 570 563 539 565 520 534 505 564 574 524 572 574 537 586 543 593 542 515 529 598 568 548 507 534 582 525 574 539 538 538 571 553 556 558 566 560 546 566 542 554 573 630 591 624 617 566 598 663 605 653 585 561 628 600 656 585 629 622 623 586 575 623 635 629 612 611 614 595 588 592 628 606 619 613 605 600 595 574 633 584 580 598 590 569 596 595 588 592 556 639 567 596 623 579 579 593 636 625 635 655 658 721 687 764 712 752 741 753 746 793 834 851 809 865 826 875 845 901 971 950 940 941 1038 1032 1006 1058 1107 1089 1066 1090 1132 1136 1127 1118 1125 1160 1140 1173 1157 1219 1129 1145 1171 1169 1220 1137 1216 1105 1159 1137 1142 1118 1104 1085 1132 1068 1013 980 1041 952 918 918 935 895 887 909 879 904 843 790 835 805 784 854 851 827 824 846 874 768 820 812 816 804 835 813 785 803 859 819 776 835 831 865 918 917 897 927 922 917 950 905 930 964 917 901 894 975 922 964 900 924 957 896 928 921 985 904 950 925 898 961 820 856 830 851 847 770 824 798 731 756 750 723 695 713 709 686 644 667 681 656 650 665 649 647 646 596 627 564 596 573 561 578 574 555 579 563 535 572 590 565 583 548 547 550 538 551 526 524 561 540 564 573 571 555 527 510 559 538 518 560 555 535 509 519 537 579 553 564 522 565 518 556 564 543 553 544 556 564 528 590 523 577 565 573 590 539 560 560 616 612 578 561 582 572 576 591 581 581 647 653 560 608 636 567 538 585 616 603 594 558 570 598 538 529 607 602 550 604 584 561 545 559 540 570 541 565 574 534 522 568 528 563 581 558 531 577 541 603 578 626 644 586 610 608 627 652 661 695 678 732 677 727 695 692 803 750 753 791 782 800 870 809 812 822 894 951 937 984 1079 1014 1044 1093 1074 1191 1138 1045 1168 1121 1153 1124 1147 1126 1153 1088 1252 1141 1150 1098 1114 1108 1114 1188 1145 1081 1109 1082 1054 1044 1034 1098 1040 1006 993 937 903 909 837 883 911 838 805 835 782 817 815 793 793 800 759 761 732 699 703 751 741 740 716 743 668 717 668 697 746 716 753 706 707 762 747 774 712 711 782 738 740 772 807 740 736 768 828 807 797 792 803 847 820 817 789 814 808 802 822 775 812 780 776 776 739 798 753 752 717 740 726 712 724 715 714 668 645 660 605 704 583 658 634 623 622 615 621 559 570 594 595 601 552 586 553 592 600 599 569 602 622 574 585 550 588 592 559 589 563 590 554 590 548 555 518 544 525 543 555 516 536 539 529 506 560 547 519 533 548 555 517 551 541 516 553 568 520 565 524 553 517 518 534 517 534 584 516 587 552 610 564 563 540 609 575 573 560 577 597 585 614 614 620 615 598 611 632 633 639 619 627 618 616 630 651 658 614 651 643 610 625 584 594 649 623 614 603 575 640 575 592 616 601 608 591 589 551 595 613 558 593 548 581 603 593 556 585 538 517 561 524 539 573 520 547 555 582 538 494 496 519 574 561 509 542 493 532 540 539 504 497 536 552 546 468 546 508 528 530 508 498 498 525 491 542 479 485 530 520 514 484 509 474 543 514 478 526 540 539 500 501 494 548 535 511 515 556 498 518 514 480 509 561 521 544 525 471 556 538 505 509 509 493 523 545 547 482 530 541 517 513 560 555 508 581 546 535 504 516 598 534 518 568 555 509 536 509 547 553 486 515 546 490 529 521 495 564 540 532 504 525 560 504 521 536 506 499 462 508 518 497 530 504 485 500 484 469 502 501 462 502 520 512 514 473 495 490 455 486 446 516 517 508 474 472 488 507 482 475 541 487 492 516 458 491 473 485 468 428 498 481 488 514 476 489 479 464 502 485 465 484 472 489 478 487 475 488 440 471 466 493 475 475 475 431 507 500 461 471 475 489 448 491 491 486 480 459 479 487 469 452 467 473 496 484 470 495 446 478 490 463 493 478 472 516 519 476 465 500 466 499 472 498 514 478 471 507 504 502 502 480 454 502 488 512 456 504 437 461 487 543 460 475 460 433 481 488 455 476 503 507 467 452 473 456 493 452 490 497 484 488 458 480 468 477 492 507 477 495 476 474 486 448 471 446 491 478 457 521 472 505 470 506 498 493 454 456 487 464 456 487 485 432 453 464 463 502 465 504 452 465 479 484 455 478 441 482 502 499 517 491 449 459 471 478 461 486 477 503 489 490 471 472 469 441 486 446 513 425 506 477 452 447 477 476 436 470 484 527 487 464 509 500 448 495 494 484 469 492 440 487 466 467 485 486 493 462 475 529 480 461 483 477 479 521 499 445 428 450 458 481 455 460 456 453 513 470 464 474 480 488 435 458 521 486 457 457 494 468 476 464 458 510 474 463 496 464 501 476 524 482 511 473 459 448 496 489 455 452 425 477 467 480 471 458 492 470 450 473 481 450 451 488 502 446 484 530 490 498 481 481 487 494 450 506 456 490 479 477 478 498 509 511 460 509 500 511 502 460 500 490 549 481 564 497 574 521 539 549 571 576 526 537 542 548 514 521 524 512 564 466 524 528 559 559 502 529 565 540 512 512 537 537 496 511 513 525 530 509 532 503 522 512 516 469 519 512 491 506 496 499 467 508 533 480 484 522 450 493 472 452 483 525 442 494 485 487 462 501 482 507 460 467 466 463 503 471 468 467 476 486 485 498 479 466 459 458 516 471 505 500 489 492 484 490 472 533 489 490 459 457 494 482 499 502 500 493 497 509 472 485 459 478 490 434 480 445 469 504 507 473 500 512 540 516 543 488 515 461 473 471 481 520 459 479 483 444 467 499 468 481 516 492 465 503 470 453 491 461 501 445 467 485 428 442 451 441 474 458 451 519 455 480 470 480 442 510 475 439 484 462 467 474 462 477 476 504 473 483 459 496 472 470 530 470 478 498 512 499 476 479 482 513 492 511 497 478 470 503 444 476 476 455 465 491 448 469 468 413 458 415 460 411 487 490 495 492 461 490 444 495 459 449 434 490 459 480 405 464 466 461 437 444 440 451 468 466 446 471 446 461 476 461 465 458 483 523 453 485 477 456 458 493 488 468 477 477 474 456 427 513 459 456 483 445 490 482 453 474 456 470 480 433 503 475 478 461 489 501 514 489 482 518 467 566 507 523 515 512 511 488 524 521 519 526 552 537 541 579 592 614 541 602 560 615 609 628 598 650 666 616 609 608 633 614 627 633 664 600 670 629 644 598 668 670 623 659 683 646 647 649 676 641 632 669 707 651 613 676 618 647 565 598 632 614 616 614 601 608 618 568 593 555 523 563 611 627 557 618 603 565 615 629 575 538 555 558 557 530 544 513 500 529 540 530 539 498 564 522 512 512 488 507 517 508 596 535 530 524 526 489 530 503 534 521 527 584 536 516 490 488 501 498 487 486 517 500 523 497 543 483 550 530 540 482 502 524 544 525 511 549 558 572 498 485 524 517 534 494 498 530 492 499 496 523 489 515 488 447 491 482 435 467 504 475 501 488 519 496 481 499 492 464 491 488 475 503 477 490 475 503 491 492 429 461 470 456 452 464 473 497 414 477 460 462 447 471 432 463 458 493 426 494 434 457 490 465 479 477 473 506 474 453 442 496 481 490 523 469 466 498 436 488 462 477 492 500 488 486 478 446 469 461 456 516 459 484 504 508 483 464 501 451 464 447 467 475 480 558 447 494 465 454 512 453 438 443 412 470 422 443 475 458 479 449 504 442 442 453 429 489 471 435 454 482 440 484 442 445 486 474 442 427 474 434 447 453 451 467 434 482 500 508 422 477 458 466 469 493 488 468 474 433 467 473 473 464 432 482 470 464 477 467 513 448 489 467 459 509 493 469 472 458 493 491 466 459 460 513 436 440 497 449 494 503 506 457 465 511 464 491 447 508 527 486 452 522 444 507 473 520 530 476 475 500 476 500 515 490 477 508 426 536 506 517 510 479 487 509 501 513 522 523 495 503 516 485 505 493 531 487 479 509 513 505 542 496 530 451 502 498 523 500 505 536 525 507 507 547 509 532 556 552 479 507 493 508 487 506 539 528 443 482 508 482 513 479 461 432 446 491 497 448 502 524 453 514 473 501 506 498 477 488 489 482 503 508 426 489 446 450 461 501 444 453 464 440 471 451 444 469 492 511 447 474 472 439 438 457 457 487 465 449 437 424 428 477 448 437 460 446 477 452 427 455 470 479 476 505 465 448 439 428 500 458 505 447 446 433 446 458 449 453 450 478 470 429 409 468 437 444 458 455 495 454 459 439 453 446 476 454 441 445 444 458 471 499 489 465 448 501 473 472 471 495 479 490 459 484 490 471 495 466 517 453 446 425 493 456 492 442 487 467 472 485 451 509 485 476 433 498 437 447 461 482 478 453 479 452 430 459 472 458 460 474 473 473 444 428 481 472 480 483 464 506 487 508 466 512 449 469 458 463 500 477 463 488 493 510 487 511 505 518 510 453 499 479 496 520 498 509 491 508 517 531 457 521 491 473 490 517 491 486 529 485 475 496 485 500 520 541 521 556 505 471 540 505 455 510 477 542 498 473 486 465 547 514 498 492 475 495 487 500 461 516 489 456 505 473 513 497 500 473 508 466 482 536 501 448 507 518 497 508 527 496 486 511 525 537 515 535 531 537 471 525 492 524 548 548 578 539 504 505 523 522 482 571 514 548 516 544 502 503 500 516 541 554 543 528 493 487 508 527 526 495 490 551 522 553 514 528 528 554 551 533 552 543 508 535 552 561 639 571 551 523 549 617 533 597 589 627 576 649 597 622 645 644 630 654 606 650 689 675 663 640 658 626 573 648 658 649 664 685 692 709 665 624 678 661 644 643 676 726 610 643 668 611 630 598 590 598 573 607 631 624 554 561 544 561 615 580 535 528 568 535 552 540 523 574 517 552 529 570 554 546 522 483 547 535 513 531 460 498 519 518 498 469 492 510 536 496 557 483 535 510 506 497 502 502 499 532 530 516 535 536 525 517 523 538 532 548 570 527 505 572 519 550 527 535 557 530 519 627 548 573 579 592 554 584 582 572 607 595 594 557 598 564 647 602 609 557 594 602 635 647 597 612 572 672 621 630 608 623 606 621 589 604 615 582 598 577 547 596 579 561 612 576 583 559 569 544 580 572 529 541 572 546 532 526 546 483 539 500 499 528 516 532 526 562 485 484 512 508 519 469 519 493 471 524 503 515 518 503 486 476 525 505 523 508 519 539 500 490 545 561 534 481 526 508 536 537 537 548 508 558 571 576 583 602 596 619 610 639 640 670 607 642 659 694 721 685 725 758 770 692 747 791 781 748 789 879 831 815 854 840 840 839 839 922 842 891 873 823 862 790 833 848 840 891 827 829 871 829 838 858 889 903 798 833 850 847 819 794 757 759 762 761 755 716 781 776 756 749 698 725 662 688 678 686 655 651 694 672 622 648 656 665 579 665 606 640 578 605 613 611 606 581 588 570 588 559 626 611 551 557 594 566 552 550 568 538 557 577 511 595 551 566 522 533 506 524 614 578 581 534 559 583 569 597 592 613 597 580 537 585 618 606 614 601 618 610 605 601 608 643 652 614 629 633 609 662 645 636 656 623 655 663 629 629 634 619 606 694 608 662 667 580 643 617 597 617 609 607 605 649 633 619 626 597 574 603 573 593 568 533 639 582 598 582 586 615 569 584 572 577 560 628 570 548 548 543 525 584 584 525 576 540 518 540 542 555 519 514 574 575 534 557 505 504 546 537 541 579 494 505 519 533 554 540 532 455 521 518 515 499 526 467 502 504 565 522 472 521 526 473 485 491 475 546 477 473 478 511 518 535 459 497 473 497 474 504 515 486 486 491 525 499 488 496 538 510 480 484 491 445 483 480 454 515 444 500 473 475 482 502 511 519 463 460 451 497 479 459 466 461 482 461 488 452 472 448 445 463 478 478 429 444 484 493 454 447 463 470 444 467 481 439 472 411 492 455 479 477 469 450 444 441 443 484 493 436 422 454 482 469 469 459 445 434 504 455 477 493 491 453 438 461 447 496 459 456 461 472 440 457 506 453 438 472 500 490 428 483 515 477 467 442 480 444 476 492 474 419 436 458 460 487 457 476 463 455 427 432 451 473 459 475 482 519 496 480 490 443 460 510 400 467 434 436 465 487 500 487 485 463 491 472 494 461 493 514 449 485 468 484 494 481 506 520 504 527 513 492 454 453 549 475 491 475 518 502 485 499 493 472 506 501 512 516 506 477 471 459 479 499 513 484 479 445 486 487 456 484 462 458 452 445 458 471 474 467 503 453 470 453 456 475 449 496 464 460 465 465 460 468 459 472 452 466 444 467 433 470 483 484 450 473 458 438 430 442 415 430 474 467 487 445 486 465 455 462 444 435 497 504 451 437 449 463 434 464 468 442 463 469 451 451 473 478 444 466 472 437 483 480 486 496 471 450 465 479 435 433 475 440 423 487 458 461 484 470 438 508 488 443 457 472 466 465 452 423 420 463 432 483 475 429 465 470 472 485 417 431 444 426 432 433 462 406 434 443 490 426 453 462 477 462 410 416 465 436 450 449 465 455 432 453 460 473 486 424 446 463 448 451 402 479 445 444 448 434 478 438 463 438 420 415 448 424 451 413 461 444 429 442 471 449 439 444 439 435 437 473 468 426 432 427 448 483 468 471 447 421 457 476 455 447 484 484 474 442 446 455 434 461 422 440 449 458 455 465 472 456 497 530 461 465 471 453 489 489 495 463 463 499 457 462 466 495 457 454 498 468 456 484 463 492 505 471 488 479 526 529 485 455 494 479 493 457 491 527 441 476 536 479 474 502 478 454 480 483 470 470 484 427 483 465 479 473 499 468 496 449 447 492 475 472 421 484 475 432 505 465 483 433 496 466 471 458 471 458 473 456 474 477 452 452 459 417 489 457 476 446 519 472 483 486 455 476 459 477 456 497 447 505 456 452 470 479 471 429 458 475 489 447 466 450 454 453 452 413 462 479 461 496 467 445 471 439 480 513 451 475 440 474 464 450 481 436 485 447 467 456 452 455 484 498 457 474 445 455 448 444 435 512 487 455 489 453 444 462 443 444 473 450 478 478 477 481 465 466 481 471 468 430 485 394 479 458 430 451 456 430 478 426 478 487 444 480 460 448 429 456 476 428 460 481 460 432 463 468 479 447 498 427 445 467 462 445 472 473 483 503 452 473 472 442 449 529 465 485 457 472 454 449 472 449 477 457 432 479 450 515 502 476 498 503 441 460 463 489 438 457 488 486 476 486 472 485 450 492 450 445 431 473 500 451 459 484 480 482 519 500 484 487 455 468 501 469 515 487 504 551 558 499 538 541 540 505 522 527 521 531 586 612 567 544 555 559 626 596 624 588 595 605 627 649 634 651 650 630 601 661 665 682 663 657 689 701 711 715 677 734 712 741 721 717 744 708 721 720 696 701 695 711 660 675 716 700 715 739 739 751 739 733 701 656 716 665 689 689 672 712 592 639 698 666 669 623 672 670 578 654 658 627 591 623 605 572 623 575 624 591 585 600 563 573 533 572 523 531 576 571 516 558 563 536 545 502 562 503 498 533 556 528 547 500 526 515 518 477 505 537 557 502 530 517 540 504 540 512 499 483 523 485 550 499 533 529 512 472 492 474 519 534 484 556 489 525 550 523 495 496 526 527 542 566 513 490 586 559 534 511 517 540 575 538 539 569 524 573 557 564 577 588 557 537 565 584 562 595 544 582 570 540 603 576 561 550 574 573 595 533 634 596 583 611 578 564 574 538 557 599 537 538 555 496 524 548 575 533 550 563 529 545 545 577 563 528 526 556 534 527 549 532 510 498 544 501 485 511 496 503 476 511 475 513 568 481 531 489 467 465 505 499 503 486 468 506 461 451 493 437 455 474 502 505 454 465 437 516 514 480 480 464 459 408 483 446 469 444 438 479 468 445 474 484 456 455 446 461 446 417 439 454 474 402 467 436 486 463 490 462 483 485 486 413 451 456 411 435 468 472 452 457 461 468 440 472 489 443 482 432 447 437 462 405 427 475 459 449 452 426 421 468 445 435 479 449 435 447 457 459 403 453 475 409 460 475 470 442 445 451 472 422 467 481 454 467 439 462 451 437 516 444 434 395 450 423 458 449 469 428 446 431 451 454 477 426 456 504 435 444 441 476 454 446 469 456 444 416 455 443 452 416 470 447 514 489 463 436 448 477 436 434 424 448 467 471 469 473 448 438 457 409 393 462 416 431 432 427 447 460 429 476 417 439 426 426 432 445 432 427 461 423 417 429 430 444 425 447 412 483 426 471 452 439 429 445 444 441 441 386 436 449 456 443 460 449 460 439 419 462 448 426 462 409 432 475 393 474 464 470 470 428 456 459 479 457 450 473 483 483 454 452 468 479 481 454 458 434 436 411 468 421 479 446 453 448 432 469 455 492 454 435 455 441 444 458 418 468 457 500 449 487 419 435 453 497 475 477 458 444 422 457 432 442 453 431 438 461 482 452 464 462 451 467 477 466 488 445 424 464 490 412 481 455 459 450 467 457 430 474 429 438 426 456 456 448 455 454 455 468 474 460 458 437 471 437 481 415 420 445 482 454 446 490 469 407 464 454 440 448 483 431 405 450 435 427 454 438 458 482 443 467 452 465 462 412 467 435 427 471 452 426 466 443 465 458 443 454 436 461 466 440 426 484 453 463 420 467 426 460 470 464 420 445 437 470 473 470 459 455 433 467 504 473 468 454 428 453 459 438 512 446 443 430 475 452 474 432 470 503 470 486 444 441 463 450 446 471 470 450 479 483 522 483 481 485 489 473 489 495 507 464 553 508 491 507 484 515 515 518 506 510 534 494 521 545 471 498 571 513 506 555 550 521 520 494 518 507 540 551 481 520</counts>
			</dataPoints>
		</scan>
	</xrdMeasurement>
</xrdMeasurements>
