<?xml version="1.0"?>
<xrdMeasurements xmlns="http://www.xrdml.com/XRDMeasurement/2.3" xmlns:xsi="http://www.w3.org/2001/XMLSchema-instance" xsi:schemaLocation="http://www.xrdml.com/XRDMeasurement/2.3 http://www.xrdml.com/XRDMeasurement/2.3/XRDMeasurement.xsd" status="Completed" recordIdentifier="{BF073E46-53DF-4E4A-AE79-285928EC78AB}">
	<comment>
		<entry/>
	</comment>
	<sample type="To be analyzed">
		<id>GPSS_Li1p65Mn0p89Hf0p03V0p15Cl4_112225_6921f967f4e53d1f72397d3e</id>
		<name></name>
		<preparedBy></preparedBy>
	</sample>
	<xrdMeasurement measurementType="Scan" status="Completed" sampleMode="Reflection">
		<usedWavelength intended="K-Alpha 1">
			<kAlpha1 unit="Angstrom">1.5405980</kAlpha1>
			<kAlpha2 unit="Angstrom">1.5444260</kAlpha2>
			<kBeta unit="Angstrom">1.3922500</kBeta>
			<ratioKAlpha2KAlpha1>0.5000</ratioKAlpha2KAlpha1>
		</usedWavelength>
		<incidentBeamPath>
			<radius unit="mm">145.00</radius>
			<xRayTube id="1010048" name="Empyrean Cu LFF HR (9430 033 7310x)">
				<tension unit="kV">40.0</tension>
				<current unit="mA">15.0</current>
				<anodeMaterial>Cu</anodeMaterial>
				<focus type="Line">
					<length unit="mm">12.0</length>
					<width unit="mm">0.4</width>
					<takeOffAngle unit="deg">6.0</takeOffAngle>
				</focus>
			</xRayTube>
			<sollerSlit id="21010002" name="Soller slits 0.04 rad.">
				<opening unit="rad">0.0400</opening>
			</sollerSlit>
			<mask id="22031000" name="Fixed mask 13 mm">
				<width unit="mm">9.00</width>
			</mask>
			<divergenceSlit id="22120001" name="Divergence slit 1°" xsi:type="fixedDivergenceSlitType">
				<distanceToSample unit="mm">50.00</distanceToSample>
				<height unit="mm">1.52</height>
			</divergenceSlit>
		</incidentBeamPath>
		<sampleMovement xsi:type="spinningSampleMovementType">
			<spinnerRevolutionTime unit="seconds">1.0</spinnerRevolutionTime>
		</sampleMovement>
		<diffractedBeamPath>
			<radius unit="mm">145.00</radius>
			<antiScatterSlit id="22090040" name="AS slit 9 mm (PIXcel)" xsi:type="fixedAntiScatterSlitType">
				<height unit="mm">9.00</height>
			</antiScatterSlit>
			<sollerSlit id="21020003" name="Large Soller slits 0.04 rad.">
				<opening unit="rad">0.0400</opening>
			</sollerSlit>
			<filter id="20030001" name="Large beta-filter Nickel">
				<material>Ni</material>
				<thickness unit="mm">0.020</thickness>
			</filter>
			<detector id="7010019" name="PIXcel1D-Medipix3 detector" xsi:type="rtmsDetectorType">
				<phd unit="keV">
					<lowerLevel>4.02</lowerLevel>
					<upperLevel>11.27</upperLevel>
				</phd>
				<mode>Scanning</mode>
				<activeLength unit="deg">5.542</activeLength>
			</detector>
		</diffractedBeamPath>
		<scan appendNumber="0" mode="Continuous" scanAxis="Gonio" status="Completed">
			<header>
				<startTimeStamp>2025-11-24T12:34:14-08:00</startTimeStamp>
				<endTimeStamp>2025-11-24T12:42:21-08:00</endTimeStamp>
				<author>
					<name>AutomatedUser</name>
				</author>
				<source>
					<applicationSoftware version="1.7b (136)">PANalytical Aeris Instrument Suite</applicationSoftware>
					<instrumentControlSoftware version="3.2.00000000 20240306">AERIS</instrumentControlSoftware>
					<instrumentID>950485</instrumentID>
				</source>
			</header>
			<dataPoints>
				<positions axis="2Theta" unit="deg">
					<startPosition>10.00943322</startPosition>
					<endPosition>99.99442286</endPosition>
				</positions>
				<positions axis="Omega" unit="deg">
					<startPosition>5.00471661</startPosition>
					<endPosition>49.99721143</endPosition>
				</positions>
				<commonCountingTime unit="seconds">12.495</commonCountingTime>
				<counts unit="counts">2941 2824 2886 2868 2900 2878 2964 2902 2898 3051 2897 2878 2950 2934 2879 2837 2855 2986 3007 2972 2874 2857 2882 2931 2825 2924 2915 2827 2817 2943 2918 2963 2902 2908 2833 2875 2913 2814 2953 2871 2857 2943 2832 2847 2862 2911 2841 2842 2869 2959 2956 2870 2833 2939 2855 2935 2887 2886 2989 2887 2861 2875 2933 2925 2906 2909 3014 3008 2947 2930 2856 3014 3012 2998 2961 2893 2957 2921 2951 2955 2992 2922 2957 3138 2882 2923 3028 3069 2979 3032 2973 2985 2884 2944 2931 2912 2919 3007 2921 2949 2994 2926 2992 2944 2894 2950 2961 3023 2930 3008 2943 2956 3039 2959 3006 3018 2970 2958 3019 3086 2938 3010 3004 3035 2978 2975 2955 2961 2857 3001 2873 2943 3034 2987 2950 2940 3092 2987 3020 2899 3032 3017 2948 3033 2985 2952 3006 2989 2943 2989 2976 2962 2970 2882 3018 3100 3074 2956 3012 3032 2936 2940 3038 2946 3117 2958 3050 2869 3025 2956 3018 3068 3012 3002 2982 2985 3001 3089 2902 3049 2918 2925 2916 2937 2912 2935 2953 2941 2927 2930 3041 3018 2908 2984 3037 2957 2916 2958 2947 2901 2969 2925 2880 3026 2977 3060 2968 2963 3086 2916 2875 2943 2980 2892 2884 2878 2997 2982 2994 2972 2965 3013 2937 2981 3015 2851 2947 3000 2940 3059 2954 3052 2921 2960 2925 2965 2922 2845 2967 2869 2929 2990 2866 2924 3012 2943 2946 2924 2906 2893 3009 2877 2938 2980 3005 2981 2899 2810 2954 2992 2908 2943 2909 2956 2976 2936 2799 3015 2924 2887 2932 2916 2974 2977 2902 2928 2919 2842 3049 2912 3000 2776 3027 2890 2953 2895 2876 2959 3034 3050 3032 2974 2989 3008 2992 2987 2978 2932 3024 3001 2946 3058 3116 2939 3060 2997 3011 2943 2994 2929 2973 3043 3008 3000 3044 3055 3053 3009 3070 3079 3031 2862 3066 3088 2969 3005 3114 3087 3021 3178 3106 2996 3127 3078 3180 3153 3162 3113 3112 3135 3079 3083 3151 3239 3201 3240 3196 3147 3150 3151 3091 3146 3163 3175 3258 3160 3230 3189 3216 3166 3320 3261 3193 3171 3214 3102 3229 3174 3241 3301 3394 3296 3263 3258 3282 3390 3301 3223 3276 3414 3345 3400 3296 3455 3411 3435 3300 3342 3418 3306 3433 3473 3432 3432 3373 3478 3367 3566 3547 3482 3494 3563 3520 3619 3562 3644 3567 3644 3715 3647 3778 3755 3708 3846 3731 3870 3837 4015 4028 4162 4131 4044 4179 4239 4401 4349 4474 4486 4653 4676 4646 4798 4711 4865 4754 4810 4818 4775 4865 4925 4816 4755 4772 4632 4913 4709 4579 4663 4478 4471 4583 4544 4485 4375 4264 4401 4408 4232 4351 4275 4314 4351 4516 4513 4422 4422 4414 4438 4554 4543 4547 4684 4652 4651 4755 4871 4849 4775 4834 4760 4790 4749 4593 4594 4501 4549 4509 4423 4166 4388 4339 4301 4210 4020 4205 4122 3834 3798 3909 3890 3848 3819 3787 3742 3835 3697 3601 3605 3607 3661 3630 3593 3592 3510 3520 3539 3521 3516 3425 3487 3484 3510 3489 3351 3433 3323 3264 3373 3306 3367 3396 3325 3320 3171 3381 3371 3298 3253 3252 3297 3230 3177 3306 3321 3220 3310 3300 3229 3315 3193 3242 3264 3233 3119 3151 3192 3079 3120 3212 3155 3106 3255 3159 3229 3082 3260 3161 3186 3224 3147 3098 3116 3087 3149 3191 3284 3200 3183 3172 3158 3124 3169 3161 3024 3178 2965 3086 3178 3111 3095 3061 2995 3166 3133 3112 3117 3182 3020 3068 3088 3005 3211 2994 3065 3090 3106 3150 3050 3099 3044 2995 3128 3014 3080 3112 3025 3004 3000 3125 3000 2922 3037 3082 2993 3123 3077 2951 3144 3018 3006 3024 3036 3091 2985 3013 2991 3113 2927 3052 2995 2980 3049 2957 3072 3197 3038 3071 3029 2964 2979 3010 3048 2984 3013 3095 3023 3076 3030 3133 2932 2942 3012 2994 3003 2902 3036 3061 2992 3084 2918 3181 2939 2994 2989 2957 3059 3087 2965 3031 2981 3069 3030 2921 3080 3034 3006 2954 2997 2945 2900 2912 2877 2917 2916 2909 3051 3032 2981 3011 2969 2988 3003 2997 2953 2989 2838 2954 2958 2925 2968 3005 2966 2914 3028 2910 2830 2977 3050 2956 2927 2923 2993 2897 2997 2990 2929 2929 2952 3005 2944 2991 2961 3188 2994 2943 2925 2911 2950 2994 2871 2945 2898 2971 2901 2908 2874 2873 2950 2912 2926 2893 3010 3059 2992 2898 2931 2834 2898 2844 2891 2952 2902 2898 2853 2921 2870 2824 2960 2939 2919 2798 2947 2966 2977 2913 2842 3013 3010 2891 2896 2881 2890 2874 2877 2842 2850 2823 2934 2887 2878 2824 2901 2705 2822 2879 2908 3022 2927 2983 2864 2882 2896 2835 2904 2854 2865 2855 2806 2912 2874 2866 2804 2925 2959 2885 2838 2926 2790 2903 2777 2847 2896 2881 2899 2925 2809 2881 2872 2885 2797 2916 2790 2950 2866 2870 2837 2892 2860 2748 2896 2864 2675 2789 2851 2790 2831 2731 2843 2852 2871 2653 2827 2828 2860 2779 2816 2852 2794 2764 2720 2781 2797 2843 2845 2747 2865 2751 2872 2804 2819 2689 2765 2909 2757 2764 2796 2687 2767 2764 2764 2747 2722 2696 2722 2754 2830 2892 2763 2761 2864 2776 2725 2797 2759 2698 2822 2760 2669 2722 2646 2682 2856 2744 2731 2752 2765 2698 2628 2753 2694 2759 2791 2719 2834 2765 2743 2619 2790 2660 2712 2791 2742 2739 2726 2705 2835 2669 2647 2720 2683 2623 2738 2665 2525 2778 2824 2703 2590 2790 2701 2750 2723 2674 2657 2705 2728 2707 2649 2602 2650 2658 2733 2761 2738 2681 2724 2664 2692 2582 2556 2688 2711 2675 2761 2658 2743 2676 2659 2657 2717 2679 2678 2580 2631 2591 2647 2630 2749 2713 2722 2651 2677 2643 2660 2701 2578 2735 2646 2709 2659 2624 2600 2609 2680 2653 2690 2591 2575 2671 2706 2671 2682 2636 2692 2736 2654 2659 2622 2707 2668 2570 2688 2715 2668 2707 2735 2693 2576 2711 2520 2680 2634 2648 2693 2663 2612 2648 2697 2697 2652 2660 2641 2587 2675 2721 2673 2654 2708 2697 2681 2567 2603 2617 2656 2555 2702 2634 2575 2713 2576 2642 2667 2553 2600 2723 2654 2638 2614 2630 2646 2564 2634 2716 2688 2687 2646 2647 2628 2632 2681 2672 2573 2736 2660 2672 2645 2689 2723 2629 2638 2781 2672 2613 2613 2586 2609 2575 2621 2658 2704 2600 2699 2611 2679 2624 2678 2649 2652 2711 2706 2610 2574 2577 2653 2668 2677 2632 2713 2621 2511 2685 2593 2657 2669 2645 2696 2608 2660 2600 2602 2596 2602 2711 2609 2564 2608 2639 2602 2626 2602 2608 2546 2610 2580 2589 2614 2568 2567 2540 2592 2607 2694 2626 2598 2592 2599 2573 2635 2527 2564 2557 2463 2650 2556 2583 2511 2597 2541 2491 2458 2545 2539 2582 2564 2461 2634 2589 2473 2469 2398 2471 2540 2475 2442 2529 2388 2548 2499 2484 2438 2460 2445 2401 2449 2430 2498 2458 2368 2483 2435 2453 2480 2305 2382 2381 2477 2420 2364 2394 2331 2387 2420 2417 2348 2490 2300 2336 2412 2310 2416 2373 2375 2335 2326 2294 2342 2410 2252 2306 2364 2356 2311 2491 2295 2331 2416 2383 2345 2321 2338 2367 2280 2289 2324 2349 2343 2291 2279 2328 2310 2266 2237 2253 2182 2223 2373 2275 2258 2190 2291 2185 2304 2294 2290 2196 2239 2247 2176 2191 2207 2170 2158 2220 2195 2198 2139 2142 2218 2246 2230 2167 2106 2178 2153 2191 2025 2198 2092 2088 2257 2130 2233 2226 2135 2182 2199 2174 2113 2159 2172 2191 2147 2175 2150 2142 2159 2132 2083 2120 2165 2153 2086 2233 2052 2100 2123 2138 2113 2105 2122 2195 2115 2075 2131 2095 2165 2145 2167 2125 2121 2067 2128 2183 2044 2025 2061 2034 2140 2035 2015 2125 2092 2113 2094 2156 2083 2068 2054 2008 2107 2185 2070 2112 2085 2037 2059 2094 2018 2056 2115 2016 2070 2015 2022 2065 2032 2094 2073 2006 2059 1980 2077 2033 2057 1987 2023 2009 1985 2016 2019 2028 2082 2019 2049 2055 2097 1991 2028 1987 2102 2017 2021 1996 2021 2061 2076 2069 2011 2041 2000 2110 2007 2061 2053 1967 2095 2017 1987 2062 2064 2016 2121 2000 2031 2031 1976 2038 1970 2086 2045 2125 2083 2050 1976 2063 2031 2013 2090 2024 2018 1982 2050 1943 1970 2015 2034 2031 2090 2068 2008 2044 2017 1967 2033 2006 1971 2083 2123 2034 2017 2073 2130 1973 2017 1984 1977 2083 1943 2062 2084 2129 1973 2047 2022 1972 2015 2028 2101 2018 2085 2086 2074 1922 2063 2090 2017 2100 2042 2030 2100 2048 2099 2000 2035 2013 2029 2019 1970 2087 2057 2080 1964 1953 2040 2053 2017 2012 1896 2038 2077 2044 2084 1953 2063 2045 2133 2024 2105 2105 2017 2039 2034 2054 2093 2042 2038 2000 2082 1971 1963 2076 2031 2024 1990 2028 1995 2000 1997 2027 1983 2060 1977 1920 2028 2089 2079 1935 1998 1996 1975 1941 1994 2044 1935 1947 1948 1976 2049 1955 1944 1988 1977 2002 2016 1945 1964 1929 2099 2042 2020 1955 1935 2006 1946 1920 1972 2030 1988 1985 1890 1930 1974 1934 1973 1961 1930 1983 1991 1859 1921 1907 1952 1837 1899 1874 1991 1953 1924 1882 1925 1839 1969 1968 1923 1916 1852 1849 1954 1944 1880 1830 1881 1805 1966 1959 1764 1835 1822 1804 1849 1835 1819 1766 1843 1828 1864 1954 1882 1878 1851 1913 1880 1905 1907 1845 1766 1878 1837 1819 1773 1812 1804 1850 1810 1902 1858 1841 1855 1830 1811 1832 1861 1781 1889 1786 1815 1868 1817 1858 1784 1820 1826 1833 1887 1828 1843 1768 1840 1808 1894 1887 1854 1831 1850 1894 1857 1895 1826 1912 1928 2015 1959 1979 2030 2025 2128 2014 2162 2298 2306 2298 2421 2440 2500 2527 2712 2710 2784 2906 2880 2964 3039 3121 3112 3081 3104 3062 3083 2951 3003 2871 2887 2905 2820 2702 2651 2579 2661 2529 2513 2389 2295 2358 2273 2221 2186 2115 2129 1996 2109 1924 2048 1886 1937 1906 1918 1877 1816 1852 1808 1910 1848 1855 1863 1894 1862 1857 1832 1805 1792 1791 1872 1799 1760 1741 1709 1767 1795 1778 1800 1762 1806 1715 1827 1667 1798 1789 1677 1698 1773 1710 1670 1692 1714 1650 1691 1734 1683 1628 1771 1758 1632 1606 1704 1674 1716 1698 1744 1700 1749 1731 1689 1675 1728 1790 1724 1709 1699 1861 1805 1820 1921 1844 1986 1948 1974 2098 2153 2282 2383 2477 2614 2610 2778 2913 2987 3189 3124 3287 3331 3373 3228 3279 3465 3396 3439 3400 3302 3253 3266 3144 3166 3033 2930 2988 2870 2746 2665 2610 2457 2451 2291 2321 2282 2254 2273 2125 2019 2058 2014 2063 1985 2117 2030 2079 2044 2029 2148 2107 2077 2233 2214 2191 2193 2283 2316 2407 2446 2498 2464 2540 2464 2495 2517 2466 2521 2508 2519 2479 2376 2298 2188 2251 2223 2058 2205 2040 2081 1986 1959 1881 1816 1805 1722 1844 1663 1733 1739 1699 1652 1620 1666 1550 1625 1611 1560 1616 1622 1672 1670 1672 1605 1626 1571 1605 1626 1601 1546 1630 1637 1587 1613 1642 1551 1651 1563 1525 1535 1556 1600 1661 1523 1607 1541 1490 1635 1576 1441 1507 1564 1535 1527 1505 1543 1521 1528 1473 1480 1485 1482 1484 1498 1479 1500 1521 1461 1545 1444 1493 1505 1488 1496 1440 1568 1457 1474 1397 1456 1514 1397 1463 1483 1516 1507 1472 1485 1443 1432 1440 1347 1438 1427 1455 1477 1530 1428 1452 1440 1421 1418 1393 1420 1381 1391 1509 1406 1367 1438 1458 1391 1449 1376 1441 1475 1414 1431 1404 1424 1433 1456 1430 1426 1393 1414 1419 1457 1318 1407 1358 1405 1460 1389 1378 1426 1465 1414 1399 1458 1387 1407 1412 1354 1482 1396 1381 1409 1439 1433 1364 1403 1365 1405 1397 1420 1351 1414 1434 1355 1389 1392 1411 1389 1404 1435 1350 1361 1445 1373 1388 1395 1419 1425 1392 1395 1377 1363 1393 1441 1451 1366 1442 1373 1378 1379 1263 1363 1369 1330 1377 1371 1339 1357 1375 1392 1388 1402 1442 1421 1333 1412 1345 1369 1340 1325 1389 1387 1319 1329 1373 1378 1344 1315 1426 1410 1401 1355 1372 1420 1407 1329 1360 1367 1400 1416 1352 1337 1394 1347 1330 1403 1499 1411 1348 1381 1410 1421 1370 1365 1388 1452 1467 1406 1422 1468 1431 1428 1469 1377 1419 1346 1474 1385 1405 1357 1360 1404 1485 1388 1455 1506 1378 1438 1496 1396 1517 1452 1501 1421 1484 1446 1479 1495 1505 1448 1506 1510 1452 1514 1509 1489 1482 1487 1416 1417 1536 1537 1463 1459 1473 1518 1489 1477 1524 1494 1497 1570 1464 1551 1554 1492 1523 1578 1551 1551 1543 1574 1594 1537 1475 1575 1544 1570 1611 1541 1614 1570 1588 1626 1668 1618 1653 1701 1676 1668 1762 1714 1726 1714 1810 1776 1848 1838 1878 1975 1972 2082 2134 2085 2180 2326 2406 2478 2544 2763 2887 3122 3378 3524 3897 4274 4327 4606 4994 5477 5431 5980 6116 6630 6840 7210 7062 7315 7587 7667 7540 7780 7856 7723 7605 7455 7161 7059 6943 6745 6366 6143 6079 5804 5365 5240 5009 4888 4808 4611 4376 4359 4348 4149 4078 3985 3972 4023 3919 3845 4052 3812 3953 3954 3949 4024 3846 3813 3719 3819 3580 3577 3522 3690 3683 3608 3535 3532 3572 3469 3574 3681 3742 3765 3758 3922 3878 4044 3970 4034 4174 4184 4220 4043 4008 3878 3900 3699 3705 3340 3345 3194 3186 2936 2725 2647 2569 2442 2347 2228 2092 2020 1988 1975 1888 1817 1752 1727 1675 1726 1610 1686 1632 1604 1571 1620 1598 1499 1475 1548 1531 1478 1545 1578 1411 1472 1488 1449 1437 1440 1406 1513 1409 1438 1416 1484 1430 1437 1419 1448 1358 1374 1397 1424 1394 1419 1307 1429 1368 1403 1383 1328 1357 1369 1380 1381 1337 1340 1292 1357 1457 1368 1277 1349 1368 1405 1297 1377 1252 1356 1363 1310 1356 1318 1285 1320 1290 1366 1342 1349 1288 1258 1326 1303 1212 1317 1386 1372 1343 1277 1289 1342 1327 1278 1291 1284 1291 1330 1307 1298 1387 1315 1281 1337 1238 1258 1280 1302 1288 1305 1354 1280 1334 1204 1298 1197 1222 1295 1298 1290 1254 1282 1322 1292 1281 1269 1304 1286 1242 1293 1265 1271 1243 1276 1273 1230 1303 1264 1209 1287 1324 1306 1282 1260 1278 1232 1261 1244 1285 1351 1305 1152 1311 1324 1329 1258 1229 1272 1280 1247 1306 1252 1328 1323 1292 1284 1254 1223 1223 1294 1245 1286 1213 1263 1268 1259 1233 1212 1245 1301 1280 1253 1223 1253 1222 1271 1253 1210 1206 1231 1326 1251 1312 1229 1301 1243 1230 1280 1177 1305 1235 1337 1276 1301 1263 1339 1279 1328 1322 1292 1273 1289 1285 1322 1329 1294 1281 1339 1299 1343 1365 1343 1324 1274 1317 1299 1299 1278 1196 1267 1296 1239 1248 1281 1335 1281 1305 1222 1304 1232 1301 1317 1248 1294 1263 1256 1277 1268 1249 1313 1241 1368 1310 1284 1360 1344 1284 1348 1389 1337 1357 1354 1280 1355 1308 1311 1398 1356 1321 1394 1361 1307 1307 1292 1271 1287 1263 1296 1256 1209 1307 1243 1209 1238 1243 1237 1198 1245 1231 1229 1252 1175 1160 1242 1251 1153 1225 1183 1176 1235 1146 1184 1188 1151 1175 1211 1197 1222 1136 1191 1236 1159 1213 1151 1178 1198 1195 1213 1207 1270 1221 1184 1162 1148 1254 1248 1187 1230 1145 1174 1174 1240 1149 1180 1131 1197 1199 1106 1138 1134 1204 1222 1226 1187 1140 1180 1218 1175 1125 1165 1127 1140 1172 1186 1177 1189 1211 1173 1239 1176 1175 1150 1204 1146 1131 1164 1171 1159 1115 1096 1186 1150 1146 1130 1133 1188 1235 1132 1139 1108 1150 1181 1162 1158 1125 1197 1217 1218 1115 1138 1064 1139 1129 1082 1173 1107 1202 1162 1106 1163 1084 1194 1210 1180 1231 1107 1130 1123 1169 1122 1142 1183 1067 1112 1111 1157 1186 1125 1139 1139 1109 1160 1112 1132 1147 1145 1110 1198 1195 1169 1197 1168 1150 1157 1110 1200 1166 1086 1091 1136 1138 1178 1130 1186 1115 1104 1196 1146 1167 1149 1117 1145 1196 1082 1110 1110 1156 1138 1215 1134 1153 1188 1118 1185 1139 1137 1163 1109 1148 1181 1143 1149 1125 1160 1150 1171 1178 1142 1125 1139 1121 1183 1135 1094 1034 1129 1105 1097 1107 1123 1087 1163 1078 1197 1047 1156 1104 1140 1136 1158 1134 1165 1164 1146 1091 1080 1084 1124 1124 1176 1098 1100 1136 1188 1136 1151 1150 1122 1117 1113 1118 1122 1092 1135 1052 1148 1172 1128 1112 1135 1142 1144 1126 1118 1177 1107 1105 1114 1196 1081 1188 1130 1063 1094 1099 1141 1076 1057 1139 1130 1109 1189 1096 1116 1165 1113 1157 1081 1123 1110 1103 1122 1113 1128 1174 1100 1098 1072 1013 1054 1143 1103 1183 1195 1104 1143 1127 1103 1158 1104 1088 1110 1109 1112 1136 1111 1150 1079 1107 1132 1165 1124 1103 1061 1128 1102 1153 1112 1134 1140 1141 1104 1112 1107 1110 1080 1072 1115 1089 1141 1139 1131 1111 1140 1156 1139 1082 1078 1076 1072 1129 1067 1132 1082 1157 1120 1095 1052 1111 1086 1074 1017 1087 1085 1166 1135 1120 1139 1085 1148 1079 1100 1094 1151 1155 1116 1103 1109 1149 1134 1162 1068 1070 1095 1168 1123 1079 1066 1166 1119 1113 1071 1144 1144 1142 1164 1066 1098 1095 1111 1165 1124 1163 1114 1102 1063 1131 1124 1131 1098 1158 1101 1117 1061 1137 1114 1145 1126 1112 1094 1127 1107 1142 1137 1034 1157 1150 1079 1096 1094 1108 1104 1167 1123 1144 1145 1159 1085 1041 1179 1138 1167 1105 1109 1128 1134 1160 1125 1087 1134 1147 1142 1112 1129 1095 1099 1073 1155 1112 1128 1173 1105 1122 1087 1122 1188 1180 1149 1188 1100 1140 1129 1211 1153 1156 1086 1184 1080 1132 1098 1154 1085 1142 1147 1140 1161 1142 1127 1094 1115 1189 1167 1088 1075 1141 1090 1078 1151 1172 1101 1117 1218 1059 1180 1135 1093 1121 1133 1098 1085 1046 1120 1083 1137 1141 1138 1094 1070 1122 1090 1113 1107 1121 1056 1087 1076 1080 1070 1122 1126 1149 1080 1147 1093 1100 1123 1116 1118 1103 1097 1113 1171 1070 1106 1091 1114 1107 1114 1112 1087 1112 1105 1121 1057 1097 1096 1105 1143 1116 1140 1149 1073 1154 1124 1083 1118 1064 1101 1112 1105 1091 1096 1089 1068 1142 1081 1109 1119 1094 1125 1134 1129 1084 1103 1120 1148 1062 1099 1137 1054 1125 1141 1146 1165 1143 1170 1193 1146 1141 1137 1195 1109 1146 1128 1113 1126 1220 1150 1182 1156 1178 1152 1185 1201 1202 1241 1160 1257 1250 1276 1314 1365 1390 1437 1436 1466 1449 1452 1521 1566 1608 1534 1621 1628 1715 1658 1635 1729 1664 1737 1667 1654 1656 1611 1645 1602 1526 1544 1511 1516 1398 1489 1341 1361 1358 1309 1253 1238 1296 1267 1270 1272 1214 1234 1164 1195 1159 1232 1206 1150 1160 1225 1196 1188 1214 1165 1164 1135 1216 1188 1175 1122 1128 1186 1120 1112 1179 1211 1128 1210 1138 1165 1235 1176 1128 1189 1202 1172 1150 1189 1215 1167 1186 1167 1200 1243 1148 1238 1231 1192 1254 1211 1254 1231 1324 1215 1242 1262 1255 1250 1295 1238 1291 1258 1273 1209 1263 1231 1279 1243 1208 1237 1198 1188 1160 1165 1197 1230 1178 1168 1211 1156 1159 1160 1169 1118 1140 1173 1101 1089 1159 1137 1088 1113 1115 1120 1101 1110 1119 1138 1107 1137 1121 1145 1144 1123 1138 1118 1098 1135 1136 1096 1075 1076 1124 1108 1144 1082 1144 1101 1107 1077 1131 1164 1110 1097 1074 1052 1111 1088 1043 1057 1046 1082 1090 1083 1064 1056 1068 1087 1115 1067 1064 1174 1043 1072 1079 1060 1049 1059 1088 1113 1064 1071 1041 1108 1093 1090 1062 1161 1127 1130 1053 1027 1077 1099 1129 1000 1072 1049 1062 1072 1123 1091 1045 1132 1069 1109 1094 1077 1066 1045 1071 1055 1122 1124 1107 1034 1097 1056 1055 1097 1078 1080 1105 1106 1087 1022 1070 1066 1100 1118 1080 1084 1072 1037 1046 1054 1081 1118 1074 1038 1100 1030 1078 1046 1130 1134 1103 1130 1066 1112 1073 1111 1130 1086 1155 1060 1075 1045 1034 1113 1082 1110 1126 1094 1067 1134 1084 1070 1059 1078 1100 1058 1127 1070 1164 1071 1085 1143 1039 1111 1137 1064 1059 1119 1087 1168 1131 1067 1093 1112 1126 1094 1085 1105 1134 1101 1106 1048 1057 1111 1080 1134 1145 1074 1116 1126 1049 1051 1126 1135 1109 1125 1110 1103 1068 1109 1158 1101 1102 1125 1045 1132 1130 1037 1046 1161 1045 1122 1134 1129 1109 1087 1130 1148 1157 1149 1169 1126 1182 1119 1157 1130 1094 1162 1146 1189 1150 1145 1159 1197 1165 1205 1231 1166 1195 1241 1205 1250 1284 1258 1250 1310 1427 1348 1367 1533 1395 1491 1560 1606 1685 1808 1819 2006 2141 2239 2378 2487 2739 2920 3007 3145 3480 3422 3731 3979 3998 4175 4246 4350 4413 4553 4488 4424 4661 4512 4550 4542 4389 4328 4343 4263 3835 3799 3745 3476 3341 3306 3204 3005 2792 2698 2516 2479 2328 2299 2117 2061 2034 1878 1808 1791 1726 1694 1684 1664 1619 1590 1594 1608 1467 1494 1500 1529 1428 1535 1492 1463 1557 1458 1421 1473 1496 1419 1396 1449 1423 1409 1351 1411 1423 1419 1394 1337 1357 1534 1435 1342 1446 1434 1416 1413 1441 1419 1584 1434 1430 1488 1561 1604 1547 1630 1738 1810 1760 1893 1926 1998 1939 1902 1947 1888 1936 1907 1910 1903 1981 1943 1923 2031 1977 1976 1953 1797 1792 1778 1782 1708 1645 1637 1648 1602 1520 1540 1570 1475 1574 1412 1503 1463 1413 1361 1354 1307 1272 1302 1257 1231 1251 1241 1198 1246 1277 1222 1188 1185 1212 1153 1197 1189 1144 1123 1143 1131 1205 1168 1145 1116 1162 1149 1192 1172 1133 1111 1109 1106 1180 1106 1094 1074 1113 1085 1126 1055 1118 1137 1062 1119 1127 1078 1126 1138 1060 1153 1067 1042 1086 1063 1028 1062 1016 1084 1104 1103 1064 1101 1125 1041 1048 1050 1129 1044 1095 1098 1018 1082 1125 1160 1119 1130 1115 1155 1081 1127 1201 1118 1159 1183 1203 1204 1161 1208 1228 1259 1329 1286 1362 1304 1375 1432 1507 1450 1532 1424 1612 1599 1617 1634 1547 1670 1590 1654 1608 1610 1577 1631 1500 1618 1588 1488 1471 1426 1436 1427 1464 1470 1363 1305 1261 1310 1272 1241 1300 1233 1245 1160 1203 1184 1125 1164 1146 1137 1108 1109 1136 1128 1103 1151 1149 1134 1065 1090 1119 1130 1134 1137 1183 1114 1109 1191 1095 1158 1156 1127 1198 1152 1202 1124 1086 1137 1174 1135 1208 1117 1124 1158 1144 1104 1112 1100 1119 1122 1157 1070 1137 1046 998 1114 1089 1121 1052 1119 1088 1027 1043 1026 1082 992 1023 1075 1050 1028 1013 1060 997 1030 990 1053 1031 1017 1041 1034 981 992 1011 991 1062 1050 976 1040 971 986 1021 1011 1004 989 1003 1056 991 1020 990 996 1007 959 987 1018 996 973 980 970 1014 1010 999 1006 1021 1072 986 940 989 973 1065 972 1026 978 1034 977 990 987 1053 1022 983 978 1029 1035 1021 937 1066 1017 1013 999 998 959 994 980 991 964 970 957 1032 1024 1048 989 966 1041 972 1029 979 1046 976 999 1036 1025 1004 982 971 929 991 908 977 1008 1015 972 1002 1034 1037 1001 929 1020 978 945 993 977 1008 1001 1006 1000 973 1030 984 1034 979 967 1028 1033 979 945 1008 946 964 983 951 1020 994 1018 992 1007 1009 963 953 1003 975 961 999 1009 961 976 979 973 976 955 1047 984 953 959 1028 938 1006 1058 1014 943 1011 995 984 961 1046 946 965 1027 994 995 1023 1014 1001 1031 1005 981 1046 1010 1013 976 971 1023 1054 1040 947 1024 991 987 937 992 982 1005 1034 1021 1005 983 1026 1054 1004 1034 981 1020 984 973 1002 953 1009 959 1032 1014 1008 988 947 1021 987 1007 943 996 1020 958 991 1004 977 1011 1014 972 940 988 993 993 974 973 986 960 973 1031 933 929 964 1007 963 1007 970 978 987 971 969 978 963 996 986 1008 916 969 998 982 975 987 960 988 1023 976 974 931 985 966 961 1004 949 1008 970 1001 1002 934 1032 981 961 1007 954 984 978 987 972 971 1011 971 1032 981 918 899 969 1011 915 972 965 983 987 961 954 965 941 965 972 995 925 996 974 954 998 961 989 969 952 973 942 1011 960 972 1008 943 944 920 990 985 941 905 968 1006 1008 958 953 976 943 893 933 958 941 1013 976 964 981 955 1002 937 1032 936 976 904 1022 978 939 1036 959 1062 951 981 976 1033 984 989 978 956 968 1064 946 946 956 938 1021 975 960 939 928 944 1015 979 970 954 950 969 958 953 985 948 973 941 960 952 925 964 914 981 954 958 990 979 968 928 1017 992 982 953 959 969 967 994 960 937 983 951 983 945 949 942 979 914 970 913 996 980 956 962 919 953 981 978 948 913 973 946 940 950 931 941 1026 985 950 995 1009 1024 981 958 997 974 912 998 972 1039 1028 1056 1014 1042 1088 1077 1092 1068 1055 1055 1050 1019 1137 1036 1085 1045 1073 1084 1090 1119 1145 1090 1034 1019 1024 1068 1113 1056 1062 1029 1022 1069 1065 1110 995 1037 970 1016 1042 1053 980 962 1018 1003 1049 992 974 981 1059 990 1020 1031 1038 1061 1060 1021 969 1027 971 1052 982 1064 1037 1072 1085 1095 1061 1111 1125 1124 1107 1128 1132 1129 1162 1214 1183 1241 1186 1247 1271 1295 1328 1314 1314 1296 1356 1372 1330 1369 1237 1345 1302 1212 1305 1244 1233 1237 1244 1214 1190 1233 1177 1124 1122 1137 1103 1027 1089 1031 1104 995 1056 1075 1138 1018 1070 1026 1066 987 979 1034 994 1072 1018 1091 994 1031 956 1077 951 961 1038 1010 1008 945 959 940 1008 1021 1042 927 1041 1009 970 982 963 964 961 1044 1026 968 1005 995 1000 999 973 942 962 976 1013 991 996 980 1060 1009 1011 1036 962 1031 1026 1011 1001 1011 1060 1005 1054 1072 1106 1085 1084 1117 1198 1177 1123 1195 1139 1236 1214 1251 1281 1229 1208 1283 1239 1204 1233 1212 1233 1270 1213 1275 1234 1227 1180 1164 1204 1127 1116 1125 1121 1153 1128 1049 1080 1035 1070 1066 1040 996 1031 988 1010 981 1001 1017 922 1019 1030 981 989 974 966 990 968 989 948 1000 960 975 995 1040 956 968 954 959 952 935 986 965 967 990 923 937 945 936 935 961 978 965 1016 972 972 971 953 977 938 975 942 979 961 982 965 974 1019 953 926 937 944 955 1001 1004 963 952 982 955 933 993 956 960 985 998 944 980 929 952 982 990 1034 980 1016 977 972 976 981 1043 1000 977 990 999 1017 952 965 964 960 1016 1010 1032 1060 1067 1023 1007 1076 1036 1063 1081 1106 1172 1175 1220 1163 1261 1239 1221 1321 1318 1444 1446 1556 1446 1518 1600 1545 1524 1651 1630 1689 1691 1650 1750 1760 1820 1768 1727 1759 1770 1705 1711 1651 1694 1686 1606 1582 1597 1572 1492 1548 1495 1506 1393 1419 1421 1430 1361 1314 1339 1308 1340 1314 1244 1279 1187 1216 1206 1236 1133 1183 1130 1071 1132 1093 1054 1107 1110 1107 1069 1059 1036 1086 1079 1071 1057 1030 983 1058 1068 1030 1060 972 1050 1069 1018 1025 1037 968 1037 992 1017 987 967 967 1019 949 1066 934 955 955 977 979 958 1006 993 935 992 972 1037 1022 985 948 982 954 992 1023 990 975 1017 989 979 1006 1015 1052 1029 1027 1069 1092 1031 1050 1104 1115 1059 1066 1068 1080 1110 1064 1080 1064 1014 1061 1073 1079 1056 1080 1012 1008 1068 1077 957 1027 1014 1044 1014 1007 971 1004 932 976 967 1012 932 934 1035 977 918 959 1021 993 1007 947 951 934 942 885 966 952 993 934 982 929 967 943 940 1007 949 1017 985 1031 906 1004 1025 1025 1057 991 979 1023 1004 1022 1036 1059 1075 1117 1089 1112 1097 1083 1157 1111 1117 1177 1087 1202 1243 1184 1178 1123 1219 1196 1134 1136 1146 1214 1185 1124 1239 1100 1149 1117 1139 1095 1101 1122 1054 1085 1099 1133 1143 1084 1091 1053 1024 1070 1091 983 991 1023 1019 1039 1026 1031 1022 995 953 1018 947 1040 1028 987 1029 1005 1043 924 966 985 1037 959 984 929 976 975 970 1055 980 994 978 937 957 1035 982 1007 896 932 965 953 875 966 895 986 953 954 985 916 986 954 941 874 955 949 978 995 918 941 925 966 969 966 948 950 934 932 920 921 918 946 891 949 987 941 901 922 901 987 959 940 926 950 923 943 941 970 962 1014 954 948 862 853 870 928 875 987 892 933 862 959 903 977 943 938 933 950 952 928 925 943 946 908 895 932 930 900 983 970 948 991 981 935 923 991 991 981 915 954 999 988 996 951 1012 933 951 959 931 973 994 972 968 882 938 942 922 940 922 927 936 914 922 960 914 991 948 959 915 938 991 955 947 935 920 909 956 946 920 946 951 957 919 905 937 901 901 969 900 910 906 941 909 880 940 954 908 894 892 886 895 942 919 903 919 920 856 884 912 907 954 903 873 874 939 958 898 918 890 920 911 872 942 906 923 924 859 914 911 991 908 908 892 865 927 876 888 938 886 946 946 918 883 896 888 885 854 935 882 919 913 871 884 860 917 949 954 899 943 943 888 894 939 892 883 901 926 896 935 880 930 934 877 962 849 909 876 887 883 930 916 844 898 908 947 906 877 893 898 888 876 933 904 882 907 902 904 910 888 910 929 976 935 916 918 898 894 878 935 940 905 918 914 887 896 927 947 898 899 903 894 933 969 864 895 861 883 948 896 886 888 921 917 906 922 911 931 930 914 891 867 931 902 981 909 854 882 944 914 843 884 862 904 929 901 852 901 924 865 887 900 879 869 891 928 918 884 999 949 889 903 840 848 923 856 896 827 910 901 920 927 888 897 862 947 927 881 934 899 849 870 902 926 931 912 876 924 916 932 916 898 884 901 936 876 868 887 919 920 934 920 970 867 903 963 873 883 890 873 932 937 931 888 922 875 858 912 914 917 925 891 876 932 919 894 883 931 909 929 876 903 902 870 871 872 888 901 883 926 928 859 900 935 869 945 922 888 996 880 943 947 962 945 868 962 1005 979 960 983 977 985 954 1001 968 1075 986 1048 968 975 1010 961 1054 941 1022 954 1019 1043 947 1008 956 960 978 993 970 1032 937 951 982 948 930 910 855 893 940 958 947 882 901 974 966 931 969 966 902 931 968 945 1015 969 950 872 895 870 947 924 983 901 946 956 927 904 985 917 948 934 970 888 881 962 925 971 904 926 944 944 931 899 904 999 897 935 938 937 934 885 932 975 972 921 934 936 968 899 937 915 971 939 921 893 929 876 923 938 911 988 952 917 884 933 902 949 929 931 959 927 929 909 933 944 912 913 918 940 956 957 895 958 905 930 933 969 900 885 937 951 894 878 900 891 890 953 873 934 959 922 855 875 933 852 852 926 879 887 942 884 883 922 890 942 879 928 862 890 919 897 874 944 922 839 839 880 907 885 889 921 927 911 902 851 917 881 912 888 916 892 857 904 928 881 860 898 933 898 902 887 855 921 943 896 877 899 919 869 864 846 904 967 879 920 932 911 904 825 904 915 862 930 907 958 901 970 956 949 929 919 906 853 888 944 886 810 873 860 923 868 917 833 882 920 922 820 940 870 929 906 888 928 895 931 875 868 965 885 902 938 983 840 924 878 899 912 943 958 905 953 936 907 978 889 934 929 951 958 946 900 944 933 942 966 916 958 969 971 924 972 956 1004 967 928 1077 995 1045 1104 1116 1041 1064 1011 1101 1083 1088 1099 1080 1101 1163 1159 1147 1148 1196 1150 1184 1202 1220 1159 1226 1174 1159 1184 1171 1160 1141 1147 1137 1192 1154 1114 1087 1107 1170 1143 1109 1088 1129 1103 1083 1044 1095 1055 987 1014 1014 1053 1046 1050 1004 1014 995 985 1039 965 998 1005 921 964 981 950 957 997 969 971 985 922 907 953 977 938 963 1030 915 926 931 948 939 1028 1005 918 944 930 922 937 976 975 1006 984 981 1004 975 993 1034 972 1022 939 991 922 953 959 966 912 926 924 987 954 988 953 943 937 981 972 958 1026 953 921 949 940 951 949 974 937 946 991 957 929 909 996 908 915 992 961 908 929 936 938 981 910 911 929 928 916 917 928 965 939 980 1041 1012 956 965 1005 1008 994 1059 1002 1020 1002 1028 970 990 1027 1022 1033 1007 991 981 976 978 1042 987 1005 1030 972 930 1014 983 928 961 918 974 1017 954 996 960 986 989 917 949 932 900 914 890 921 913 953 836 885 913 870 912 901 901 917 939 914 913 862 915 912 925 906 924 914 884 910 920 910 891 873 906 899 866 884 890 914 935 893 873 914 890 901 871 907 957 913 929 916 901 924 890 857 858 896 874 885 849 911 886 935 900 913 890 923 902 838 835 898 918 830 892 866 906 913 868 881 880 940 852 861 839 925 943 853 848 881 919 805 912 848 875 914 885 892 855 882 924 902 895 914 912 871 977 882 930 868 908 902 898 871 863 839 1009 825 890 892 836 857 922 878 876 877 874 800 889 880 868 900 912 905 915 885 947 873 870 923 827 937 906 862 947 927 841 890 932 873 882 904 880 902 854 859 931 875 870 930 877 886 882 879 806 945 925 872 902 891 884 874 857 948 891 886 835 895 884 912 887 848 918 882 863 891 883 830 865 919 857 878 879 921 866 860 848 896 878 893 908 923 900 830 878 894 889 950 843 860 902 906 910 876 907 814 879 895 902 905 918 875 912 913 891 883 875 933 887 872 922 898 873 906 857 878 876 896 880 898 924 905 884 897 936 884 891 935 895 928 843 887 807 871 884 897 876 873 889 911 906 887 906 895 890 839 885 853 864 889 880 880 905 908 870 899 931 856 860 856 864 817 891 870 911 978 923 857 861 832 864 860 866 913 821 969 904 870 889 909 911 929 807 847 928 880 887 890 850 872 824 874 922 895 908 890 885 915 894 928 900 873 877 886 947 897 832 920 914 917 898 914 900 887 931 902 911 889 903 882 879 895 888 920 941 909 877 865 878 879 954 851 862 866 875 901 903 886 883 882 907 813 883 864 895 887 840 879 847 914 879 829 933 873 866 839 877 953 937 855 890 871 913 899 931 903 871 918 885 936 927 894 909 865 950 919 870 854 929 939 899 895 898 875 884 867 917 911 941 901 871 901 867 852 905 884 895 961 847 894 890 857 918 902 950 908 875 917 870 920 967 873 859 934 878 894 910 892 887 862 958 892 896 901 850 864 913 883 936 944 906 957 932 932 852 957 939 1001 922 958 918 1002 934 1019 941 922 1037 969 956 965 1026 1033 952 958 985 1011 1038 905 945 999 966 1022 995 938 965 907 1011 949 945 943 1023 955 900 953 1002 918 974 1005 966 946 939 1004 974 919 942 947 993 882 949 958 926 985 963 947 970 997 951 969 985 918 952 963 967 982 941 950 937 967 956 1053 947 956 1000 990 982 936 989 1039 1083 1002 973 1038 1027 977 968 994 953 993 949 941 952 988 1013 1027 982 952 1003 982 985 966 977 918 964 967 958 962 983 949 941 941 936 911 978 941 931 921 883 924 916 954 876 938 935 915 883 901 972 888 947 963 896 919 943 959 878 917 924 909 922 875 946 868 923 901 944 914 950 957 954 859 890 923 929 894 908 906 902 908 897 948 863 930 927 912 850 931 921 872 865 890 921 909 904 906 961 931 925 905 924 917 917 939 919 949 886 954 953 893 956 913 904 928 872 967 906 912 886 956 926 980 958 947 898 915 915 925 925 962 912 929 936 977 857 928 989 942 960 917 1004 900 939 971 958 931 984 963 978 996 992 938 968 964 997 1039 997 988 994 979 1033 1020 948 1027 1044 1004 988 978 986 1040 1065 940 1042 984 976 1001 1035 1028 1026 1061 997 1069 1028 1025 1087 978 979 1000 1017 994 1028 1012 1010 993 1004 998 1066 1058 1017 1068 1066 1067 1109 1100 1081 1120 1106 1167 1152 1147 1201 1225 1171 1245 1271 1211 1281 1264 1347 1342 1355 1406 1423 1407 1479 1457 1508 1505 1535 1539 1595 1656 1567 1596 1555 1583 1497 1474 1455 1437 1425 1422 1457 1409 1365 1436 1357 1363 1354 1417 1404 1340 1344 1383 1369 1339 1268 1295 1251 1276 1259 1286 1282 1223 1192 1177 1143 1186 1127 1116 1114 1135 1140 1063 1033 1049 1023 1004 1019 983 1020 1024 1014 1067 991 1021 1014 973 1011 1042 932 983 983 932 970 1014 925 952 982 968 977 922 912 981 905 906 984 1016 902 943 904 954 959 920 982 937 947 864 950 917 917 942 909 947 934 937 938 966 937 945 913 984 906 921 934 936 926 956 913 937 988 926 919 941 931 883 974 934 886 987 987 990 895 963 931 915 939 956 962 858 1020 924 913 950 942 997 1003 952 987 997 995 980 965 1009 982 931 973 1007 949 1015 1039 1018 996 1026 1069 1082 1076 1043 1114 1155 1070 1121 1168 1136 1175 1231 1172 1139 1169 1178 1228 1212 1230 1235 1198 1200 1221 1111 1175 1192 1173 1201 1167 1197 1166 1172 1151 1197 1144 1214 1167 1118 1111 1087 1093 1098 1135 1101 1067 1095 1075 1069 1061 989 1089 1099 1071 1017 1063 1054 1013 1015 981 960 954 1028 1020 1078 1039 991 924 952 968 897 883 911 969 885 940 954 920 984 886 969 955 905 864 905 939 927 870 924 937 898 891 895 945 924 908 891 957 891 924 954 880 859 936 869 947 907 862 886 942 939 905 871 889 918 945 906 900 916 955 889 918 864 903 978 945 893 897 871 899 883 861 921 873 882 837 980 873 882 895 924 929 914 942 909 913 910 893 894 904 861 851 904 952 901 933 872 938 903 886 940 920 886 905 950 923 911 917 898 896 899 885 926 907 878 898 899 896 940 884 940 879 845 892 946 923 897 865 816 922 962 934 916 870 913 925 944 910 925 901 923 914 896 899 886 927 889 957 938 922 853 904 946 993 920 894 869 905 923 912 906 890 885 965 929 906 926 953 917 906 886 936 936 966 926 903 983 965 879 878 888 920 904 919 896 884 895 825 944 956 865 897 906 920 903 901 864 947 894 863 910 904 901 977 929 910 964 865 911 915 944 900 886 911 937 889 923 912 945 895 935 877 913 906 962 901 960 982 874 922 874 888 942 886 821 872 910 910 931 878 956 944 902 883 915 906 921 912 956 961 899 847 879 923 875 908 903 859 907 932 879 884 911 909 919 899 887 910 939 890 900 958 915 840 899 879 849 889 941 886 899 916 965 886 886 893 954 895 881 861 932 892 852 882 945 897 903 883 867 886 898 893 894 945 907 870 882 849 865 943 883 897 931 899 879 894 872 889 878 910 914 873 904 901 894 887 859 892 886 944 909 923 916 894 928 901 918 935 936 906 853 872 874 943 850 887 933 892 897 891 945 870 930 932 948 894 904 852 898 817 876 891 907 902 938 891 865 910 899 849 942 901 890 912 891 858 882 921 881 906 896 955 891 904 915 904 909 881 868 862 989 910 954 943 967 885 954 927 963 869 914 906 955 974 939 902 951 951 985 945 934 901 923 967 965 952 927 952 913 1011 903 953 968 919 953 896 979 963 979 923 966 970 961 928 942 892 966 991 965 970 917 967 931 974 914 971 972 895 968 958 935 960 928 911 858 946 963 943 916 898 948 935 941 886 936 907 902 958 922 910 876 911 924 949 901 923 961 920 889 887 937 890 904 909 919 911 878 940 939 908 929 933 945 938 893 891 904 935 901 866 894 892 897 879 901 969 902 887 922 926 896 960 930 846 900 925 874 874 909 844 894 915 916 881 902 876 847 881 923 888 886 882 882 876 877 928 890 885 900 912 867 931 897 916 903 922 929 895 896 874 863 894 885 933 913 888 863 900 918 936 901 856 913 814 893 901 958 872 922 891 897 945 897 906 876 887 872 919 843 911 874 939 883 841 861 900 917 897 905 953 930 930 904 899 905 895 867 921 879 882 927 912 953 867 876 922 895 867 901 907 880 902 878 925 920 896 919 911 873 912 944 949 906 920 918 908 862 968 867 902 916 886 921 880 932 858 978 928 904 898 968 883 886 924 931 923 898 969 939 919 914 899 939 985 920 996 966 915 951 906 980 953 960 937 912 975 1030 961 996 1015 1022 1055 1096 1007 1011 1111 1094 1130 1138 1116 1199 1129 1131 1129 1154 1126 1155 1167 1109 1132 1204 1181 1128 1228 1251 1271 1277 1276 1225 1293 1368 1379 1285 1304 1351 1273 1323 1250 1305 1309 1209 1296 1196 1204 1152 1197 1181 1201 1161 1222 1216 1139 1119 1175 1156 1106 1145 1176 1185 1184 1131 1098 1134 1120 1147 1097 1070 1109 1091 1074 1119 1032 1063 1107 1017 1022 1006 1023 953 990 1028 986 976 993 1057 1028 1034 990 1047 929 1019 1022 1006 973 985 1035 1000 998 1003 952 963 952 997 985 983 962 928 922 979 910 973 938 965 990 946 973 963 1040 900 905 1003 963 909 940 926 940 978 931 951 945 936 870 986 942 899 981 915 961 947 973 908 935 957 936 974 910 941 892 992 935 974 907 912 953 909 880 968 906 986 944 882 903 869 927 939 888 928 895 908 937 977 943 903 938 983 930 917 976 986 949 955 980 912 895 943 938 922 932 939 950 935 939 898 1006 940 926 925 959 988 1007 940 933 907 945 866 1001 971 943 973 949 984 950 976 988 1035 927 929 1014 1001 945 1042 956 1019 1002 969 997 935 993 938 970 954 992 949 994 992 1045 940 1056 1016 954 952 1018 969 963 983 1029 993 927 932 946 1002 954 926 913 992 976 1034 916 1002 922 950 898 919 907 892 929 923 1009 959 901 913 914 919 860 896 930 823 946 927 949 891 890 910 908 978 922 803 888 886 957 881 913 915 879 864 911 871 916 853 930 915 874 926 926 908 864 829 899 933 912 861 884 862 888 942 863 943 878 878 910 896 928 879 928 912 917 843 924 879 916 907 931 846 929 893 896 913 929 822 943 868 922 859 942 950 894 952 902 918 850 933 896 879 906 994 886 884 937 906 916 853 936 953 946 873 924 895 894 925 903 886 867 881 924 931 897 895 909 949 918 927 900 897 940 923 876 954 921 923 883 845 866 856 921 926 940 885 897 871 891 898 900 894 895 883 898 841 894 894 895 886 879 918 903 943 850 903 895 927 893 842 859 875 927 856 871 949 858 956 868 899 910 850 898 930 900 918 909 867 875 880 879 859 890 919 890 904 938 914 933 877 882 897 894 868 912 875 915 858 891 897 940 904 917 881 909 892 875 859 868 895 845 928 859 924 931 842 867 913 902 899 905 926 881 927 806 862 825 856 923 851 936 825 901 816 830 852 879 857 874 872 861 921 868 938 909 875 946 909 869 951 909 889 902 880 898 887 864 854 922 858 877 897 895 874 912 883 899 868 881 877 901 880 860 874 843 897 852 883 938 884 874 950 925 938 930 934 893 888 926 914 896 900 845 885 873 900 863 822 913 818 927 895 911 865 865 884 897 884 892 862 875 895 891 899 920 886 802 904 876 872 844 876 926 844 897 844 911 887 867 873 899 878 859 875 883 868 878 864 889 881 863 857 864 830 872 845 883 881 952 886 855 902 883 872 913 921 865 889 904 914 905 916 958 963 939 889 896 884 911 923 913 921 910 936 954 864 933 913 951 926 936 960 844 904 921 925 958 927 930 914 990 887 945 982 917 1012 903 977 984 979 960 1036 947 982 975 971 1033 946 1010 941 915 971 953 959 970 947 962 935 964 976 944 935 933 993 966 999 974 959 975 904 979 946 981 967 931 1005 992 1003 915 983 938 948 997 992 897 1012 957 940 997 960 974 928 969 972 981 1013 952 966 917 941 982 977 938 942 967 886 973 942 988 1025 952 944 918 953 952 932 964 922 893 958 967 974 954 911</counts>
			</dataPoints>
		</scan>
	</xrdMeasurement>
</xrdMeasurements>
