<?xml version="1.0"?>
<xrdMeasurements xmlns="http://www.xrdml.com/XRDMeasurement/2.3" xmlns:xsi="http://www.w3.org/2001/XMLSchema-instance" xsi:schemaLocation="http://www.xrdml.com/XRDMeasurement/2.3 http://www.xrdml.com/XRDMeasurement/2.3/XRDMeasurement.xsd" status="Completed" recordIdentifier="{4910C248-046D-4E0A-951B-9A5833B63D69}">
	<comment>
		<entry/>
	</comment>
	<sample type="To be analyzed">
		<id>GPSS_Li1p6Cr0p4Mn0p2Y0p4Cl4_102025_68f7253b028f64128e25d08e</id>
		<name></name>
		<preparedBy></preparedBy>
	</sample>
	<xrdMeasurement measurementType="Scan" status="Completed" sampleMode="Reflection">
		<usedWavelength intended="K-Alpha 1">
			<kAlpha1 unit="Angstrom">1.5405980</kAlpha1>
			<kAlpha2 unit="Angstrom">1.5444260</kAlpha2>
			<kBeta unit="Angstrom">1.3922500</kBeta>
			<ratioKAlpha2KAlpha1>0.5000</ratioKAlpha2KAlpha1>
		</usedWavelength>
		<incidentBeamPath>
			<radius unit="mm">145.00</radius>
			<xRayTube id="1010048" name="Empyrean Cu LFF HR (9430 033 7310x)">
				<tension unit="kV">40.0</tension>
				<current unit="mA">15.0</current>
				<anodeMaterial>Cu</anodeMaterial>
				<focus type="Line">
					<length unit="mm">12.0</length>
					<width unit="mm">0.4</width>
					<takeOffAngle unit="deg">6.0</takeOffAngle>
				</focus>
			</xRayTube>
			<sollerSlit id="21010002" name="Soller slits 0.04 rad.">
				<opening unit="rad">0.0400</opening>
			</sollerSlit>
			<mask id="22031000" name="Fixed mask 13 mm">
				<width unit="mm">9.00</width>
			</mask>
			<divergenceSlit id="22120001" name="Divergence slit 1°" xsi:type="fixedDivergenceSlitType">
				<distanceToSample unit="mm">50.00</distanceToSample>
				<height unit="mm">1.52</height>
			</divergenceSlit>
		</incidentBeamPath>
		<sampleMovement xsi:type="spinningSampleMovementType">
			<spinnerRevolutionTime unit="seconds">1.0</spinnerRevolutionTime>
		</sampleMovement>
		<diffractedBeamPath>
			<radius unit="mm">145.00</radius>
			<antiScatterSlit id="22090040" name="AS slit 9 mm (PIXcel)" xsi:type="fixedAntiScatterSlitType">
				<height unit="mm">9.00</height>
			</antiScatterSlit>
			<sollerSlit id="21020003" name="Large Soller slits 0.04 rad.">
				<opening unit="rad">0.0400</opening>
			</sollerSlit>
			<filter id="20030001" name="Large beta-filter Nickel">
				<material>Ni</material>
				<thickness unit="mm">0.020</thickness>
			</filter>
			<detector id="7010019" name="PIXcel1D-Medipix3 detector" xsi:type="rtmsDetectorType">
				<phd unit="keV">
					<lowerLevel>4.02</lowerLevel>
					<upperLevel>11.27</upperLevel>
				</phd>
				<mode>Scanning</mode>
				<activeLength unit="deg">5.542</activeLength>
			</detector>
		</diffractedBeamPath>
		<scan appendNumber="0" mode="Continuous" scanAxis="Gonio" status="Completed">
			<header>
				<startTimeStamp>2025-10-26T17:11:59-07:00</startTimeStamp>
				<endTimeStamp>2025-10-26T17:20:06-07:00</endTimeStamp>
				<author>
					<name>AutomatedUser</name>
				</author>
				<source>
					<applicationSoftware version="1.7b (136)">PANalytical Aeris Instrument Suite</applicationSoftware>
					<instrumentControlSoftware version="3.2.00000000 20240306">AERIS</instrumentControlSoftware>
					<instrumentID>950485</instrumentID>
				</source>
			</header>
			<dataPoints>
				<positions axis="2Theta" unit="deg">
					<startPosition>10.00943322</startPosition>
					<endPosition>99.99442286</endPosition>
				</positions>
				<positions axis="Omega" unit="deg">
					<startPosition>5.00471661</startPosition>
					<endPosition>49.99721143</endPosition>
				</positions>
				<commonCountingTime unit="seconds">12.495</commonCountingTime>
				<counts unit="counts">2827 2864 2907 2823 2712 2776 2771 2756 2759 2701 2757 2706 2867 2814 2841 2716 2718 2792 2715 2695 2845 2766 2711 2801 2818 2760 2772 2843 2824 2888 2756 2780 2644 2635 2643 2770 2784 2709 2779 2784 2713 2766 2765 2711 2804 2733 2681 2719 2697 2773 2729 2740 2740 2632 2683 2671 2729 2695 2756 2723 2738 2750 2859 2701 2804 2754 2711 2665 2736 2730 2705 2833 2770 2794 2742 2827 2712 2783 2762 2703 2640 2813 2731 2852 2801 2787 2850 2903 2750 2606 2790 2728 2775 2756 2808 2809 2809 2725 2758 2673 2748 2752 2766 2724 2745 2734 2781 2759 2722 2786 2864 2656 2814 2784 2717 2787 2703 2819 2778 2755 2769 2731 2733 2793 2794 2755 2874 2664 2760 2742 2651 2705 2725 2832 2786 2818 2728 2781 2780 2772 2752 2816 2695 2695 2788 2679 2776 2667 2778 2800 2660 2594 2838 2743 2698 2743 2690 2786 2704 2686 2695 2783 2724 2713 2765 2792 2695 2759 2692 2668 2709 2679 2708 2688 2707 2792 2694 2780 2631 2692 2792 2702 2754 2699 2687 2656 2707 2810 2680 2700 2724 2698 2612 2705 2646 2638 2908 2663 2753 2666 2631 2767 2631 2683 2745 2665 2709 2625 2660 2738 2702 2726 2800 2623 2663 2678 2699 2648 2586 2580 2694 2621 2495 2732 2676 2719 2705 2625 2670 2705 2666 2710 2683 2707 2684 2607 2623 2560 2627 2660 2650 2701 2677 2600 2591 2703 2664 2623 2578 2652 2684 2566 2777 2717 2690 2687 2719 2675 2636 2735 2658 2643 2624 2613 2724 2699 2657 2638 2643 2628 2557 2565 2600 2702 2662 2571 2574 2594 2580 2684 2686 2655 2704 2626 2733 2722 2614 2646 2685 2621 2746 2632 2766 2639 2778 2684 2583 2753 2683 2657 2696 2687 2801 2707 2719 2670 2807 2794 2829 2784 2743 2833 2733 2793 2776 2847 2805 2729 2813 2791 2683 2803 2592 2881 2772 2787 2838 2733 2763 2839 2782 2796 2950 2877 2886 2805 2797 2915 2842 2946 2877 2806 2865 2954 2916 2951 2964 2824 3012 2913 2930 3026 2956 2969 3029 2884 3065 2977 2959 2962 3031 3044 2957 2999 3036 2968 2941 3112 3074 3142 2976 3048 3069 3091 3096 2958 3094 3177 3185 3128 3128 3102 3130 3047 3135 3184 3134 3260 3198 3138 3280 3171 3137 3230 3117 3232 3291 3229 3251 3286 3249 3225 3228 3154 3365 3285 3428 3362 3442 3350 3464 3522 3458 3425 3405 3492 3465 3515 3549 3521 3540 3584 3524 3567 3528 3558 3721 3541 3577 3632 3598 3687 3533 3633 3746 3648 3650 3600 3729 3695 3660 3753 3701 3734 3643 3750 3709 3661 3646 3840 3739 3640 3788 3837 3653 3679 3686 3596 3662 3814 3749 3694 3643 3809 3637 3536 3613 3628 3529 3640 3529 3523 3640 3506 3560 3480 3368 3475 3411 3437 3316 3278 3442 3341 3389 3325 3308 3354 3408 3391 3289 3424 3414 3278 3338 3467 3373 3384 3355 3221 3377 3331 3338 3295 3329 3240 3195 3245 3324 3329 3296 3307 3286 3129 3419 3368 3340 3267 3378 3445 3380 3414 3312 3349 3272 3393 3448 3387 3493 3388 3367 3344 3322 3365 3311 3328 3384 3314 3453 3384 3365 3240 3261 3154 3287 3239 3242 3207 3186 3303 3374 3283 3304 3206 3277 3264 3198 3304 3234 3182 3139 3210 3178 3193 3162 3139 3151 3051 3261 3034 3152 3036 3037 3155 3068 3024 3127 3035 3117 3021 2975 2947 3025 2965 3031 3058 3000 2957 2961 2946 2977 2991 2892 2904 2921 2884 2906 2855 2871 2872 2937 2845 2827 2908 2855 2847 2893 2854 2833 2857 2959 2789 2839 2884 2854 2935 2818 2906 2835 2911 2938 2774 2925 2896 2929 2875 2796 2783 2885 2815 2912 2764 2845 2826 2816 2835 2708 2818 2796 2833 2831 2773 2859 2844 2847 2838 2801 2989 2909 2737 2884 2901 2825 2900 2898 2852 2904 2867 2849 2945 2930 2990 3096 2990 2903 3077 2966 3087 2999 3031 3122 3062 3036 3025 3118 3050 3075 3113 3125 3033 3066 3075 3086 3165 3077 3038 3020 3049 3091 3103 3109 2992 2959 3136 3039 2967 3058 3112 2926 3125 2940 2925 2977 3041 2982 2929 2935 2885 2939 2902 2921 2902 2949 2840 2885 2851 2845 2793 2787 2764 2761 2670 2779 2820 2682 2907 2762 2787 2752 2781 2689 2717 2598 2692 2736 2672 2724 2730 2713 2691 2701 2644 2564 2619 2709 2731 2725 2648 2747 2726 2722 2664 2647 2640 2776 2648 2639 2787 2773 2685 2566 2749 2630 2763 2606 2631 2623 2702 2708 2704 2745 2662 2620 2592 2619 2576 2696 2662 2531 2619 2578 2597 2711 2640 2619 2687 2672 2702 2695 2591 2641 2623 2552 2619 2552 2609 2573 2570 2653 2630 2637 2594 2625 2663 2542 2535 2670 2556 2702 2572 2603 2660 2679 2530 2680 2661 2634 2568 2591 2567 2548 2507 2505 2708 2606 2655 2609 2596 2642 2635 2505 2631 2487 2651 2620 2586 2617 2629 2598 2602 2598 2596 2528 2533 2627 2672 2636 2608 2623 2553 2573 2540 2606 2480 2455 2497 2580 2570 2576 2529 2541 2509 2627 2597 2505 2558 2526 2498 2567 2542 2534 2552 2634 2646 2493 2465 2431 2577 2633 2531 2456 2514 2425 2580 2539 2587 2539 2515 2552 2501 2525 2532 2519 2440 2562 2480 2553 2541 2496 2569 2567 2515 2489 2490 2545 2563 2475 2526 2567 2555 2533 2618 2614 2518 2664 2722 2677 2695 2667 2632 2716 2665 2618 2617 2529 2680 2688 2672 2612 2676 2636 2607 2637 2561 2687 2714 2631 2694 2543 2679 2681 2536 2659 2677 2584 2609 2690 2670 2546 2504 2563 2613 2649 2623 2558 2510 2473 2481 2609 2578 2481 2506 2548 2556 2508 2449 2499 2508 2513 2488 2484 2424 2433 2407 2521 2455 2450 2374 2321 2462 2395 2363 2417 2390 2382 2435 2397 2414 2373 2381 2335 2513 2402 2325 2379 2430 2369 2372 2458 2404 2494 2388 2483 2447 2284 2384 2419 2394 2368 2319 2307 2366 2425 2383 2373 2369 2376 2437 2349 2345 2314 2408 2446 2422 2242 2465 2392 2461 2393 2373 2481 2350 2404 2415 2343 2433 2470 2456 2350 2357 2392 2458 2350 2435 2366 2447 2372 2370 2354 2375 2443 2434 2341 2354 2445 2438 2402 2412 2467 2348 2445 2417 2336 2540 2379 2537 2405 2462 2371 2508 2423 2503 2497 2396 2491 2435 2460 2546 2491 2407 2370 2386 2408 2493 2409 2452 2473 2386 2510 2487 2422 2557 2433 2469 2504 2457 2501 2491 2445 2347 2389 2450 2470 2317 2402 2389 2425 2425 2385 2387 2420 2454 2410 2415 2405 2390 2369 2481 2346 2386 2431 2358 2364 2395 2347 2437 2428 2378 2496 2335 2370 2391 2396 2407 2425 2395 2309 2263 2330 2390 2283 2419 2326 2326 2337 2341 2469 2288 2388 2296 2324 2292 2262 2327 2290 2336 2306 2271 2183 2264 2271 2301 2281 2179 2302 2216 2242 2273 2192 2345 2239 2296 2214 2335 2268 2308 2211 2263 2276 2265 2143 2221 2218 2192 2159 2244 2184 2237 2199 2138 2240 2149 2117 2213 2243 2090 2270 2242 2131 2175 2206 2177 2226 2172 2148 2189 2198 2095 2068 2181 2100 2023 2215 2095 2090 2180 2138 2114 2172 2169 2074 2201 2060 2115 2155 2213 2059 2086 2130 2137 2154 2115 2169 2142 2230 2137 2211 2118 2206 2153 2241 2196 2150 2151 2170 2195 2164 2126 2146 2165 2156 2085 2202 2132 2101 2127 2118 2123 2176 2084 2178 2155 2123 2122 2080 2095 2054 2139 2120 2039 2059 2120 2036 2047 1986 2001 2016 2006 1954 2072 1942 1983 2033 2008 1966 1925 1991 1947 2006 1913 1905 1949 1911 1803 1922 1876 1888 1916 1832 1808 1790 1870 1772 1910 1880 1743 1821 1851 1862 1818 1875 1820 1785 1776 1817 1873 1807 1883 1853 1894 1757 1824 1836 1838 1802 1789 1866 1816 1856 1796 1851 1831 1826 1766 1864 1808 1895 1831 1763 1800 1858 1803 1807 1726 1908 1804 1865 1861 1828 1829 1836 1794 1748 1820 1792 1776 1820 1892 1773 1813 1801 1819 1811 1850 1845 1906 1846 1823 1827 1740 1811 1819 1821 1798 1825 1768 1815 1772 1841 1880 1760 1800 1825 1761 1724 1770 1794 1768 1766 1856 1760 1773 1751 1745 1830 1753 1824 1850 1835 1846 1819 1798 1747 1784 1846 1852 1773 1723 1873 1753 1739 1775 1806 1834 1713 1789 1757 1783 1834 1754 1773 1778 1833 1810 1854 1833 1763 1790 1854 1786 1859 1745 1834 1789 1832 1825 1775 1799 1778 1768 1735 1816 1784 1835 1751 1783 1786 1809 1802 1764 1794 1795 1787 1719 1728 1870 1713 1761 1800 1914 1733 1826 1732 1727 1755 1783 1755 1831 1744 1784 1781 1740 1767 1784 1804 1785 1733 1753 1723 1751 1750 1756 1799 1825 1821 1695 1755 1713 1792 1766 1826 1734 1832 1802 1829 1703 1780 1737 1820 1793 1717 1802 1691 1796 1740 1633 1750 1733 1800 1789 1938 1775 1825 1769 1831 1729 1742 1839 1737 1729 1803 1767 1814 1757 1802 1789 1800 1719 1806 1715 1851 1753 1793 1767 1764 1728 1632 1752 1756 1756 1806 1781 1693 1768 1681 1790 1685 1757 1721 1649 1772 1738 1671 1729 1767 1802 1796 1730 1663 1682 1692 1695 1692 1713 1618 1634 1623 1643 1666 1679 1586 1718 1591 1677 1697 1697 1721 1674 1621 1686 1683 1679 1623 1646 1604 1677 1631 1727 1707 1651 1634 1699 1565 1619 1646 1607 1547 1656 1670 1565 1618 1671 1597 1596 1677 1544 1678 1647 1585 1634 1637 1608 1565 1608 1636 1704 1555 1570 1552 1626 1619 1574 1617 1474 1593 1542 1622 1534 1606 1567 1553 1595 1651 1634 1574 1541 1713 1592 1606 1611 1647 1590 1618 1565 1540 1619 1582 1630 1566 1601 1598 1574 1588 1565 1546 1584 1616 1588 1550 1585 1620 1625 1628 1637 1613 1577 1629 1619 1657 1578 1606 1620 1676 1691 1616 1586 1601 1631 1576 1602 1580 1624 1724 1608 1746 1615 1665 1703 1695 1708 1721 1704 1756 1710 1681 1682 1731 1820 1749 1752 1734 1745 1669 1771 1751 1723 1741 1748 1764 1761 1777 1749 1713 1673 1693 1719 1613 1673 1700 1615 1671 1636 1629 1708 1597 1586 1591 1550 1580 1580 1601 1602 1586 1562 1550 1492 1577 1466 1458 1418 1470 1492 1405 1439 1416 1378 1415 1426 1437 1415 1432 1371 1428 1419 1459 1354 1412 1395 1424 1401 1424 1355 1389 1407 1429 1469 1379 1377 1456 1422 1446 1385 1508 1479 1484 1552 1585 1502 1597 1585 1598 1664 1628 1669 1692 1720 1741 1764 1795 1759 1867 1788 1789 1913 1855 1869 1837 1893 1902 1880 1933 1914 1942 1924 2017 1935 1991 1978 1908 1926 1873 1923 1827 1840 1945 1867 1872 1858 1836 1780 1799 1811 1759 1858 1813 1747 1810 1749 1739 1698 1727 1697 1630 1643 1600 1674 1630 1539 1593 1498 1539 1563 1539 1589 1478 1519 1417 1433 1421 1423 1421 1447 1438 1397 1431 1379 1383 1448 1351 1427 1390 1427 1345 1318 1420 1399 1347 1356 1377 1377 1330 1456 1397 1393 1354 1327 1300 1262 1374 1341 1300 1304 1233 1263 1379 1290 1295 1307 1323 1275 1308 1250 1225 1268 1226 1233 1270 1271 1413 1288 1237 1289 1304 1340 1283 1328 1317 1313 1330 1310 1355 1257 1268 1368 1306 1336 1297 1334 1317 1359 1293 1308 1354 1410 1339 1261 1406 1300 1349 1319 1336 1368 1354 1279 1335 1321 1393 1294 1343 1341 1436 1421 1490 1495 1516 1528 1529 1592 1648 1647 1734 1725 1829 1964 1917 1972 2073 2113 2200 2237 2319 2335 2311 2399 2409 2351 2444 2356 2471 2325 2418 2334 2322 2358 2381 2448 2473 2404 2351 2341 2322 2245 2290 2175 2224 2206 2109 2167 2076 2066 1964 1943 2061 1955 1938 1930 1783 1803 1810 1799 1647 1678 1700 1680 1675 1625 1535 1561 1635 1534 1569 1516 1478 1495 1448 1474 1407 1391 1331 1385 1335 1325 1391 1306 1357 1297 1314 1261 1172 1286 1252 1258 1182 1262 1219 1188 1264 1206 1225 1239 1228 1286 1196 1223 1260 1113 1193 1152 1147 1154 1158 1130 1213 1187 1185 1136 1130 1170 1140 1160 1162 1188 1201 1216 1184 1194 1207 1158 1137 1176 1143 1200 1167 1166 1163 1173 1151 1164 1135 1227 1240 1197 1247 1183 1205 1254 1215 1219 1242 1249 1234 1209 1228 1214 1207 1188 1267 1229 1218 1283 1264 1198 1216 1188 1208 1166 1184 1197 1203 1196 1180 1235 1213 1211 1225 1262 1176 1183 1205 1207 1251 1248 1192 1214 1206 1279 1242 1276 1249 1150 1235 1186 1163 1258 1200 1215 1200 1223 1198 1234 1224 1239 1253 1289 1242 1254 1231 1260 1271 1256 1249 1206 1236 1250 1304 1271 1313 1237 1347 1341 1328 1322 1352 1435 1311 1360 1393 1404 1447 1453 1377 1424 1454 1404 1479 1535 1407 1457 1520 1517 1527 1481 1561 1529 1455 1583 1471 1522 1487 1508 1442 1558 1515 1531 1599 1527 1550 1498 1546 1581 1439 1544 1486 1508 1515 1614 1478 1507 1551 1463 1621 1570 1560 1611 1565 1659 1649 1614 1571 1563 1630 1595 1644 1570 1595 1593 1674 1642 1636 1629 1609 1651 1618 1596 1633 1594 1658 1627 1651 1630 1742 1700 1689 1655 1727 1718 1745 1756 1776 1760 1735 1745 1750 1775 1752 1710 1750 1776 1766 1755 1790 1767 1783 1800 1708 1742 1636 1766 1741 1705 1661 1808 1715 1632 1775 1606 1652 1717 1613 1745 1663 1538 1546 1564 1628 1545 1539 1540 1568 1596 1562 1565 1473 1477 1558 1437 1488 1428 1346 1411 1517 1339 1536 1368 1446 1370 1334 1281 1372 1292 1332 1364 1304 1280 1243 1211 1256 1325 1242 1219 1220 1195 1188 1160 1177 1197 1213 1181 1166 1188 1155 1114 1160 1108 1145 1073 1129 1087 1104 1086 1073 1162 1128 1164 1125 1078 1018 1071 1065 1091 1081 1087 1073 1068 1162 1081 1130 1080 1068 1119 1070 1047 1030 1005 1048 1080 1092 1037 970 1000 984 1009 1050 974 1052 987 998 1008 1023 1036 1010 1047 983 1025 1005 997 980 1047 1032 1071 971 987 943 1003 990 988 989 1037 979 1055 1017 991 1039 981 1055 972 1002 1006 1046 1006 1022 983 1048 1027 972 999 1062 985 1013 1039 1008 996 1067 989 1050 959 1028 1027 1058 1057 1040 1049 1104 1143 1073 1162 1100 1119 1102 1153 1127 1086 1146 1199 1125 1132 1114 1149 1132 1056 1148 1087 1074 1087 1112 1133 1051 1114 1052 1095 1086 1031 1108 1079 1102 1053 1100 1022 1050 1056 1016 1068 1066 974 992 1029 991 1038 1022 960 972 1009 947 903 964 1019 989 987 961 977 963 985 894 968 949 927 963 927 949 946 937 930 952 932 915 946 945 966 943 903 942 897 925 940 889 952 895 939 925 891 921 923 918 978 934 977 902 877 877 908 907 928 946 932 959 902 946 893 909 921 832 926 902 912 895 905 948 932 914 919 917 893 899 907 838 833 864 883 946 944 986 902 938 956 939 907 918 914 949 828 906 913 895 890 894 893 911 929 828 956 933 872 892 911 820 910 837 884 897 904 943 854 888 902 897 918 863 895 914 872 880 868 855 806 858 851 877 843 878 876 933 935 881 861 900 860 917 914 943 915 841 909 878 875 844 823 874 886 880 923 825 872 893 918 892 899 887 857 937 870 881 878 830 870 938 937 870 925 903 855 808 879 917 900 893 871 881 871 898 927 856 896 878 899 835 905 907 793 876 872 932 947 877 873 939 850 899 905 845 913 847 837 810 874 826 913 852 870 888 883 824 852 900 907 885 830 839 816 912 840 893 833 909 936 836 904 861 867 788 785 833 790 840 876 859 797 835 833 869 872 848 828 809 818 892 847 858 874 832 852 868 804 830 833 901 824 874 857 862 850 873 847 878 832 831 843 847 891 851 849 846 866 883 882 885 864 852 877 868 832 930 890 854 898 893 892 879 896 826 886 904 884 953 845 868 948 883 902 845 912 894 863 905 826 914 859 864 878 900 914 978 940 916 942 947 904 891 913 976 931 907 973 882 950 903 961 1048 913 970 930 963 1006 967 1065 1024 1003 996 1008 1054 1000 1023 1142 1108 1145 1137 1167 1253 1269 1245 1271 1264 1401 1437 1419 1522 1578 1510 1559 1499 1623 1539 1572 1632 1662 1628 1602 1596 1596 1598 1596 1576 1492 1532 1560 1555 1486 1498 1475 1481 1408 1425 1429 1280 1398 1376 1323 1259 1257 1284 1247 1175 1218 1106 1111 1063 1051 1035 1035 1095 979 1068 1027 1017 1000 968 964 990 1000 976 943 880 950 903 849 900 881 924 876 904 915 876 885 875 871 867 892 836 797 848 851 828 839 842 833 796 808 864 846 859 852 857 870 841 871 919 861 877 895 887 871 871 940 901 894 919 957 877 887 911 961 918 953 922 955 895 981 986 1068 983 998 1003 995 1013 973 995 1017 993 979 973 1034 1017 1019 979 993 954 1003 940 984 970 946 1013 962 912 930 956 963 949 991 962 964 943 919 940 906 879 896 882 908 949 958 922 932 934 855 918 969 931 936 908 896 1001 910 918 1011 1003 966 1007 939 935 952 946 941 984 964 968 968 935 938 966 920 974 960 951 955 932 932 889 915 870 933 976 939 876 858 912 903 924 883 896 856 889 845 880 858 830 903 862 863 937 911 909 914 876 943 956 910 928 927 944 948 925 951 940 913 985 969 930 903 924 945 921 940 974 883 910 953 943 981 886 952 926 902 943 907 945 913 897 927 949 872 874 852 879 846 838 914 881 889 810 856 808 828 905 868 913 825 831 806 858 833 795 867 793 834 844 864 821 840 833 842 857 830 852 850 837 863 873 867 890 845 878 932 832 968 880 876 918 894 881 898 905 909 849 891 910 933 876 912 868 874 889 885 873 923 839 866 804 883 870 915 881 831 886 832 852 899 864 888 795 841 831 825 877 885 841 846 796 834 816 851 825 811 824 804 898 831 763 900 843 821 862 881 797 896 886 863 881 838 831 850 894 829 807 850 847 828 825 815 841 909 790 876 828 881 833 883 859 848 815 850 899 859 816 807 892 845 860 851 859 855 852 853 881 831 911 830 813 843 878 878 872 794 889 872 848 885 861 920 847 829 869 937 806 868 895 856 827 866 854 861 894 885 862 909 874 869 858 879 892 866 855 843 836 826 827 805 843 797 829 871 806 822 847 790 807 796 777 798 820 767 776 803 745 799 743 809 767 819 797 772 854 771 752 741 799 805 817 838 861 877 818 809 748 832 721 772 779 770 798 788 747 803 739 815 807 801 733 793 738 769 785 775 795 753 806 720 732 815 775 737 774 775 791 769 821 754 804 751 825 747 785 764 690 756 808 786 762 809 779 762 775 776 759 785 806 755 771 763 773 765 756 762 752 792 756 753 794 702 785 740 768 716 706 735 786 735 757 715 736 734 759 739 775 771 770 770 769 728 722 758 773 733 795 756 752 758 749 763 720 763 758 749 763 730 744 715 765 765 744 728 754 696 789 752 776 723 790 727 711 725 746 737 737 763 673 746 728 715 786 715 745 764 715 716 792 786 726 730 706 728 772 749 771 725 730 709 829 693 815 731 779 687 741 734 768 800 719 797 800 827 768 787 757 771 851 785 759 777 769 755 791 760 826 807 798 743 829 835 820 845 786 863 850 849 890 897 875 834 818 893 826 840 867 898 870 843 842 917 895 901 899 841 876 873 918 882 784 929 874 894 887 908 861 901 898 894 868 964 905 893 908 906 956 957 964 943 959 971 1089 975 947 1000 966 1090 1121 1082 1058 1107 1167 1178 1225 1293 1322 1355 1336 1474 1437 1583 1552 1559 1583 1690 1614 1677 1731 1737 1664 1877 1771 1787 1782 1844 1844 1769 1843 1765 1947 1796 1858 1834 1843 1866 1791 1845 1813 1838 1778 1783 1761 1672 1719 1685 1654 1694 1642 1638 1640 1590 1673 1504 1524 1579 1573 1498 1451 1451 1405 1405 1395 1344 1378 1343 1307 1296 1278 1237 1165 1278 1244 1195 1184 1135 1157 1111 1050 1121 1082 1071 1004 1089 1054 1028 1043 1012 1105 1020 981 1071 1037 1029 992 1022 971 998 979 970 1005 963 977 970 950 966 990 918 1030 949 929 941 945 994 944 897 952 906 907 967 978 979 927 891 908 867 933 915 959 919 915 1007 900 929 886 883 893 930 850 905 927 895 893 899 913 859 907 916 864 905 800 863 854 882 910 873 869 863 873 801 867 816 816 792 871 853 885 793 823 802 855 810 885 764 836 795 852 775 819 750 801 801 773 774 809 801 738 736 754 791 769 719 769 787 796 789 752 789 765 742 689 762 712 779 690 752 728 705 727 797 777 788 720 767 712 738 746 727 697 724 762 703 760 753 779 703 718 717 710 761 793 724 696 727 753 766 715 743 767 809 783 784 762 690 737 744 772 764 724 775 741 750 783 807 756 778 779 723 737 754 755 752 777 779 744 729 802 767 741 744 741 715 748 712 751 712 748 765 851 772 809 801 756 786 838 761 798 809 841 816 819 843 816 886 792 846 865 874 859 824 864 861 879 884 822 816 871 852 849 828 893 811 840 862 842 914 830 875 882 854 816 806 839 878 800 833 792 822 842 790 787 834 829 794 760 809 829 786 826 742 842 779 781 792 783 781 810 810 760 772 767 804 752 755 758 781 767 807 750 761 809 831 755 770 721 755 766 747 771 772 787 719 799 746 783 765 769 718 798 773 754 876 795 824 792 819 816 772 804 650 856 814 874 827 832 782 813 819 793 799 792 777 792 822 808 814 809 753 802 839 796 786 733 807 755 811 723 792 792 746 768 749 718 738 792 741 741 721 784 715 754 690 785 720 677 720 742 664 675 718 684 737 727 702 693 722 744 697 713 768 787 733 797 821 814 793 864 845 887 831 830 893 826 882 848 865 876 868 869 874 910 901 892 892 916 902 844 851 868 876 898 879 833 843 873 797 890 848 767 797 805 742 763 780 738 838 760 749 720 707 729 700 778 724 651 717 722 715 680 703 706 688 713 674 665 671 699 665 695 684 689 681 711 655 678 682 604 732 705 620 675 660 695 642 737 678 675 688 683 653 692 692 697 680 674 658 690 632 633 652 662 648 666 626 708 717 630 664 745 682 678 686 735 712 675 687 676 729 686 765 753 740 742 735 738 759 810 770 729 729 744 748 824 721 731 700 755 738 773 752 684 750 686 685 728 741 723 731 761 719 787 722 717 698 735 634 755 650 704 663 650 663 663 685 652 670 654 677 676 671 666 635 621 689 609 660 652 682 652 682 647 668 651 699 651 646 608 627 669 635 666 625 601 636 644 637 630 662 665 612 654 672 632 621 609 618 714 664 662 683 677 671 634 585 614 656 640 641 583 652 612 608 654 591 639 655 654 645 607 663 690 621 626 650 613 649 639 655 606 581 678 675 655 622 692 629 670 623 655 617 677 635 655 631 604 685 656 635 695 628 617 667 641 651 644 616 650 653 648 639 676 674 651 684 634 612 661 706 628 701 682 655 679 648 634 709 670 668 706 648 679 653 635 644 622 636 620 644 669 688 640 700 704 685 657 751 664 723 646 674 682 704 734 673 638 668 632 696 695 653 671 718 678 688 685 695 695 738 670 653 659 684 708 706 645 701 680 642 692 707 701 719 704 708 721 696 694 674 683 696 632 666 657 673 687 694 639 651 666 673 691 670 719 660 688 705 662 651 644 629 671 635 691 645 646 613 649 636 699 563 672 580 695 607 684 695 679 634 645 598 674 663 664 659 640 669 666 638 629 651 673 692 671 636 653 699 657 663 667 698 708 684 677 704 672 719 649 666 658 675 703 668 683 700 677 745 740 724 708 703 744 696 724 707 643 727 766 665 682 678 715 695 701 674 689 747 709 690 683 674 699 671 691 654 689 673 655 696 703 690 693 734 657 673 634 650 651 657 630 664 658 693 660 668 658 704 685 657 673 647 638 690 677 650 654 667 653 689 591 660 646 651 660 656 735 681 653 712 677 638 703 684 680 653 659 691 750 705 706 670 708 689 749 708 749 731 792 745 782 785 817 818 796 820 798 748 836 834 843 838 807 851 845 850 801 813 735 814 786 752 791 787 813 783 684 743 804 800 755 758 785 772 815 782 783 720 739 759 726 739 751 715 700 736 712 740 728 731 730 712 721 724 701 760 689 730 684 779 716 698 666 735 651 719 697 742 714 722 722 671 724 677 699 689 701 715 734 719 629 663 740 752 710 663 655 678 639 711 659 689 676 682 673 683 715 705 636 695 643 602 688 660 649 682 671 634 646 668 652 677 614 655 657 687 617 657 675 658 624 620 608 686 636 620 685 571 650 650 628 674 663 653 667 660 655 630 684 637 599 647 660 613 613 607 629 638 650 662 617 689 574 673 631 651 672 717 675 619 657 682 689 659 692 723 686 642 667 662 698 700 779 707 710 760 779 764 772 722 769 795 781 820 802 805 783 834 828 829 823 835 848 852 809 824 803 861 831 801 805 851 816 846 886 833 926 871 844 885 854 789 780 783 852 864 829 841 838 803 771 785 756 775 797 793 765 799 802 763 782 774 731 756 678 731 752 739 714 660 795 730 673 715 708 677 641 694 636 674 597 670 658 662 705 695 671 639 685 655 649 677 641 669 619 699 662 631 661 669 638 701 667 648 690 670 676 654 645 658 615 731 684 620 631 691 665 671 715 711 632 708 651 699 618 664 687 699 661 673 718 669 661 616 666 669 704 645 627 658 669 641 624 650 637 638 660 630 650 626 608 632 678 667 608 622 613 629 683 652 660 663 679 585 646 666 663 675 660 617 582 680 655 630 677 625 672 659 667 634 626 629 647 635 627 616 644 628 646 619 638 657 638 658 645 644 665 657 675 668 659 668 612 641 641 665 631 611 638 629 621 622 669 587 625 647 659 663 637 643 686 630 628 655 659 665 619 694 628 668 632 577 639 633 622 704 662 689 616 635 625 677 616 645 640 647 614 603 641 655 638 627 598 646 645 628 616 638 638 624 608 664 595 643 637 659 645 682 647 652 658 643 573 654 654 687 648 673 654 620 614 592 588 606 637 651 600 684 681 582 646 672 665 652 652 635 683 610 658 633 631 646 657 669 687 570 627 635 623 640 669 651 579 606 671 621 695 633 617 671 597 593 610 652 629 603 593 597 635 630 620 613 642 599 590 637 609 572 605 592 620 585 572 612 606 587 592 608 634 586 616 579 606 584 625 587 607 624 632 579 636 587 633 604 644 615 586 585 616 630 608 600 603 617 611 637 612 635 600 637 575 625 637 636 608 632 625 605 608 641 614 617 582 647 613 658 632 621 625 689 644 643 651 706 692 672 630 704 690 713 663 681 732 702 709 678 713 756 743 733 738 703 760 701 760 715 739 712 724 689 759 696 699 722 668 660 712 658 657 726 641 692 633 639 642 646 654 647 637 685 654 620 658 600 621 631 623 591 628 538 599 662 596 632 567 573 590 588 603 562 579 558 576 587 610 590 553 543 575 561 537 534 558 555 571 604 593 562 581 563 566 568 571 571 544 581 562 568 554 555 591 580 589 549 622 564 622 593 565 553 599 548 561 538 589 592 599 582 622 559 569 574 614 592 594 538 581 548 543 561 524 632 560 569 574 588 612 620 595 576 569 563 581 556 558 582 560 563 574 632 582 555 608 564 545 586 557 588 570 569 594 563 565 624 613 569 602 533 608 598 623 594 599 600 547 606 589 581 560 575 575 584 603 605 616 622 518 554 607 622 564 587 558 571 580 595 623 604 590 613 604 548 573 551 580 533 545 568 597 544 562 598 587 581 561 531 616 640 575 626 550 612 606 587 640 562 583 583 621 577 610 651 607 636 569 615 594 601 597 593 587 605 607 622 642 616 635 629 605 598 582 603 590 596 641 579 609 585 617 588 645 633 587 636 579 606 570 635 619 646 559 599 580 559 619 566 577 601 591 560 588 594 630 584 607 610 574 609 593 585 623 592 601 577 596 562 595 576 606 558 587 563 570 652 622 576 575 658 568 565 593 560 587 581 570 580 602 583 655 596 572 630 599 574 605 549 567 567 596 607 619 543 552 551 571 586 623 599 560 587 616 576 615 571 534 581 587 576 584 603 570 551 609 538 596 562 604 560 597 597 566 544 588 539 518 565 602 579 646 575 571 556 620 613 538 587 617 573 613 558 601 623 592 615 581 552 618 636 595 617 605 631 621 576 625 577 614 560 595 611 607 580 638 565 621 625 587 611 565 588 548 594 584 609 559 648 586 574 600 535 532 570 610 587 582 605 575 554 574 584 571 580 565 608 586 587 563 586 581 563 600 571 649 591 567 573 547 535 552 591 588 551 585 587 591 535 563 579 551 553 527 536 567 547 577 577 577 525 542 551 575 553 547 515 568 535 522 549 559 602 596 563 579 560 560 554 571 588 576 573 510 559 553 536 583 554 570 571 530 534 557 566 582 617 544 608 569 607 588 584 581 566 591 543 581 552 585 535 542 609 560 557 582 581 581 584 595 587 590 590 540 496 584 537 601 615 595 577 549 600 543 580 561 682 589 566 581 562 563 596 561 592 600 562 525 526 572 553 537 557 528 628 581 531 592 541 591 570 601 588 590 589 547 548 589 537 519 522 602 550 563 550 599 565 597 558 601 636 601 553 561 559 576 626 565 602 601 614 642 583 578 628 580 571 614 628 560 547 597 636 611 558 571 561 600 530 624 533 603 580 596 581 613 582 554 594 588 582 584 563 571 552 560 574 618 606 554 605 532 608 551 576 519 597 545 597 494 565 581 561 578 556 561 539 590 558 601 617 632 580 578 538 557 558 586 550 556 594 568 534 544 579 596 535 626 550 560 548 591 542 527 612 527 585 584 546 525 539 534 566 591 557 589 633 561 575 532 595 541 615 636 549 625 562 564 557 588 627 562 562 603 569 595 569 583 559 620 542 541 551 568 571 577 540 550 572 573 540 577 603 581 639 596 585 527 614 560 544 607 587 567 595 520 559 587 611 549 604 534 533 572 557 582 578 589 550 584 552 588 602 574 608 626 535 552 533 546 566 605 582 544 577 547 562 574 584 574 592 582 535 582 604 610 620 604 590 597 591 532 582 611 575 570 576 557 589 570 545 564 579 555 572 554 549 548 542 557 523 563 544 573 519 546 548 510 562 608 618 589 545 573 580 543 572 547 566 578 577 549 551 558 515 546 565 535 561 520 566 564 529 518 575 597 590 524 585 543 516 555 532 531 549 584 549 564 566 546 568 552 577 552 596 498 565 605 600 570 566 579 586 590 573 604 595 568 580 543 528 590 555 566 618 574 550 547 557 575 534 598 573 533 554 559 583 571 595 561 534 560 529 560 550 588 586 586 582 540 544 544 547 588 578 526 550 549 561 564 608 598 583 591 585 585 584 580 619 607 581 607 570 581 607 610 570 605 542 551 637 625 589 608 587 631 599 574 579 579 596 624 600 578 546 571 583 595 580 592 524 558 594 620 542 555 557 550 547 565 570 591 550 577 603 575 534 562 557 536 541 542 546 585 523 608 552 507 569 538 566 583 595 561 570 525 554 552 559 579 556 543 527 561 516 547 538 590 594 551 543 550 531 512 601 546 526 544 506 536 494 547 518 624 591 631 547 556 568 568 562 594 522 541 593 529 541 525 542 553 601 513 568 545 590 563 538 539 558 494 541 549 576 520 541 523 552 541 534 540 520 551 557 544 521 505 578 521 579 543 539 551 575 562 594 522 580 533 556 606 548 580 558 572 563 585 551 546 548 596 533 553 551 598 537 577 530 561 534 544 540 592 586 528 540 568 526 572 548 580 544 520 616 577 575 535 585 570 530 524 565 590 537 551 535 573 483 573 524 585 572 598 606 577 641 624 581 594 592 551 598 607 602 584 599 588 579 561 575 655 610 606 626 595 569 591 554 553 594 576 604 549 556 586 600 586 577 625 543 639 604 627 617 598 540 595 608 586 616 595 572 543 570 549 546 572 566 597 588 539 571 588 529 595 607 582 539 568 613 535 546 567 561 562 588 601 592 528 515 571 585 645 550 562 527 576 544 579 578 630 580 601 558 567 586 575 570 540 604 542 616 556 573 560 583 594 610 624 537 611 573 581 581 582 556 551 614 547 682 558 571 564 589 586 557 548 572 548 574 624 572 594 565 582 575 618 586 583 583 595 606 615 560 582 569 570 558 604 545 606 612 567 611 632 547 566 614 588 575 557 572 594 550 578 612 573 628 618 600 623 582 621 623 587 597 544 526 615 647 593 601 574 571 554 557 626 600 560 587 582 632 588 604 599 545 576 621 592 567 582 627 631 600 576 607 598 599 597 625 645 598 604 621 577 632 590 660 588 607 602 662 578 642 664 640 659 591 679 710 649 606 631 683 648 695 701 663 693 668 672 717 698 692 719 695 686 629 685 706 657 669 642 674 628 655 647 665 654 693 639 646 640 728 630 666 670 675 608 666 616 660 666 690 621 665 647 616 633 627 609 629 652 654 636 582 603 603 585 621 657 592 606 609 562 598 603 568 611 610 640 578 673 600 595 592 590 638 629 589 614 538 638 601 617 604 527 560 568 590 617 597 628 611 585 622 617 566 588 612 594 581 650 594 551 537 628 644 601 621 642 558 583 603 626 636 603 608 633 574 612 624 594 580 627 677 592 682 590 605 636 637 610 616 583 612 640 622 601 601 573 614 630 636 580 634 610 578 607 625 569 613 598 649 633 619 596 573 628 556 617 603 644 645 634 645 662 642 641 686 622 636 670 734 675 690 648 661 661 649 637 720 703 682 718 722 711 679 663 734 736 699 715 711 741 662 729 707 757 714 752 723 703 743 712 679 681 699 722 713 705 682 657 718 705 719 697 693 671 697 701 703 671 709 657 667 669 651 696 700 643 652 603 647 645 602 585 632 663 702 631 620 636 582 597 632 730 596 612 641 657 665 661 649 634 570 637 630 639 644 690 599 614 639 592 595 645 644 652 611 658 656 626 619 591 613 620 643 640 664 611 606 591 647 584 640 666 567 600 600 577 613 552 608 634 600 603 568 537 597 609 602 638 610 576 542 577 611 593 597 602 598 621 555 610 580 594 573 568 619 607 587 625 567 592 556 622 591 598 568 591 584 577 631 571 579 573 608 613 563 556 532 554 610 566 592 596 597 581 570 599 597 556 573 576 525 514 586 564 576 583 654 571 571 615 612 556 574 547 574 544 575 554 574 590 638 544 654 558 589 568 570 549 553 548 586 540 560 614 556 574 538 570 515 582 523 570 574 549 566 586 564 566 575 579 574 558 581 557 565 566 552 605 590 535 537 566 593 564 593 559 591 516 553 540 560 602 586 567 548 581 605 577 534 532 566 546 607 559 563 549 581 600 561 598 582 590 596 545 547 554 573 536 586 606 593 574 529 610 532 571 562 583 559 564 560 587 577 566 584 532 568 584 569 589 553 530 556 584 616 579 570 604 565 544 588 503 545 597 574 561 595 596 588 548 578 592 593 614 579 604 616 561 618 631 625 590 604 583 644 629 606 624 625 621 694 612 623 644 674 633 652 669 633 676 619 627 719 640 644 664 651 623 652 620 675 708 641 613 642 687 641 659 630 711 683 680 681 659 678 644 640 664 679 643 684 613 629 617 647 636 601 644 668 610 620 611 625 651 620 604 593 584 605 585 568 639 575 527 560 606 587 580 557 627 566 551 577 580 616 556 586 539 532 555 553 564 589 583 568 557 534 564 520 531 566 587 562 550 574 541 598 534 590 529 546 530 550 537 525 541 500 551 608 544 554 513 617 578 542 582 586 523 559 525 556 539 545 590 559 545 586 626 555 563 547 561 589 559 556 520 593 549 540 546 666 606 594 568 556 558 571 590 551 541 574 596 574 542 568 582 548 575 550 537 625 565 561 559 604 554 608 551 597 591 531 568 566 551 549 527 563 515 567 599 559 586 576 578 545 595 585 552 552 586 546 596 580 591 622 540 575 563 576 592 510 514 569 517 526 524 586 559 554 530 533 518 525 534 598 581 540 528 544 586 501 578 558 524 480 519 485 511 586 555 545 533 529 539 526 592 543 576 524 547 549 522 594 501 554 524 529 544 493 496 524 574 538 554 529 527 523 537 523 518 553 534 543 572 543 575 532 519 515 574 586 545 525 547 519 554 543 527 516 545 545 503 538 559 508 544 554 588 515 529 565 540 563 489 580 548 575 551 533 559 566 524 539 543 536 580 557 539 608 565 557 538 561 555 525 549 602 567 556 554 546 577 544 535 536 572 527 585 552 569 542 577 510 561 531 552 529 561 539 503 569 522 594 600 552 583 530 567 527 547 528 541 541 589 598 550 583 533 559 544 564 535 602 562 528 590 561 534 582 542 561 538 577 588 562 539 551 551 604 511 544 534 570 577 557 584 578 578 548 571 548 580 575 538 557 544 549 524 580 562 549 585 557 554 578 552 610 524 587 508 562 584 562 619 595 545 576 538 532 572 553 546 569 591 582 567 522 574 580 538 586 632 503 524 574 538 508 536 500 552 540 543 545 542 537 536 559 596 581 561 576 580 587 557 587 570 557 581 581 558 510 534 573 532 598 554 563 569 565 562 575 630 603 585 587 536 542 568 548 572 594 574 558 587 589 545 582 602 586 529 575 564 578 538 601 595 559 548 594 612 548 580 550 556 583 582 524 568 588 638 559 564 573 602 620 588 604 628 602 658 622 600 639 579 594 586 558 587 593 613 546 561 553 595 590 599 614 582 608 568 569 617 589 593 572 610 584 614 586 564 557 559 557 611 630 586 559 598 561 615 586 566 589 560 621 593 618 551 569 540 551 590 569 556 578 552 579 592 596 599 595 542 583 576 556 580 548 584 572 544 573 596 589 577 599 605 592 621 593 591 576 584 593 600 593 633 578 581 574 622 580 578 521 582 620 598 611 561 524 530 573 568 588 645 589 552 586 586 578 551 635 565 550 634 542 553 591 557 571 614 521 566 617 565 548 590 615 591 606 572 561 583 570 577 588 576 561 571 554 635 519 594 572 561 633 582 559 590 616 605 623 589 574 584 610 572 610 585 591 594 663 582 590 558 533 646 593 640 567 601 587 590 594 533 584 567 574 583 565 549 630 562 590 569 580 515 570 575 563 652 587 569 535 562 536 546 602 605 623 565 575 551 562 610 622 595 602 553 550 597 583 598 562 577 594 587 587 523 578 554 569 528 624 552 518 595 497 587 543 580 487 544 535 564 589 544 561 534 530 577 540 565 549 554 538 561 545 582 516 514 579 513 560 500 557 579 591 597 556 543 518 533 557 540 500 584 547 516 549 515 568 546 572 519 557 565 468 537 560 567 523 545 566 526 593 529 560 570 558 504 563 563 529 546 551 552 523 574 540 534 500 515 533 514 587 584 533 564 572 522 543 554 594 531 521 491 523 553 548 521 565 523 551 562 541 512 552 559 565 557 519 583 542 565 524 573 513 560 554 516 560 537 561 580 577 606 576 583 545 564 551 586 570 551 583 580 603 558 588 576 549 556 597 502 571 578 574 569 509 578 580 617 579 584 586 564 541 551 569 557 554 536 549 510 560 579 575 592 479 532 564 524 536 558 540 540 577 532 576 522 560 536 556 500 573 534 544 515 522 517 550 502 560 530 546 515 524 532 477 481 497 590 578 513 530 514 511 502 514 519 529 529 565 522 541 570 489 510 469 521 492 532 514 571 520 548 519 481 529 497 561 552 547 510 513 566 504 553 491 510 529 548 550 521 534 515 521 549 501 555 526 518 508 518 488 514 538 539 531 539 505 501 531 557 516 543 505 504 531 538 571 568 543 542 539 543 512 520 533 539 526 513 584 546 542 535 542 559 496 511 495 527 524 557 537 528 536 545 535 523 509 537 515 507 529 519 502 520 497 547 481 520 551 528 552 565 535 575 518 568 538 524 500 539 500 556 542 548 514 564 462 583 507 524 464 511 496 490 514 470 568 496 511 580 544 549 509 476 520 534 559 502 569 533 548 538 513 523 525 517 559 506 506 497 577 561 524 565 489 513 521 511 509 546 554 537 522 487 530 516 548 525 555 531 579 537 527 508 559 587 529 564 525 527 536 578 514 591 481 482 605 533 524 529 522 511 549 557 494 566 564 512 556 506 483 533 502 502 522 502 531 513 488 529 542 550 490 594 535 525 485 546 519 483 502 486 497 537 507 555 523 483 526 547 533 510 520 500 528 498 533 522 529 539 527 526 527 563 531 496 521 547 585 491 541 483 532 540 582 533 566 488 507 531 498 561 531 536 503 534 513 506 545 504 527 512 548 484 576 542 519 504 503 531 507 530 535 535 512 520 509 504 489 595 531 549 527 568 520 573 507 599 552 543 538 568 531 541 539 534 518 552 511 511 573 475 559 553 549 587 500 533 543 531 529 532 535 550 491 516 518 543 596 553 579 554 548 502 538 495 556 544 533 530 568 556 547 524 533 535 536 569 525 541 517 523 531 516 535 505 564 550 521 496 534 536 544 544 526 559 527 551 548 563 551 565 552</counts>
			</dataPoints>
		</scan>
	</xrdMeasurement>
</xrdMeasurements>
