<?xml version="1.0"?>
<xrdMeasurements xmlns="http://www.xrdml.com/XRDMeasurement/2.3" xmlns:xsi="http://www.w3.org/2001/XMLSchema-instance" xsi:schemaLocation="http://www.xrdml.com/XRDMeasurement/2.3 http://www.xrdml.com/XRDMeasurement/2.3/XRDMeasurement.xsd" status="Completed" recordIdentifier="{7961E88D-9F4A-4B9F-B0D1-DCE1418F7DB7}">
	<comment>
		<entry/>
	</comment>
	<sample type="To be analyzed">
		<id>GPSS_Li1p5Mn0p5V0p5Cl4_112725_69279e65f4e53d1f7239af1a</id>
		<name></name>
		<preparedBy></preparedBy>
	</sample>
	<xrdMeasurement measurementType="Scan" status="Completed" sampleMode="Reflection">
		<usedWavelength intended="K-Alpha 1">
			<kAlpha1 unit="Angstrom">1.5405980</kAlpha1>
			<kAlpha2 unit="Angstrom">1.5444260</kAlpha2>
			<kBeta unit="Angstrom">1.3922500</kBeta>
			<ratioKAlpha2KAlpha1>0.5000</ratioKAlpha2KAlpha1>
		</usedWavelength>
		<incidentBeamPath>
			<radius unit="mm">145.00</radius>
			<xRayTube id="1010048" name="Empyrean Cu LFF HR (9430 033 7310x)">
				<tension unit="kV">40.0</tension>
				<current unit="mA">15.0</current>
				<anodeMaterial>Cu</anodeMaterial>
				<focus type="Line">
					<length unit="mm">12.0</length>
					<width unit="mm">0.4</width>
					<takeOffAngle unit="deg">6.0</takeOffAngle>
				</focus>
			</xRayTube>
			<sollerSlit id="21010002" name="Soller slits 0.04 rad.">
				<opening unit="rad">0.0400</opening>
			</sollerSlit>
			<mask id="22031000" name="Fixed mask 13 mm">
				<width unit="mm">9.00</width>
			</mask>
			<divergenceSlit id="22120001" name="Divergence slit 1°" xsi:type="fixedDivergenceSlitType">
				<distanceToSample unit="mm">50.00</distanceToSample>
				<height unit="mm">1.52</height>
			</divergenceSlit>
		</incidentBeamPath>
		<sampleMovement xsi:type="spinningSampleMovementType">
			<spinnerRevolutionTime unit="seconds">1.0</spinnerRevolutionTime>
		</sampleMovement>
		<diffractedBeamPath>
			<radius unit="mm">145.00</radius>
			<antiScatterSlit id="22090040" name="AS slit 9 mm (PIXcel)" xsi:type="fixedAntiScatterSlitType">
				<height unit="mm">9.00</height>
			</antiScatterSlit>
			<sollerSlit id="21020003" name="Large Soller slits 0.04 rad.">
				<opening unit="rad">0.0400</opening>
			</sollerSlit>
			<filter id="20030001" name="Large beta-filter Nickel">
				<material>Ni</material>
				<thickness unit="mm">0.020</thickness>
			</filter>
			<detector id="7010019" name="PIXcel1D-Medipix3 detector" xsi:type="rtmsDetectorType">
				<phd unit="keV">
					<lowerLevel>4.02</lowerLevel>
					<upperLevel>11.27</upperLevel>
				</phd>
				<mode>Scanning</mode>
				<activeLength unit="deg">5.542</activeLength>
			</detector>
		</diffractedBeamPath>
		<scan appendNumber="0" mode="Continuous" scanAxis="Gonio" status="Completed">
			<header>
				<startTimeStamp>2025-12-06T12:26:16-08:00</startTimeStamp>
				<endTimeStamp>2025-12-06T12:34:23-08:00</endTimeStamp>
				<author>
					<name>AutomatedUser</name>
				</author>
				<source>
					<applicationSoftware version="1.7b (136)">PANalytical Aeris Instrument Suite</applicationSoftware>
					<instrumentControlSoftware version="3.2.00000000 20240306">AERIS</instrumentControlSoftware>
					<instrumentID>950485</instrumentID>
				</source>
			</header>
			<dataPoints>
				<positions axis="2Theta" unit="deg">
					<startPosition>10.00943322</startPosition>
					<endPosition>99.99442286</endPosition>
				</positions>
				<positions axis="Omega" unit="deg">
					<startPosition>5.00471661</startPosition>
					<endPosition>49.99721143</endPosition>
				</positions>
				<commonCountingTime unit="seconds">12.495</commonCountingTime>
				<counts unit="counts">2845 2946 2921 3036 2946 2824 2901 2881 2961 2843 2887 2895 2860 2871 2940 2960 2801 2938 2909 2858 2932 2848 2900 2867 2932 2814 2867 2868 2969 2847 2952 2868 2810 2991 2895 3004 2876 2929 2786 2768 2827 2780 2882 2914 2913 2855 2922 2904 2888 2911 2917 2886 3029 2949 2909 2977 2876 2835 2915 2862 2945 2910 2846 2893 2756 2973 2898 2835 2883 2928 2948 2824 2896 2914 2862 2866 2977 2858 2822 2963 2881 2856 2929 2838 2914 2887 2932 2978 2956 2823 2937 2855 2884 2995 2929 2908 2935 2948 2884 3055 2898 2976 3063 2889 2929 2992 3002 2905 2975 3000 2985 3013 2997 2954 2935 2894 2932 2940 2890 2980 2890 2899 2992 2937 2974 3060 2895 2960 3004 2907 2979 3073 2859 2917 3011 2998 2952 2947 2878 2953 2934 3001 2949 2968 2994 2926 2857 3040 3008 3037 3054 2985 3008 3008 2994 2889 2863 2975 2898 2961 2915 2945 3084 2976 2954 3033 2915 2968 3004 2987 2898 2987 2926 2973 3032 2990 2899 2947 2985 2970 2933 2976 2995 3028 3001 2901 2902 2887 2955 2947 2871 2914 2941 2933 2908 2823 2941 2898 2932 2772 2872 2976 2928 2855 2940 2847 2861 3031 2905 2977 2925 2941 2859 2901 2890 2914 2992 2888 2999 2931 2935 2832 2908 3007 2961 2775 2950 2839 2859 2930 2858 2885 2949 2916 2883 2892 2897 2992 2862 2853 2871 2909 2886 2898 2902 2890 2844 2835 2827 2790 2701 2871 2892 2974 2843 2801 2918 2891 2875 2914 2778 2776 2778 2825 2800 2784 2936 2713 2827 2848 2834 2743 2867 2903 2848 2824 2837 2745 2808 2844 2877 2811 2860 2816 2799 2814 2867 2823 2843 2801 2784 2909 2796 2807 2880 2878 2799 2978 2879 2758 2791 2744 2865 2815 2831 2790 2924 2789 2759 2827 2693 2779 2826 2829 2793 2890 2948 2807 2856 2904 2829 2871 2803 2804 2896 2841 2872 2893 2864 2897 2804 2941 2899 2905 2867 2878 2870 2958 2934 2947 2954 2852 2909 2941 2935 2875 2930 2987 3003 2861 2872 2978 2926 2974 2967 2932 2990 2974 2973 2973 3023 3055 3075 3052 3023 3041 3015 3034 3018 2986 3072 3083 3031 3070 3086 2997 2979 3092 3054 3121 3053 3032 3155 3179 3178 3059 3133 3207 3099 3066 3158 3220 3148 3280 3137 3294 3200 3217 3209 3166 3201 3260 3215 3269 3268 3298 3341 3287 3383 3432 3432 3474 3484 3467 3418 3524 3550 3639 3641 3615 3732 3767 3883 3846 3837 3752 3807 3811 3810 3753 3590 3658 3657 3547 3715 3692 3607 3521 3584 3743 3635 3696 3703 3752 3816 3884 3791 3907 3897 3873 4004 3903 4069 4011 4097 4051 3963 4104 4158 4200 4073 4322 4309 4256 4210 4375 4256 4268 4284 4238 4315 4216 4189 4093 4080 4043 3921 3964 4008 3801 3785 3583 3668 3658 3504 3653 3508 3484 3318 3550 3462 3307 3355 3341 3273 3318 3289 3253 3312 3288 3207 3237 3195 3255 3328 3210 3215 3233 3221 3208 3255 3271 3279 3190 3241 3287 3212 3150 3154 3184 3154 3202 3235 3148 3195 3152 3043 3134 3058 3175 3119 3130 3127 3091 3091 3098 3173 3081 3036 3049 3060 3019 3011 3081 3037 3003 2999 3012 2974 3125 2980 2996 2962 2955 3125 3002 3020 3034 3017 3057 2920 3009 2914 3083 3026 2898 3038 2954 3008 2958 2955 2923 2887 2987 2976 2887 2911 2891 2902 2906 2792 2809 2937 2764 2877 2900 2900 2851 2868 2935 2864 2901 2848 2814 2857 2953 2765 2740 2731 2753 2918 2821 2722 2873 2795 2766 2924 2865 2802 2804 2830 2818 2846 2814 2894 2774 2697 2801 2806 2752 2831 2873 2728 2808 2752 2865 2798 2746 2819 2740 2881 2748 2705 2851 2719 2732 2731 2645 2806 2700 2696 2837 2693 2755 2755 2667 2777 2779 2820 2772 2798 2736 2633 2854 2775 2665 2771 2776 2689 2820 2685 2758 2701 2767 2625 2709 2769 2741 2720 2772 2691 2745 2705 2705 2673 2734 2608 2645 2696 2770 2617 2694 2645 2712 2693 2623 2623 2804 2686 2645 2714 2749 2711 2697 2724 2671 2692 2644 2738 2620 2560 2690 2699 2676 2689 2676 2666 2677 2695 2733 2656 2696 2632 2675 2703 2628 2651 2621 2621 2563 2666 2684 2589 2627 2638 2582 2643 2587 2627 2628 2624 2657 2555 2670 2666 2583 2555 2565 2560 2656 2676 2584 2668 2655 2634 2588 2560 2637 2534 2654 2615 2579 2601 2608 2556 2589 2604 2601 2626 2618 2591 2620 2587 2610 2578 2590 2601 2603 2562 2530 2644 2614 2502 2518 2552 2535 2602 2672 2662 2612 2532 2562 2533 2540 2609 2500 2542 2534 2538 2485 2565 2573 2544 2548 2576 2595 2524 2547 2602 2446 2539 2496 2592 2560 2497 2627 2501 2554 2618 2523 2593 2435 2545 2421 2553 2557 2538 2490 2527 2596 2472 2500 2586 2521 2535 2522 2526 2505 2421 2473 2530 2441 2546 2452 2465 2405 2539 2539 2596 2572 2549 2522 2526 2515 2407 2516 2515 2500 2451 2424 2511 2471 2508 2524 2446 2470 2423 2511 2453 2478 2433 2437 2486 2441 2369 2506 2442 2464 2407 2549 2376 2489 2492 2471 2459 2453 2475 2501 2409 2375 2400 2456 2416 2329 2410 2409 2428 2283 2442 2390 2396 2463 2406 2429 2480 2427 2336 2374 2456 2326 2361 2359 2390 2434 2396 2343 2361 2331 2398 2388 2404 2471 2319 2381 2366 2383 2456 2356 2277 2279 2291 2292 2350 2261 2323 2395 2363 2389 2329 2275 2396 2385 2312 2433 2395 2390 2416 2252 2408 2330 2388 2282 2298 2330 2228 2354 2262 2371 2317 2343 2358 2311 2282 2385 2275 2358 2356 2383 2457 2315 2336 2330 2253 2328 2278 2388 2377 2429 2376 2301 2318 2375 2279 2349 2245 2347 2282 2284 2351 2218 2262 2254 2301 2354 2282 2206 2282 2232 2323 2264 2192 2365 2302 2327 2323 2324 2236 2335 2350 2304 2188 2330 2274 2280 2272 2154 2289 2251 2305 2302 2208 2259 2256 2239 2288 2311 2222 2198 2284 2302 2316 2206 2204 2240 2423 2270 2386 2234 2334 2344 2281 2183 2288 2314 2277 2236 2242 2141 2284 2346 2208 2250 2305 2263 2256 2341 2246 2311 2340 2279 2263 2239 2293 2258 2258 2382 2320 2274 2196 2251 2261 2306 2250 2216 2313 2332 2278 2237 2273 2345 2303 2263 2257 2275 2281 2311 2266 2224 2259 2296 2257 2271 2323 2317 2222 2318 2399 2290 2332 2275 2265 2289 2195 2316 2279 2304 2330 2215 2317 2258 2285 2355 2243 2157 2293 2258 2350 2301 2329 2321 2383 2296 2275 2215 2289 2214 2318 2231 2286 2250 2277 2208 2290 2311 2257 2306 2233 2285 2230 2275 2284 2207 2215 2194 2260 2190 2270 2380 2317 2174 2344 2285 2314 2244 2222 2222 2224 2232 2161 2271 2235 2165 2203 2197 2162 2179 2257 2226 2264 2243 2152 2122 2144 2205 2158 2091 2196 2218 2181 2197 2033 2145 2142 2081 2199 2212 2094 2232 2135 2099 2197 2212 2094 2043 2074 2057 2139 2154 2067 2101 2031 2100 2052 2146 2029 2063 2105 2126 2101 2031 2064 2039 2009 2002 2044 2130 2065 1989 2033 1995 2074 2012 2014 2024 2052 2032 1947 2099 1958 2064 1988 2031 1988 1975 1949 2003 2010 1949 1974 1959 2016 1897 1976 1974 1960 1942 1987 1958 1905 1928 1936 1887 1900 1867 1910 1877 1931 1826 1923 1908 1784 1809 1864 1910 1878 1846 1840 1881 1925 1836 1904 1802 1818 1881 1832 1880 1866 1812 1794 1840 1867 1854 1853 1823 1801 1782 1912 1730 1819 1852 1778 1723 1832 1728 1753 1765 1757 1853 1830 1783 1779 1779 1820 1790 1787 1822 1751 1775 1788 1693 1741 1772 1731 1857 1814 1771 1697 1739 1822 1727 1811 1644 1732 1714 1759 1713 1715 1713 1647 1791 1648 1741 1673 1708 1676 1671 1760 1671 1628 1791 1679 1700 1641 1630 1705 1704 1681 1732 1687 1753 1709 1700 1739 1737 1692 1618 1673 1665 1716 1652 1676 1620 1649 1668 1697 1664 1626 1675 1670 1699 1766 1603 1639 1553 1649 1642 1636 1579 1685 1691 1659 1715 1580 1661 1591 1647 1681 1596 1640 1615 1614 1598 1648 1609 1624 1538 1656 1588 1643 1641 1664 1561 1717 1575 1654 1667 1659 1626 1548 1605 1568 1642 1588 1660 1672 1643 1651 1612 1549 1578 1623 1617 1671 1642 1631 1643 1593 1659 1636 1658 1626 1693 1599 1700 1597 1560 1660 1662 1633 1642 1676 1635 1671 1620 1568 1669 1646 1609 1576 1547 1673 1759 1653 1707 1577 1598 1623 1675 1690 1586 1616 1667 1607 1577 1689 1683 1644 1647 1638 1636 1694 1604 1659 1570 1577 1666 1625 1666 1643 1619 1607 1603 1614 1601 1589 1694 1574 1635 1669 1627 1623 1572 1619 1564 1676 1616 1680 1669 1648 1580 1594 1693 1657 1650 1572 1618 1654 1644 1689 1585 1568 1594 1714 1638 1638 1593 1641 1649 1583 1609 1663 1598 1642 1590 1591 1586 1641 1600 1657 1618 1666 1570 1607 1674 1598 1647 1570 1598 1641 1644 1640 1606 1630 1636 1584 1635 1583 1644 1588 1601 1554 1634 1635 1573 1549 1615 1645 1556 1602 1613 1563 1580 1531 1658 1592 1548 1577 1548 1546 1633 1556 1597 1578 1564 1543 1585 1552 1474 1583 1507 1521 1529 1555 1532 1537 1515 1540 1570 1536 1513 1568 1495 1482 1525 1528 1508 1425 1492 1553 1580 1540 1532 1475 1549 1497 1498 1533 1490 1512 1466 1547 1490 1520 1510 1483 1478 1430 1503 1517 1471 1452 1417 1438 1479 1449 1468 1458 1372 1351 1430 1357 1492 1398 1434 1441 1430 1464 1471 1423 1386 1445 1349 1429 1395 1449 1378 1456 1395 1349 1372 1403 1384 1497 1434 1391 1426 1383 1416 1336 1436 1404 1362 1453 1364 1322 1373 1350 1413 1429 1415 1407 1418 1451 1468 1510 1472 1562 1573 1593 1664 1691 1701 1664 1761 1782 1810 1890 1774 1853 1774 1785 1825 1724 1654 1600 1603 1635 1603 1524 1537 1516 1578 1469 1532 1568 1587 1601 1600 1529 1524 1577 1516 1605 1618 1648 1641 1699 1722 1677 1698 1697 1761 1731 1754 1727 1813 1793 1961 1814 1819 1842 1861 1949 1743 1877 1829 1805 1837 1769 1727 1722 1668 1728 1577 1637 1552 1471 1506 1482 1497 1456 1357 1374 1364 1413 1445 1367 1295 1360 1285 1337 1249 1224 1296 1316 1304 1255 1279 1291 1257 1218 1287 1247 1263 1246 1208 1202 1241 1257 1254 1236 1204 1260 1299 1289 1274 1337 1344 1342 1376 1380 1448 1417 1525 1536 1639 1634 1750 1779 1871 1969 1994 2075 2183 2199 2255 2241 2144 2190 2076 2072 1992 1847 1898 1770 1652 1696 1672 1636 1608 1614 1603 1655 1614 1709 1691 1713 1628 1716 1801 1858 1782 1887 1919 1902 1958 2074 2060 2104 2153 2272 2230 2311 2417 2539 2450 2469 2578 2548 2566 2614 2606 2592 2383 2428 2366 2339 2373 2040 2118 1987 1950 1823 1768 1758 1658 1676 1590 1598 1550 1514 1463 1436 1476 1433 1360 1392 1249 1317 1344 1322 1266 1291 1287 1303 1295 1188 1227 1262 1272 1217 1203 1156 1104 1235 1085 1155 1165 1140 1151 1104 1102 1136 1093 1123 1141 1094 1024 1050 1099 1039 1079 1022 1057 1053 1062 1025 1104 1087 1061 996 1090 1067 1043 1068 1078 1068 1006 980 1074 997 1075 991 958 995 998 993 977 1056 986 1001 1009 1043 988 1037 997 1025 1029 1005 990 1035 1058 1063 1041 1083 1045 1061 1010 1067 1004 1034 1022 1047 958 1050 1014 1012 1048 956 1008 1018 1005 987 1003 1001 992 982 961 1051 946 989 1000 992 948 1001 951 987 950 962 983 992 984 948 904 1035 1028 927 988 968 947 975 960 958 917 974 978 925 883 948 969 1005 954 986 980 945 989 933 917 956 980 1000 1004 975 925 938 965 933 1002 1019 915 890 940 964 941 887 942 941 984 909 950 938 883 986 950 866 975 977 958 928 980 905 966 925 951 923 922 891 950 928 986 914 972 948 943 987 903 974 968 932 952 956 944 1006 971 996 961 1018 1004 957 970 950 956 954 976 941 934 956 948 946 979 940 888 927 941 956 941 993 964 935 977 947 983 911 914 958 898 910 1016 943 934 912 931 895 946 936 937 914 928 954 891 910 933 955 940 970 888 900 922 903 953 954 987 960 924 859 935 912 897 893 947 990 939 920 922 993 928 905 970 864 894 927 893 972 869 955 888 948 962 983 914 852 919 920 928 954 925 979 979 897 908 921 919 938 928 919 992 915 935 909 918 911 923 961 945 1024 1014 975 915 969 1013 961 1008 945 954 958 941 1014 1034 958 972 1007 997 936 1053 1077 964 998 1053 1033 1065 1054 1051 1058 1118 1091 1073 1205 1182 1263 1260 1264 1338 1373 1467 1611 1656 1777 1888 2049 2259 2392 2735 2805 2972 3078 3367 3441 3487 3513 3581 3586 3505 3397 3296 3232 3086 3016 2839 2691 2656 2582 2558 2445 2317 2304 2277 2364 2355 2450 2437 2551 2510 2655 2665 2854 2809 3110 3110 3250 3427 3504 3644 3814 3909 4008 4152 4363 4523 4603 4776 4953 5006 5050 5034 5005 5081 5097 4889 4609 4532 4319 4111 3925 3717 3554 3379 3056 2963 2805 2731 2408 2375 2306 2157 2117 1981 2087 1934 1943 1801 1839 1719 1677 1617 1639 1570 1498 1481 1418 1380 1318 1392 1328 1292 1231 1174 1268 1171 1173 1195 1162 1164 1120 1160 1070 1012 1060 1066 1096 1003 1012 1033 1012 995 1039 968 975 996 995 1009 960 955 978 990 1013 972 1009 943 954 978 949 935 931 915 990 950 931 931 950 965 953 923 897 894 934 916 920 895 886 875 911 825 860 916 841 921 874 877 869 887 924 893 896 883 909 864 858 846 858 829 823 806 862 885 867 841 839 856 900 855 826 830 823 850 851 897 878 860 814 825 864 847 890 841 851 816 821 825 882 767 828 835 857 880 823 870 828 846 898 829 878 772 884 870 842 793 869 868 781 813 824 836 813 833 819 879 861 792 812 837 786 798 832 849 805 789 825 763 786 775 810 847 800 843 784 827 813 835 797 848 822 820 826 870 825 796 811 801 776 841 798 819 804 837 887 818 829 765 799 768 859 765 834 825 815 810 807 869 874 839 812 814 846 810 815 769 792 781 816 780 848 837 802 869 810 832 844 863 834 859 817 831 818 856 859 822 775 806 793 830 845 813 793 761 780 774 790 811 811 822 841 829 825 833 767 782 832 805 806 853 843 890 815 795 884 769 790 849 827 797 852 893 814 830 781 807 776 829 793 772 837 799 774 848 811 776 804 808 806 856 803 855 794 814 826 813 814 786 804 836 810 875 739 803 762 744 804 797 789 792 762 790 750 813 762 762 749 741 746 756 768 796 783 806 764 794 758 780 778 781 846 785 797 822 794 784 754 779 769 807 786 733 780 765 742 758 783 746 791 708 751 759 734 759 751 798 766 807 749 760 769 764 753 714 747 745 747 695 736 763 733 764 751 732 796 734 729 751 764 730 737 706 796 721 735 716 751 819 767 710 776 691 706 730 769 703 782 763 752 722 704 744 758 728 730 727 715 721 728 736 715 676 683 710 707 714 724 790 701 701 769 748 762 700 791 717 831 713 757 718 759 687 718 720 738 695 711 721 728 729 710 790 777 691 665 729 709 714 696 784 697 722 667 699 679 720 731 666 699 748 691 711 699 721 715 734 690 756 714 701 724 716 721 694 740 674 702 752 800 749 690 731 696 725 769 723 697 754 688 696 673 756 738 739 730 763 685 712 709 784 774 762 684 660 709 728 715 662 646 677 752 729 706 692 706 754 715 749 755 751 753 663 689 699 705 750 725 732 687 698 702 711 716 744 694 671 734 725 758 715 736 705 736 738 705 681 703 731 695 646 695 722 730 682 725 695 670 692 685 674 733 723 719 684 714 667 669 706 695 674 732 654 710 633 755 729 690 709 701 671 731 681 695 703 720 706 696 748 654 728 682 735 694 731 699 726 733 672 656 719 667 716 665 703 677 717 685 679 717 717 719 674 697 679 684 642 702 687 668 721 714 695 681 663 677 712 700 707 701 660 710 660 692 643 690 714 709 716 728 686 679 635 719 681 696 693 731 688 727 686 674 712 738 694 668 705 695 685 746 740 697 690 703 692 640 659 649 689 712 678 685 666 741 707 687 728 732 716 644 718 696 670 748 714 675 671 712 698 743 679 656 663 701 668 682 736 716 671 687 640 664 695 709 718 708 698 666 675 724 628 661 723 713 658 696 688 704 758 715 699 703 667 668 662 715 700 664 713 727 750 716 705 717 686 675 695 672 731 710 704 699 695 677 703 692 747 668 687 662 746 689 739 677 662 725 676 692 658 686 686 679 683 696 679 713 696 680 692 689 724 678 654 644 653 678 669 679 680 644 681 658 695 679 685 669 710 658 650 710 672 680 656 675 694 684 697 646 681 693 710 696 711 709 702 662 674 665 710 685 674 690 663 667 685 667 692 659 673 678 681 651 700 681 720 623 722 706 647 651 684 649 711 714 692 696 719 691 664 673 676 636 676 648 700 688 663 681 716 683 704 732 679 728 711 690 658 695 701 730 773 726 651 658 686 719 681 682 638 662 691 687 678 680 647 680 667 686 678 712 720 716 677 721 730 700 637 682 640 658 732 712 688 685 639 653 727 647 677 712 668 678 669 677 722 718 698 711 717 663 729 771 697 756 735 700 801 771 777 831 811 833 869 904 931 966 939 1007 990 1015 960 952 933 953 953 927 879 947 942 897 836 857 866 913 849 886 821 839 844 841 842 850 856 897 876 871 873 913 967 993 1000 943 1022 1068 1066 1000 1023 1072 1086 1099 1104 1115 1088 1076 1077 1068 1097 1026 1083 1025 1106 1029 969 927 939 908 928 857 880 866 813 802 782 748 751 793 792 758 738 786 769 755 745 762 792 724 729 713 687 703 663 703 689 684 734 658 714 726 673 651 706 660 654 674 618 699 648 714 739 643 643 644 624 658 677 682 690 701 698 664 666 633 691 641 643 684 637 673 674 684 645 656 675 648 665 634 676 665 648 706 675 618 650 724 657 644 650 682 597 685 622 666 650 687 662 683 683 639 710 618 637 654 680 663 646 637 622 661 674 673 676 687 667 674 690 627 677 649 666 707 649 680 679 636 637 633 661 695 678 650 648 624 659 690 648 690 650 707 658 597 650 636 688 627 661 624 664 664 630 632 602 627 657 658 650 624 615 660 626 619 680 641 645 655 659 655 649 639 635 660 602 643 610 667 618 664 676 634 680 684 622 653 593 631 639 616 670 682 623 638 657 656 653 657 624 688 620 684 638 643 678 678 735 700 648 685 650 685 683 705 645 690 649 700 681 663 694 672 666 699 657 690 677 634 669 695 663 635 635 631 666 670 627 687 629 690 688 634 692 673 651 712 665 680 683 659 631 691 668 682 675 628 686 659 629 701 641 707 664 680 668 693 679 648 707 650 688 616 656 649 695 663 645 690 683 662 675 657 645 672 655 649 652 678 681 674 681 672 708 659 605 662 683 688 635 723 745 712 708 731 682 711 697 711 681 651 704 739 772 732 702 728 715 775 778 789 768 742 819 812 878 841 849 929 885 954 955 1051 1144 1178 1218 1327 1422 1587 1607 1715 1859 1881 2018 1970 2017 1875 1965 1962 1918 1851 1857 1832 1860 1833 1829 1809 1704 1790 1694 1764 1650 1640 1652 1731 1661 1632 1714 1707 1779 1828 1896 1952 1915 2061 2042 2130 2265 2358 2373 2570 2507 2598 2663 2688 2782 2703 2769 2731 2716 2699 2671 2540 2413 2381 2310 2249 2137 2066 2028 1962 1839 1822 1766 1679 1646 1497 1459 1419 1381 1301 1275 1219 1124 1153 1141 1089 1121 1078 1057 1048 1054 977 981 968 949 961 920 944 871 854 862 795 848 812 820 805 771 736 851 742 753 801 744 814 773 756 759 735 780 747 725 740 714 744 691 724 773 709 753 746 730 686 778 723 698 781 712 671 735 701 686 701 738 717 745 713 671 714 732 717 663 665 692 686 671 662 669 675 665 701 690 706 676 662 675 651 689 657 654 665 683 674 682 695 704 665 645 624 650 672 651 690 676 669 688 610 671 643 639 638 680 650 638 679 625 668 650 602 626 702 645 681 607 639 629 632 658 646 604 632 616 637 643 618 660 645 596 670 611 641 638 664 678 625 712 641 702 695 718 698 738 678 741 757 729 705 786 797 807 812 732 794 713 811 746 753 728 800 736 716 815 741 729 780 717 755 752 697 756 725 717 734 729 675 710 793 746 821 798 815 794 787 851 796 858 836 823 839 804 804 871 835 775 777 782 803 803 715 829 714 769 744 712 758 720 729 686 742 666 660 672 708 682 692 707 678 667 661 666 653 656 640 653 651 640 649 646 647 662 649 618 612 618 627 630 636 621 624 597 573 648 645 600 613 599 628 573 577 558 590 630 652 595 583 637 601 656 663 634 571 616 611 618 620 624 602 591 570 586 562 560 558 617 588 580 568 597 598 579 629 647 613 625 604 655 612 604 589 607 599 587 617 605 610 622 588 619 578 595 587 579 586 598 576 585 573 544 552 560 611 569 638 589 597 576 556 600 588 571 654 568 637 580 636 638 579 586 606 610 559 617 574 558 558 612 583 590 525 614 585 585 604 555 548 558 565 542 615 595 549 579 607 634 592 575 585 594 565 575 601 627 568 578 601 561 586 561 541 599 577 575 587 520 591 512 615 511 579 604 563 568 579 566 612 629 530 561 543 578 604 588 559 560 586 566 562 573 549 609 578 520 571 606 570 583 617 601 529 571 569 565 571 535 596 618 566 568 570 574 541 614 556 527 543 607 570 592 600 604 556 558 557 560 569 572 602 588 582 590 580 553 552 566 590 574 584 564 567 514 560 587 565 582 611 578 606 558 580 559 594 586 587 584 545 577 534 582 574 576 559 575 557 599 591 579 562 595 582 609 523 551 542 548 562 599 542 536 526 573 543 554 605 587 549 545 530 603 531 564 587 600 584 573 581 579 541 547 564 584 616 523 561 582 560 565 566 584 557 568 563 549 546 519 566 566 584 582 561 557 537 543 577 538 564 554 577 580 537 586 558 553 604 597 595 553 526 549 561 561 589 560 548 579 528 563 549 521 536 568 567 581 555 567 525 595 531 534 559 566 546 580 556 603 560 585 558 544 560 554 496 512 575 570 585 586 487 516 546 571 593 545 520 535 562 563 548 539 553 551 574 552 550 576 503 554 555 554 569 541 554 528 576 549 539 589 569 570 554 583 546 560 572 546 581 576 598 539 584 516 542 588 492 553 573 518 559 533 587 552 540 538 568 552 540 546 556 589 577 547 484 564 531 537 598 515 559 602 556 530 559 531 519 528 566 571 527 562 539 544 560 547 549 526 566 536 546 571 594 597 531 561 518 538 527 554 536 529 520 499 589 598 527 574 557 519 544 548 538 568 560 552 537 523 532 640 564 568 557 599 577 539 654 563 580 580 601 545 569 604 551 573 544 548 603 576 590 596 546 589 637 560 536 557 604 606 574 596 594 542 585 611 637 631 609 596 608 642 641 595 583 628 677 654 673 590 654 603 599 623 627 576 637 642 623 654 660 647 655 668 724 689 769 732 785 712 709 688 730 766 700 681 706 686 673 676 691 694 699 723 731 738 702 712 692 715 752 732 730 666 724 732 742 743 763 764 776 792 781 740 750 841 797 859 799 802 814 789 827 824 763 799 795 789 812 753 780 783 688 720 732 718 715 723 684 704 718 650 667 668 654 581 644 629 628 609 574 639 598 606 614 631 624 620 553 611 546 599 575 549 585 554 603 609 581 589 539 590 607 540 576 597 647 575 527 595 563 548 631 601 605 541 574 588 551 525 563 551 589 570 632 641 592 577 611 612 565 571 540 612 571 601 552 591 580 513 566 590 626 599 578 599 597 594 552 587 563 596 544 572 551 587 582 594 597 526 556 563 520 578 523 549 566 573 551 558 563 528 558 500 556 517 577 497 504 518 553 536 545 504 519 552 578 561 542 539 528 561 517 546 542 562 562 570 501 537 529 541 554 523 505 548 512 496 556 549 498 509 523 511 537 540 577 536 564 526 553 539 576 519 561 509 572 531 496 516 526 562 517 576 535 557 551 571 591 529 550 545 586 561 556 554 558 541 544 554 527 565 540 504 543 543 533 580 566 573 627 569 599 621 635 684 648 694 692 702 792 733 764 834 811 842 796 783 824 813 840 797 764 784 792 814 839 778 791 777 827 853 816 847 917 832 793 882 842 815 843 888 882 846 951 942 876 968 946 974 1030 982 992 980 1028 1025 1031 948 980 963 938 940 963 950 928 868 895 858 863 860 827 795 799 859 791 772 776 809 788 727 729 702 659 712 652 648 624 649 650 645 625 641 595 625 650 642 629 581 564 628 649 575 564 560 621 589 542 571 600 594 532 585 544 583 545 527 536 541 545 529 552 528 557 600 574 547 557 537 547 522 533 556 575 550 539 551 510 572 537 561 538 539 541 536 563 521 534 563 528 522 550 522 536 556 551 552 545 501 500 511 520 489 522 518 545 485 551 534 500 518 531 550 548 559 568 571 513 517 547 538 563 534 526 554 524 547 535 536 552 549 544 579 531 527 576 542 549 528 574 576 618 532 572 618 602 542 625 614 631 620 602 635 604 585 632 597 578 613 574 543 623 583 559 576 615 618 612 621 562 664 591 599 569 624 602 600 605 626 655 649 642 608 628 629 610 650 636 643 693 611 673 698 633 599 607 571 588 617 612 584 624 637 582 606 585 553 601 603 547 521 565 581 567 560 565 577 566 589 554 564 580 532 519 508 556 567 559 504 542 538 546 539 529 553 519 468 573 527 496 515 515 522 541 508 561 573 546 525 554 521 511 477 546 531 500 519 478 546 501 481 508 485 530 507 493 493 543 512 499 518 454 499 522 518 470 506 537 484 546 508 547 511 510 486 510 585 534 503 486 502 506 516 528 511 506 518 487 522 484 506 529 522 506 513 482 497 522 519 494 470 542 498 499 480 468 479 519 488 548 509 478 496 500 487 496 516 534 466 524 505 544 511 517 526 455 502 472 469 474 509 480 501 486 503 478 450 480 493 504 550 513 535 489 471 524 536 481 495 491 518 527 493 495 489 483 476 531 512 515 545 526 513 467 490 507 504 469 474 469 497 480 537 482 475 502 479 547 474 558 472 476 489 521 537 511 518 529 528 534 499 514 501 493 509 575 491 514 507 505 507 461 499 461 457 519 469 480 496 493 522 499 496 474 487 512 510 516 490 482 459 484 521 531 489 478 474 513 491 544 514 490 508 506 493 494 482 453 546 498 497 503 486 516 456 497 481 506 522 535 498 535 534 499 503 519 486 549 518 486 526 510 504 540 498 457 486 541 484 460 529 470 466 454 509 481 473 483 479 454 528 509 489 456 513 490 477 514 500 491 529 509 546 505 437 497 506 522 428 493 473 480 518 526 465 474 490 509 513 443 484 493 496 464 513 485 466 485 497 517 483 480 488 507 515 494 474 528 482 536 492 482 496 435 547 484 555 470 477 490 478 485 489 469 483 483 507 503 484 476 511 436 494 483 442 448 493 472 511 476 521 495 508 460 522 511 495 491 440 517 483 437 513 481 539 505 478 506 469 505 456 497 477 502 469 481 522 517 483 496 517 485 470 471 504 495 509 511 489 531 507 522 448 474 490 504 513 494 487 481 487 518 489 506 522 492 465 488 505 504 491 536 502 484 510 532 522 476 487 513 504 509 489 542 569 507 513 501 513 535 493 480 523 506 522 502 515 504 536 530 494 533 544 547 558 559 525 531 512 511 520 544 556 509 527 545 547 547 519 569 540 557 558 542 540 519 560 575 541 545 566 545 549 540 564 536 529 583 495 571 542 546 537 555 534 520 547 551 490 568 506 489 529 527 511 541 489 492 491 518 473 513 489 482 498 490 513 473 525 522 510 530 474 488 520 486 469 513 469 504 499 473 494 482 500 519 465 442 480 494 471 515 520 453 508 492 489 487 488 476 517 458 470 531 487 516 485 463 468 476 505 489 521 494 470 488 478 479 496 482 480 483 504 460 470 515 476 473 536 485 470 492 543 490 482 457 496 481 497 445 453 505 510 509 481 508 521 469 512 467 526 547 477 502 497 450 489 485 488 481 495 514 510 492 469 483 480 496 474 501 482 498 493 492 496 450 508 467 466 512 450 475 418 500 511 525 478 491 473 493 479 516 438 456 491 480 513 499 478 471 523 507 473 501 482 474 476 462 484 493 496 430 497 449 486 478 537 482 505 510 491 500 497 483 543 484 500 482 488 471 466 438 510 492 443 470 574 524 480 469 483 485 519 502 515 484 484 526 476 452 489 517 490 485 466 488 475 511 503 493 501 507 485 508 459 476 465 475 505 490 443 494 465 494 484 493 525 548 511 556 518 501 472 529 510 567 486 542 548 570 575 566 561 608 563 585 591 608 612 586 562 621 599 604 618 616 582 621 643 606 609 628 642 622 655 662 644 665 634 651 643 650 658 700 698 691 709 686 669 673 681 665 691 671 680 660 665 696 675 644 691 631 683 675 612 607 596 630 625 614 604 591 597 604 585 595 592 614 601 608 567 591 567 534 542 562 567 508 585 536 521 555 569 526 523 522 544 586 495 505 498 484 532 516 493 507 507 502 486 479 469 471 506 534 538 522 508 509 488 459 532 492 456 536 481 426 517 513 502 497 498 486 512 502 495 459 492 473 500 478 472 466 525 473 544 460 471 491 497 467 457 463 524 468 493 513 498 499 485 462 462 492 476 474 475 539 494 481 461 499 460 547 536 512 534 516 464 493 512 511 502 508 476 527 515 511 488 438 515 508 435 515 461 473 431 497 459 516 473 498 470 443 469 501 468 466 499 481 513 468 507 474 504 465 539 476 420 501 512 462 520 464 506 484 504 495 463 497 482 489 487 511 497 537 481 514 484 451 502 527 485 510 522 506 477 489 458 502 506 501 465 493 498 539 458 489 483 470 484 471 472 532 488 457 468 506 499 488 480 477 482 429 473 476 472 500 486 500 465 472 465 481 462 506 514 438 456 455 476 431 483 516 529 451 453 525 465 471 454 481 517 504 469 508 489 451 480 483 463 459 439 493 519 473 493 529 446 452 469 456 496 482 488 457 491 478 466 480 493 512 502 478 462 476 503 465 443 464 491 473 484 485 483 471 491 450 471 474 496 485 480 452 489 496 500 476 472 488 480 511 460 465 481 497 479 482 526 506 474 461 514 490 483 476 455 428 476 486 514 467 452 495 485 468 469 463 452 495 493 443 485 498 502 492 443 481 487 454 483 490 469 462 502 484 474 478 487 431 467 437 492 476 479 466 516 483 457 536 480 489 496 477 465 490 447 438 508 546 454 479 516 469 455 486 436 463 466 474 475 493 483 456 448 478 497 447 454 476 481 498 472 486 467 488 465 514 465 474 489 446 505 469 487 467 512 488 481 491 464 514 492 465 481 465 481 460 487 488 453 488 481 472 465 494 467 496 528 505 508 481 485 448 491 455 447 509 515 460 499 486 470 445 477 487 492 481 478 484 442 544 476 466 487 461 502 475 486 491 476 458 498 452 476 481 500 457 498 483 492 476 478 456 492 454 493 486 445 483 482 469 494 473 481 491 511 459 475 464 487 464 448 489 462 458 504 470 511 487 521 473 469 523 469 523 473 496 486 502 493 480 449 448 459 463 463 426 487 505 486 485 470 510 464 484 514 452 460 447 467 482 520 479 436 476 509 491 511 473 486 450 477 457 479 502 483 464 498 441 478 459 463 485 483 473 504 521 466 476 421 506 493 448 481 535 506 462 500 457 463 480 478 539 479 472 463 506 460 478 496 492 474 457 477 519 497 519 477 479 465 485 468 543 523 460 516 508 496 515 519 541 519 500 509 544 506 499 504 515 488 488 522 529 539 510 509 458 525 511 530 520 480 521 546 553 532 540 486 564 523 543 529 564 550 547 559 546 554 495 524 588 579 581 591 570 566 525 556 537 537 577 557 562 531 546 549 541 587 564 533 509 542 534 537 569 601 610 566 553 544 605 521 510 544 546 634 575 547 542 525 556 534 566 549 607 562 558 547 577 565 587 582 544 597 560 585 525 554 603 560 577 547 542 600 603 582 528 551 531 520 574 535 567 535 541 579 528 498 523 547 513 527 538 526 525 526 519 520 530 564 533 550 541 571 534 505 534 529 465 509 496 507 518 492 535 506 473 513 499 512 518 507 458 512 501 496 486 486 503 513 488 492 528 483 549 489 507 500 493 530 499 503 533 482 499 479 518 489 485 508 521 459 503 474 504 487 490 497 466 527 531 530 542 521 516 523 538 504 525 499 525 514 503 515 523 485 505 507 506 531 501 499 481 501 526 518 545 500 533 515 495 533 464 528 518 509 531 487 524 482 512 510 510 486 478 543 516 459 532 527 487 502 508 524 556 523 508 520 514 504 516 509 525 550 511 550 484 525 530 509 548 498 510 557 552 530 523 514 536 509 534 524 572 503 538 526 537 556 557 557 575 590 567 591 604 587 569 602 634 630 658 659 694 670 735 746 777 738 721 728 777 729 728 741 760 722 783 779 790 757 790 792 775 794 781 815 820 885 889 839 921 886 994 910 965 926 977 943 911 903 977 915 972 936 873 974 921 890 893 864 888 841 799 830 867 818 773 854 789 850 769 793 715 796 807 766 752 751 758 741 746 690 692 648 666 656 642 645 637 623 594 589 595 607 556 611 609 598 585 554 605 567 587 528 550 562 512 602 532 506 535 526 504 513 545 561 489 508 560 552 511 543 519 589 515 521 565 504 515 552 527 556 488 533 506 506 522 501 563 550 530 475 540 509 513 503 491 510 554 471 492 527 537 488 509 527 505 508 522 446 501 514 512 525 484 528 540 501 504 496 500 523 496 556 519 551 507 546 516 499 528 543 514 508 522 553 533 518 514 545 521 537 540 519 513 540 521 541 554 505 512 547 503 519 504 490 539 507 529 534 518 502 535 534 537 533 547 558 544 556 560 503 532 520 561 529 538 565 594 558 558 545 533 543 535 551 542 519 503 515 529 521 513 555 531 560 494 544 476 514 517 522 548 541 518 506 517 543 486 533 502 506 523 517 521 503 527 519 491 513 526 478 532 493 517 492 534 504 488 487 523 518 526 493 493 509 479 479 491 510 484 459 515 509 475 465 480 512 474 450 494 491 442 507 533 495 491 506 496 477 511 498 529 477 499 495 469 477 476 488 465 512 474 498 489 507 488 493 460 505 477 526 488 481 528 462 500 452 492 490 495 483 475 508 478 524 486 550 465 459 511 452 488 489 494 476 465 483 491 496 483 466 463 488 490 460 470 472 498 505 498 480 461 461 472 496 460 472 452 457 473 462 483 473 456 491 455 451 470 504 495 478 426 490 464 527 453 446 465 498 512 484 433 503 471 511 466 503 429 449 462 479 479 470 524 472 483 511 449 462 458 483 470 428 526 490 478 481 455 460 459 473 444 480 436 493 501 503 522 470 537 531 464 491 481 456 527 468 444 519 441 513 476 501 469 504 500 519 434 458 464 483 439 461 441 489 466 475 482 459 467 476 484 473 451 452 456 486 466 460 499 469 476 471 495 456 482 463 472 475 451 490 458 499 443 456 431 439 500 444 469 461 473 466 465 485 469 482 476 481 503 489 460 494 489 473 463 444 483 438 478 452 501 482 416 504 502 465 428 477 439 489 454 511 451 459 466 456 498 495 484 493 452 495 472 476 477 485 446 469 451 461 519 436 483 471 464 471 480 456 526 482 465 437 483 459 461 497 498 470 515 503 505 498 475 468 488 452 469 472 475 453 438 450 473 480 476 514 472 517 422 471 494 468 468 464 474 440 456 451 506 428 499 478 429 467 462 482 442 494 484 467 477 461 464 496 451 497 479 454 485 485 499 452 523 478 446 477 477 478 437 491 482 464 489 463 468 513 469 491 492 501 515 513 482 494 521 529 488 480 490 523 544 535 525 487 508 476 512 508 533 492 512 520 522 495 495 512 556 486 520 514 547 505 530 526 524 520 533 536 552 515 498 520 490 536 540 548 491 537 514 510 539 503 462 446 492 516 453 497 469 508 480 479 466 523 519 471 531 505 541 508 479 495 524 483 528 515 504 494 481 483 514 502 513 534 478 499 484 497 475 458 459 480 470 491 483 422 507 448 468 521 504 477 505 495 453 481 489 489 472 505 478 472 489 488 461 470 490 469 508 466 468 478 483 483 527 473 473 459 460 458 491 452 467 466 516 468 470 434 482 468 457 465 453 488 503 473 462 505 478 473 475 460 462 466 449 514 498 446 501 474 454 466 485 530 507 464 489 509 466 449 447 481 479 506 480 487 475 487 490 500 485 481 472 498 456 471 409 490 460 456 521 439 511 489 504 448 490 529 451 474 464 478 475 478 447 483 506 448 464 488 454 460 472 485 488 507 491 506 444 465 457 453 473 502 464 461 470 501 472 496 480 490 478 415 482 494 503 502 495 472 487 455 470 520 466 489 496 490 510 481 470 477 465 467 473 481 485 494 462 515 461 497 513 500 521 521 486 546 483 519 500 544 526 514 529 521 539 484 567 579 596 550 575 553 604 580 572 619 628 637 663 674 655 653 657 618 657 702 709 661 707 662 700 686 712 696 698 686 668 667 722 765 761 736 729 791 755 825 750 771 803 834 811 851 843 783 812 803 831 841 801 766 776 740 774 741 682 795 655 708 705 652 668 682 640 700 692 652 659 650 688 643 655 660 703 631 642 661 647 600 680 628 603 629 591 561 571 602 564 546 565 568 550 556 546 542 539 544 576 552 525 501 514 508 561 519 583 520 470 497 513 533 504 512 514 481 509 485 543 496 491 470 502 486 488 530 525 521 511 477 504 472 454 500 499 467 502 515 480 472 483 478 487 492 487 509 500 502 521 486 480 494 501 511 480 498 509 536 472 536 491 453 461 491 469 448 474 490 478 479 503 468 482 498 510 441 475 466 483 474 490 527 483 510 494 489 530 525 457 480 494 488 473 511 497 503 470 540 499 466 500 482 540 478 481 502 509 502 507 511 495 447 506 519 507 519 543 522 526 496 529 514 503 506 536 445 530 449 471 512 454 502 498 503 492 487 499 509 512 531 525 508 510 472 470 494 522 484 482 466 490 495 449 495 474 470 467 460 459 470 461 505 445 444 462 491 500 518 463 438 471 503 474 497 508 473 522 455 472 476 522 476 477 498 547 451 468 442 488 455 474 427 462 455 473 451 487 509 490 468 486 449 442 429 477 488 455 478 474 481 469 431 494 471 468 462 468 471 443 507 482 475 484 479 509 466 521 455 538 471 456 488 463 431 454 514 453 451 450 455 496 391 489 481 509 516 467 513 462 484 450 473 509 511 463 507 495 455 467 471 452 492 462 511 474 499 485 453 435 508 496 502 514 480 474 449 465 475 497 479 493 516 453 485 452 450 508 425 509 491 477 443 474 478 502 447 450 461 461 483 465 444 489 505 431 434 474 466 432 420 501 476 522 459 438 464 486 466 426 483 463 501 459 472 444 476 449 447 502 449 448 472 477 480 461 505 447 437 488 435 494 432 460 486 463 497 422 473 474 508 454 508 477 440 439 468 510 454 424 468 461 436 468 480 454 484 474 483 489 479 462 487 454 508 472 451 487 490 457 452 455 469 446 516 474 428 442 485 482 463 454 454 465 463 474 429 440 449 463 480 467 468 446 474 468 444 486 439 459 475 435 414 451 472 462 508 480 475 491 420 494 437 473 431 412 430 465 472 466 484 492 475 408 471 461 458 496 457 472 504 448 460 437 477 457 516 477 444 471 444 460 488 469 454 525 468 482 485 476 514 446 471 482 494 437 417 495 465 494 456 436 506 452 486 472 430 462 447 490 497 482 482 443 459 487 528 441 477 443 455 464 517 455 516 456 439 489 449 466 479 429 457 463 482 462 485 481 465 513 463 458 454 453 510 482 480 446 461 453 477 469 494 442 490 430 493 476 471 498 492 437 470 463 468 467 475 515 489 476 469 521 460 492 516 501 512 522 513 534 518 510 492 494 488 503 528 517 541 506 501 519 512 504 518 551 547 592 459 464 561 537 526 524 538 524 527 529 515 519 551 540 557 523 527 554 564 518 568 536 555 526 540 522 543 536 495 521 505 526 577 526 520 522 546 538 516 528 565 506 570 536 541</counts>
			</dataPoints>
		</scan>
	</xrdMeasurement>
</xrdMeasurements>
