<?xml version="1.0"?>
<xrdMeasurements xmlns="http://www.xrdml.com/XRDMeasurement/2.3" xmlns:xsi="http://www.w3.org/2001/XMLSchema-instance" xsi:schemaLocation="http://www.xrdml.com/XRDMeasurement/2.3 http://www.xrdml.com/XRDMeasurement/2.3/XRDMeasurement.xsd" status="Completed" recordIdentifier="{09E19B82-2A0F-49B3-A687-444BC08F55AA}">
	<comment>
		<entry/>
	</comment>
	<sample type="To be analyzed">
		<id>GPSS_Li1p5Mn0p7Y0p2Ta0p1Cl4_111425_69175e1347a6a0fd7c65934e</id>
		<name></name>
		<preparedBy></preparedBy>
	</sample>
	<xrdMeasurement measurementType="Scan" status="Completed" sampleMode="Reflection">
		<usedWavelength intended="K-Alpha 1">
			<kAlpha1 unit="Angstrom">1.5405980</kAlpha1>
			<kAlpha2 unit="Angstrom">1.5444260</kAlpha2>
			<kBeta unit="Angstrom">1.3922500</kBeta>
			<ratioKAlpha2KAlpha1>0.5000</ratioKAlpha2KAlpha1>
		</usedWavelength>
		<incidentBeamPath>
			<radius unit="mm">145.00</radius>
			<xRayTube id="1010048" name="Empyrean Cu LFF HR (9430 033 7310x)">
				<tension unit="kV">40.0</tension>
				<current unit="mA">15.0</current>
				<anodeMaterial>Cu</anodeMaterial>
				<focus type="Line">
					<length unit="mm">12.0</length>
					<width unit="mm">0.4</width>
					<takeOffAngle unit="deg">6.0</takeOffAngle>
				</focus>
			</xRayTube>
			<sollerSlit id="21010002" name="Soller slits 0.04 rad.">
				<opening unit="rad">0.0400</opening>
			</sollerSlit>
			<mask id="22031000" name="Fixed mask 13 mm">
				<width unit="mm">9.00</width>
			</mask>
			<divergenceSlit id="22120001" name="Divergence slit 1°" xsi:type="fixedDivergenceSlitType">
				<distanceToSample unit="mm">50.00</distanceToSample>
				<height unit="mm">1.52</height>
			</divergenceSlit>
		</incidentBeamPath>
		<sampleMovement xsi:type="spinningSampleMovementType">
			<spinnerRevolutionTime unit="seconds">1.0</spinnerRevolutionTime>
		</sampleMovement>
		<diffractedBeamPath>
			<radius unit="mm">145.00</radius>
			<antiScatterSlit id="22090040" name="AS slit 9 mm (PIXcel)" xsi:type="fixedAntiScatterSlitType">
				<height unit="mm">9.00</height>
			</antiScatterSlit>
			<sollerSlit id="21020003" name="Large Soller slits 0.04 rad.">
				<opening unit="rad">0.0400</opening>
			</sollerSlit>
			<filter id="20030001" name="Large beta-filter Nickel">
				<material>Ni</material>
				<thickness unit="mm">0.020</thickness>
			</filter>
			<detector id="7010019" name="PIXcel1D-Medipix3 detector" xsi:type="rtmsDetectorType">
				<phd unit="keV">
					<lowerLevel>4.02</lowerLevel>
					<upperLevel>11.27</upperLevel>
				</phd>
				<mode>Scanning</mode>
				<activeLength unit="deg">5.542</activeLength>
			</detector>
		</diffractedBeamPath>
		<scan appendNumber="0" mode="Continuous" scanAxis="Gonio" status="Completed">
			<header>
				<startTimeStamp>2025-11-17T12:56:46-08:00</startTimeStamp>
				<endTimeStamp>2025-11-17T13:05:07-08:00</endTimeStamp>
				<author>
					<name>AutomatedUser</name>
				</author>
				<source>
					<applicationSoftware version="1.7b (136)">PANalytical Aeris Instrument Suite</applicationSoftware>
					<instrumentControlSoftware version="3.2.00000000 20240306">AERIS</instrumentControlSoftware>
					<instrumentID>950485</instrumentID>
				</source>
			</header>
			<dataPoints>
				<positions axis="2Theta" unit="deg">
					<startPosition>10.00943322</startPosition>
					<endPosition>99.99442286</endPosition>
				</positions>
				<positions axis="Omega" unit="deg">
					<startPosition>5.00471661</startPosition>
					<endPosition>49.99721143</endPosition>
				</positions>
				<commonCountingTime unit="seconds">12.495</commonCountingTime>
				<counts unit="counts">2889 2909 2874 2922 2978 2943 2986 3072 2964 3012 2976 3111 2961 2900 3064 2883 2896 2985 2791 3036 2954 2963 2962 2999 3023 2940 2998 2895 2952 2881 2953 2998 3026 3000 2881 3017 3044 3023 2993 3011 2871 2998 2963 3046 2955 3013 3073 3096 2930 2989 2987 2924 3052 3003 3035 2968 2954 3089 3075 2937 3003 3059 3030 2992 3044 3044 3063 2926 3012 2989 3061 3023 3022 3117 3049 2892 3010 2978 3068 3011 3029 3038 3018 2994 3058 2920 3111 3049 2966 3091 2937 2982 3052 3021 3028 3052 3043 3034 3044 3078 2954 2996 3073 3040 3098 2998 3044 3139 3051 3021 3005 3017 3016 3052 3202 3126 3099 3116 3114 3062 3103 3058 3077 3079 2949 3051 3107 3034 3116 3152 3065 3144 3048 3081 3073 3114 3148 3027 3135 3148 3132 2941 3059 3117 3107 3117 3177 3059 3146 3017 3059 3072 3025 3060 3086 2998 3038 3090 3101 3082 3050 3043 3087 2969 2997 3081 3137 3018 3088 2921 3120 3020 3079 3098 3063 3065 3008 3075 3047 2984 3064 3053 3063 3001 3076 3094 2995 3095 3176 2947 3118 3012 3072 3038 3172 3048 2975 2992 3096 3084 3038 2980 3064 3064 3110 2950 2943 2982 3163 3066 2904 3055 2949 3066 3045 3039 2945 2934 2966 3010 3048 3053 3005 3052 2979 2911 2946 3063 2975 2953 2935 2841 2986 2987 2919 2954 2990 3013 2936 2943 2983 2930 3029 2997 2927 2875 2870 2988 2897 2987 3048 2965 2980 2856 2979 2954 2957 2936 2936 2854 3017 2875 2929 3047 2975 2935 2923 2924 2912 2856 3015 2844 2975 2912 2878 2955 2954 2952 2945 2995 2936 2957 2967 3039 3044 2950 2902 3020 2913 2941 2959 2963 3006 2886 2941 2959 2985 2980 2952 3035 2940 3065 2960 3042 2965 2909 3092 3002 2906 2986 2991 3025 2948 2947 3069 3001 2988 2992 2953 2931 2985 3005 2868 2988 3095 2949 3025 3055 3040 3030 2962 3032 3107 3057 3034 3083 3099 3105 3122 3088 3107 3110 3157 3076 3089 3203 3134 3193 3094 3241 3143 3176 3171 3144 3104 3112 3183 3062 3266 3244 3214 3166 3193 3273 3228 3244 3230 3247 3228 3219 3294 3222 3241 3328 3300 3254 3261 3391 3254 3390 3445 3245 3354 3273 3446 3373 3510 3478 3470 3531 3463 3544 3543 3455 3609 3639 3572 3717 3693 3817 3852 3952 3977 4116 4046 4175 4165 4359 4475 4379 4388 4472 4557 4672 4606 4501 4530 4511 4481 4483 4530 4370 4339 4400 4343 4230 4211 4251 4324 4012 4112 4029 4089 3959 3959 3826 3919 3970 3801 3663 3714 3746 3764 3812 3653 3616 3706 3695 3702 3721 3682 3667 3646 3753 3729 3604 3608 3622 3616 3541 3618 3620 3533 3572 3688 3578 3575 3633 3614 3501 3502 3480 3460 3511 3493 3495 3495 3538 3524 3610 3466 3386 3435 3476 3470 3493 3347 3452 3328 3482 3381 3427 3488 3400 3403 3436 3423 3471 3523 3487 3455 3350 3399 3373 3434 3431 3365 3314 3409 3404 3422 3402 3440 3375 3381 3558 3502 3521 3478 3543 3607 3579 3582 3713 3770 3704 3631 3641 3712 3793 3782 3645 3600 3685 3712 3605 3506 3619 3594 3565 3658 3488 3487 3533 3444 3495 3405 3412 3453 3358 3280 3370 3274 3285 3299 3243 3379 3304 3242 3227 3159 3249 3270 3195 3254 3284 3244 3181 3164 3237 3262 3080 3228 3177 3243 3220 3184 3193 3181 3100 3195 3141 3096 3244 3098 3135 3109 3141 3126 3263 3173 3113 3150 3080 3095 3131 3111 3202 3039 3141 3147 3186 3069 3029 3093 3042 3120 3099 2988 3036 3048 3051 3001 3078 3030 3082 3061 2966 2871 3030 3013 2948 3112 2961 3052 3003 2987 3052 3088 2995 3019 3009 3025 2970 3081 3050 2873 2907 3010 2910 3041 3107 2959 2866 3166 2937 2920 3007 3068 3092 2902 3098 3075 3023 3047 3027 2931 2997 2967 3053 2965 3089 2944 3012 3104 2950 3046 3021 3024 3105 3048 3110 3074 3153 3028 3081 3000 2936 3000 2911 2993 3036 3045 3094 3097 3008 2912 2986 3031 2939 2964 2998 3046 3038 3132 2975 2970 3054 3097 3061 3059 3062 3105 3068 3058 2978 3009 3050 3120 3050 3070 3087 3209 3077 3059 3120 3109 2991 3106 3045 3046 3165 3055 3100 2995 3126 3023 3032 3049 3084 3080 3015 3106 3043 3099 3006 3142 2908 2944 3096 3093 2983 3025 3105 3124 3123 3051 3077 3112 3035 3070 3043 3000 3013 3057 2961 3065 3111 3001 3001 3036 3065 2988 2969 2988 3011 2949 3038 2978 2949 3024 2924 3056 2889 2847 2959 2925 2944 2941 2895 2976 2894 2901 2895 2903 2979 2814 2878 2847 2942 2887 2861 2859 2872 2882 2937 2868 2882 2818 2875 2887 2914 2900 2830 2854 2840 2914 2900 2829 2833 2866 2834 2918 2824 2876 2859 2841 2739 2807 2702 2783 2877 2769 2717 2775 2825 2814 2771 2693 2825 2750 2855 2791 2746 2810 2789 2779 2723 2748 2790 2835 2779 2739 2854 2727 2690 2765 2774 2711 2861 2762 2684 2837 2800 2624 2764 2740 2916 2660 2715 2634 2718 2673 2737 2703 2707 2720 2787 2724 2630 2879 2776 2645 2672 2693 2723 2707 2697 2815 2744 2682 2708 2686 2632 2788 2756 2682 2819 2675 2740 2617 2685 2640 2672 2728 2605 2639 2739 2771 2668 2690 2635 2608 2707 2715 2696 2659 2750 2691 2685 2631 2664 2711 2672 2701 2644 2617 2601 2566 2610 2685 2715 2626 2655 2623 2641 2639 2675 2588 2533 2637 2565 2725 2637 2666 2659 2678 2586 2545 2710 2773 2610 2665 2681 2560 2560 2656 2607 2620 2605 2548 2656 2648 2622 2588 2624 2620 2538 2665 2527 2619 2672 2592 2648 2606 2682 2634 2614 2663 2571 2517 2651 2544 2582 2609 2577 2629 2600 2543 2580 2541 2631 2701 2655 2629 2625 2648 2604 2643 2584 2627 2592 2689 2632 2670 2561 2643 2573 2600 2652 2586 2657 2592 2501 2651 2669 2635 2615 2595 2675 2656 2668 2638 2689 2642 2583 2549 2591 2596 2605 2578 2542 2513 2653 2647 2659 2546 2668 2714 2587 2660 2642 2609 2573 2551 2707 2628 2597 2700 2701 2646 2667 2668 2551 2667 2560 2667 2633 2612 2584 2575 2615 2771 2633 2685 2595 2566 2580 2628 2640 2600 2644 2610 2687 2572 2643 2620 2600 2609 2549 2675 2635 2670 2548 2613 2560 2572 2654 2684 2599 2589 2749 2619 2650 2621 2615 2668 2601 2666 2524 2621 2639 2592 2627 2636 2522 2629 2725 2690 2582 2527 2602 2596 2693 2579 2585 2574 2667 2592 2579 2684 2697 2580 2628 2625 2561 2620 2680 2631 2554 2626 2490 2535 2642 2724 2673 2568 2694 2577 2678 2623 2569 2528 2634 2565 2612 2685 2585 2627 2537 2617 2655 2562 2506 2574 2552 2725 2654 2624 2567 2709 2692 2565 2607 2606 2668 2680 2583 2629 2569 2477 2580 2636 2710 2530 2578 2580 2548 2604 2643 2651 2604 2586 2570 2569 2637 2586 2535 2525 2517 2579 2622 2501 2615 2562 2573 2521 2505 2573 2642 2677 2519 2630 2565 2564 2446 2511 2444 2461 2533 2620 2501 2469 2443 2452 2457 2402 2442 2483 2412 2405 2511 2464 2431 2439 2476 2466 2469 2387 2358 2330 2331 2284 2353 2292 2412 2360 2372 2337 2424 2341 2366 2359 2378 2299 2304 2357 2397 2250 2342 2356 2263 2410 2263 2317 2340 2334 2207 2227 2296 2277 2290 2180 2241 2217 2208 2222 2325 2245 2254 2221 2228 2248 2366 2189 2220 2277 2258 2172 2228 2109 2186 2267 2185 2197 2276 2131 2198 2102 2254 2259 2100 2197 2183 2214 2110 2162 2103 2224 2074 2168 2104 2199 2143 2137 2131 2138 2100 2077 2042 2061 2098 2169 2041 2159 2143 2075 2167 2100 2113 2068 2100 2081 2150 2087 2026 2115 2026 2053 2058 2035 2093 2107 2060 2013 2076 2174 2055 2062 2047 1985 2067 1982 2104 2019 2120 2060 2057 2076 2070 2098 2100 2008 2073 2014 2069 2074 2076 2127 2077 2131 2132 1988 2025 1976 2003 2006 2004 2054 1893 2076 2024 1996 2066 2043 1980 2056 1938 2073 2050 2030 2005 2023 2071 1972 2033 2067 1993 2074 1912 2047 1994 2005 2010 1983 1979 2057 2025 2061 2009 1971 2000 2080 1973 1935 2055 2021 2014 2134 1997 1936 2018 1961 2063 2098 2034 2005 2034 2030 2009 2043 2082 2074 2019 2034 1964 2006 1972 2032 2041 1943 2113 1970 2060 2033 1852 2013 1983 1970 2071 2039 1998 2041 1955 2045 2093 2025 1987 2045 2016 2013 1992 2085 2071 2040 2018 1988 2012 2046 2103 1943 2141 2003 1973 2078 2038 2029 2120 1966 2073 2097 2014 2080 2075 2063 2079 2015 2117 2080 2035 2070 1943 2020 2088 2050 1959 1964 2148 2086 2008 2034 2089 2102 2061 2027 2034 2112 2034 2066 2078 2092 2100 2014 2026 2034 1982 2027 1942 1939 2091 2080 2054 2076 1995 2053 2053 2089 2042 1988 1953 2021 2061 2125 2033 1987 2070 2049 1971 1968 2005 1975 2032 2053 2031 1997 2053 2050 2033 2065 2034 2031 2019 1903 1949 1918 1972 1911 1995 1952 1972 2016 2078 2027 2007 1949 2025 2041 1993 1939 2022 2031 1921 1948 2038 1948 1988 2001 2000 1985 2018 2000 1964 1938 1936 1902 1841 1896 1948 1861 1902 1937 1942 1911 1947 1961 1959 1799 1904 1848 1953 1909 1999 1969 1924 1893 1843 1858 1945 1972 1879 1940 1837 1928 1932 1932 1940 1790 1831 1860 1952 1867 1834 1877 1873 1836 1863 1910 1823 1857 1869 1908 1844 1846 1789 1929 1948 1770 1868 1932 1808 1815 1855 1837 1849 1823 1822 1813 1838 1834 1836 1870 1826 1772 1835 1776 1897 1817 1937 1858 1820 1947 1921 1914 1929 1999 1996 2056 2105 2205 2140 2244 2322 2432 2390 2466 2465 2533 2644 2651 2626 2731 2715 2758 2716 2729 2613 2684 2635 2573 2523 2467 2444 2499 2363 2291 2310 2261 2253 2184 2038 2015 2015 2096 1972 1918 1893 1948 1812 1904 1844 1848 1781 1846 1779 1812 1762 1838 1834 1794 1754 1757 1805 1825 1748 1812 1786 1801 1744 1757 1729 1751 1780 1730 1751 1735 1723 1720 1773 1700 1647 1669 1681 1777 1700 1707 1688 1648 1690 1719 1666 1720 1625 1654 1681 1653 1640 1659 1661 1633 1684 1697 1689 1692 1667 1725 1675 1649 1726 1696 1710 1725 1640 1726 1716 1784 1781 1833 1799 1843 1915 1840 1932 2046 2130 2256 2353 2522 2508 2677 2867 2976 3093 3104 3306 3355 3546 3612 3739 3612 3786 3641 3678 3630 3580 3532 3434 3420 3292 3150 3043 3041 2858 2685 2641 2628 2560 2468 2394 2336 2203 2203 2214 2067 2066 2041 2034 2011 1968 1978 1869 1819 1799 1871 1800 1773 1749 1806 1748 1703 1742 1692 1754 1709 1686 1770 1726 1753 1653 1635 1687 1653 1686 1638 1669 1635 1589 1612 1532 1632 1605 1603 1584 1493 1618 1522 1606 1496 1496 1560 1517 1540 1541 1484 1515 1544 1553 1534 1570 1591 1516 1511 1507 1469 1459 1491 1543 1523 1532 1570 1549 1523 1505 1526 1520 1484 1415 1459 1491 1511 1461 1514 1439 1457 1409 1488 1481 1477 1505 1486 1364 1439 1497 1500 1530 1466 1434 1454 1413 1424 1400 1440 1451 1384 1437 1422 1384 1442 1462 1546 1528 1434 1488 1496 1492 1490 1414 1506 1418 1420 1433 1479 1413 1460 1433 1500 1465 1417 1438 1500 1511 1389 1457 1529 1430 1477 1508 1532 1478 1534 1569 1571 1629 1600 1726 1749 1787 1836 1920 2067 2148 2283 2330 2558 2562 2691 2961 2980 3077 3146 3151 3313 3258 3393 3345 3327 3350 3466 3345 3261 3179 3165 2970 2900 2851 2819 2661 2658 2538 2587 2287 2289 2268 2134 2044 2011 2058 1957 1862 1798 1766 1791 1741 1779 1713 1718 1591 1676 1644 1712 1643 1630 1609 1598 1687 1639 1551 1623 1670 1644 1668 1615 1593 1723 1618 1593 1658 1551 1668 1633 1558 1557 1604 1540 1553 1538 1461 1519 1495 1544 1461 1365 1459 1411 1375 1419 1369 1348 1435 1399 1398 1363 1350 1307 1413 1388 1319 1292 1357 1397 1370 1322 1354 1296 1300 1376 1349 1350 1305 1355 1303 1358 1305 1335 1280 1355 1283 1270 1317 1319 1388 1349 1301 1366 1334 1307 1333 1353 1273 1320 1311 1315 1330 1273 1271 1360 1304 1342 1276 1234 1285 1298 1287 1368 1255 1269 1329 1310 1337 1254 1275 1375 1311 1319 1330 1342 1366 1344 1376 1328 1379 1342 1334 1352 1409 1330 1328 1407 1360 1314 1335 1351 1374 1360 1368 1339 1297 1343 1347 1340 1347 1342 1375 1450 1370 1399 1382 1347 1429 1255 1354 1318 1369 1287 1349 1393 1357 1477 1335 1412 1378 1387 1374 1429 1307 1460 1438 1421 1489 1442 1443 1404 1528 1486 1514 1487 1564 1516 1538 1591 1671 1636 1612 1676 1688 1716 1771 1726 1821 1846 1855 1792 1890 1920 1971 2005 2111 2154 2211 2279 2320 2447 2556 2699 2921 3121 3370 3662 3845 4365 4577 5064 5500 5993 6272 6689 6767 7110 7241 7393 7420 7526 7318 7293 7199 7066 6948 6535 6206 6025 5710 5433 5120 4743 4486 4218 3961 3678 3476 3370 3192 2991 2854 2688 2586 2479 2280 2324 2182 2176 2186 2070 2089 1965 1994 1956 1936 1970 1973 1934 1924 1809 1752 1800 1842 1793 1802 1792 1790 1736 1735 1815 1611 1618 1577 1615 1583 1613 1604 1544 1515 1551 1450 1456 1425 1380 1448 1382 1365 1342 1350 1402 1404 1445 1397 1362 1358 1381 1317 1302 1276 1280 1301 1240 1307 1323 1289 1312 1214 1332 1262 1317 1262 1293 1315 1324 1250 1263 1341 1320 1275 1289 1303 1264 1317 1264 1235 1304 1186 1303 1233 1220 1284 1296 1269 1262 1292 1267 1245 1272 1248 1247 1276 1302 1200 1304 1255 1299 1295 1263 1279 1296 1224 1211 1284 1280 1171 1228 1216 1225 1269 1172 1278 1179 1145 1156 1239 1188 1288 1244 1247 1227 1214 1302 1246 1215 1307 1246 1285 1165 1257 1207 1190 1217 1195 1149 1211 1253 1192 1220 1214 1249 1196 1244 1279 1209 1236 1173 1294 1257 1189 1295 1271 1253 1283 1237 1253 1193 1215 1227 1309 1250 1202 1208 1211 1140 1286 1196 1186 1188 1207 1252 1227 1156 1220 1218 1206 1199 1230 1143 1256 1227 1201 1290 1237 1190 1312 1221 1239 1201 1210 1277 1255 1145 1236 1215 1171 1234 1229 1170 1245 1172 1237 1261 1153 1256 1190 1238 1172 1228 1242 1195 1273 1211 1263 1150 1215 1162 1206 1231 1225 1144 1183 1135 1205 1177 1161 1180 1122 1225 1171 1163 1240 1172 1221 1140 1218 1265 1139 1228 1186 1196 1204 1215 1205 1181 1227 1216 1188 1174 1176 1224 1229 1181 1213 1240 1242 1228 1186 1200 1192 1247 1238 1234 1244 1309 1276 1256 1156 1237 1240 1217 1198 1179 1142 1202 1186 1168 1232 1198 1130 1184 1221 1191 1172 1202 1105 1178 1151 1112 1174 1179 1154 1207 1112 1122 1145 1119 1118 1180 1139 1165 1090 1118 1128 1205 1099 1227 1068 1124 1157 1079 1192 1151 1204 1133 1156 1122 1077 1132 1146 1140 1127 1149 1215 1166 1152 1112 1186 1095 1114 1126 1130 1168 1073 1137 1082 1090 1153 1154 1125 1096 1138 1162 1140 1127 1095 1140 1090 1127 1111 1116 1152 1127 1198 1179 1134 1130 1132 1079 1111 1077 1091 1047 1060 1084 1061 1080 1102 1059 1127 1044 1120 1154 1063 1076 1084 1152 1054 1071 1097 1124 1102 1142 1178 1104 1100 1097 1091 1142 1121 1158 1088 1086 1083 1129 1099 1147 1066 1101 1018 1061 1057 1081 1091 1060 1134 1105 1118 1134 1036 1102 1002 1027 1059 1092 1063 1100 1048 1083 1070 994 1056 1095 998 1092 1090 1160 1076 1102 1149 1126 1078 1084 1021 1038 1060 1106 1102 1059 1048 1013 1037 986 1028 1089 1097 1135 1053 1059 1091 1095 1090 1115 1061 1074 1113 1103 1093 1080 1041 1127 1049 1090 1067 1080 1069 1114 1027 1054 1075 993 1110 1038 1107 1073 1152 1071 1142 1092 1085 1060 1099 1104 1076 1075 1084 1055 1102 1068 1101 1091 1043 1106 1089 1080 1015 1089 1118 1051 1074 1046 1076 1119 1109 1014 1017 1024 1036 1015 1007 1020 1091 1081 1095 1121 1024 1136 1012 1077 1007 1084 1071 1066 1094 1058 1034 992 1032 1061 1082 1043 1032 1072 984 1080 1056 1079 1072 1042 1084 1082 1101 1065 1096 1131 1056 1033 1090 1089 1074 1092 1047 1025 1075 1064 1028 1073 1112 1040 1049 1087 1054 1081 1105 1014 1073 1050 1135 1124 1174 1113 1097 1150 1131 1165 1140 1179 1123 1212 1173 1268 1231 1212 1281 1323 1366 1383 1431 1495 1503 1584 1670 1731 1778 1808 1920 1917 1943 1971 2015 2018 2037 2065 2167 2086 2191 2074 2046 2006 2094 1984 1960 1993 1914 1907 1817 1792 1759 1808 1621 1664 1513 1538 1551 1571 1450 1435 1407 1372 1383 1386 1349 1239 1312 1241 1322 1236 1273 1261 1239 1194 1324 1200 1195 1106 1134 1180 1169 1181 1095 1197 1169 1141 1126 1158 1133 1094 1148 1108 1186 1154 1053 1095 1076 1122 1079 1097 1098 1038 1112 1026 1089 1051 1044 1104 1078 1121 1050 1056 1098 1030 1004 1057 1036 1029 1019 1003 1033 1014 1034 1047 1065 1009 1021 1106 1093 1025 1031 1037 1034 1054 1027 1004 1097 1035 1019 1038 994 1007 1050 1045 1004 980 1025 1064 1073 1056 1055 1015 981 1099 1051 1023 973 1045 1072 1075 1089 1068 1016 1052 1021 1059 1124 1063 1060 999 1002 1017 1040 1053 1029 1024 1033 1095 1050 1008 1084 1065 1063 1056 1073 1051 1054 1101 1076 1121 1119 1111 1070 1125 1131 1130 1148 1183 1134 1131 1208 1139 1165 1169 1079 1091 1112 1087 1127 1087 1067 1071 1070 1069 1083 1065 1115 1055 1050 1000 1095 1070 1053 1092 1080 1038 1062 1019 1054 1050 1070 964 1019 983 1086 989 1038 1034 1036 988 1011 1054 1073 994 1001 1068 1062 1058 982 1013 1032 1029 1060 1044 1068 1053 1050 1076 1009 981 1045 1043 1051 1018 1006 972 999 1061 1012 1059 1028 1046 1015 1059 1005 1125 1024 1078 1074 1046 1000 1026 991 1047 1031 1039 972 971 994 1060 1019 991 945 1024 985 1057 1008 995 1020 1046 1068 1010 1036 999 1072 983 1078 1017 1029 1004 1054 1102 980 1012 1019 1015 1032 1092 1083 1051 1047 1076 1136 1082 1080 1105 1073 1100 1067 1149 1096 1083 1099 1096 1113 1060 1139 1078 1085 1203 1027 1066 1050 1107 1070 1120 1045 1080 1092 1064 1038 1089 1016 1005 1014 1062 1086 1079 993 1048 1077 1056 1057 1064 1066 1089 1131 1119 1097 1074 1179 1178 1235 1247 1303 1369 1358 1441 1502 1443 1489 1551 1575 1562 1571 1667 1496 1559 1538 1509 1596 1475 1485 1438 1439 1394 1411 1374 1378 1343 1289 1241 1247 1204 1287 1124 1193 1167 1178 1114 1122 1093 1123 1039 1064 1067 1040 1055 1054 1026 1068 1016 1034 1107 1052 963 1029 1062 1033 1090 989 1048 1026 987 1066 1004 1028 1050 939 985 972 994 964 1046 1008 1016 989 1044 965 985 1010 1020 987 1018 949 971 958 949 1002 926 984 971 971 980 1042 1012 952 1012 967 1001 1016 954 959 960 1037 1007 971 978 983 955 940 937 976 1003 984 1014 978 1032 983 972 1017 1023 996 972 983 1033 1031 1041 955 979 943 935 995 923 999 951 992 1010 974 976 974 932 1005 923 982 995 1017 974 993 954 987 1060 958 1024 970 884 950 943 966 966 1031 951 966 1007 964 992 955 963 972 1040 949 982 945 991 962 960 972 999 903 951 992 928 949 934 1015 963 1004 918 951 991 919 949 983 992 978 902 989 938 936 920 906 891 966 982 989 888 940 955 968 914 959 891 917 970 961 887 989 977 881 1024 907 958 886 996 897 928 947 947 1011 883 987 984 960 1042 968 963 965 964 929 952 1051 1019 953 987 978 988 939 936 969 943 958 974 890 987 967 943 954 951 997 985 1001 978 982 965 970 925 963 997 1067 929 1017 972 957 1013 962 954 1007 930 965 988 987 936 958 988 925 952 964 932 976 923 990 995 974 920 948 945 1003 974 981 1031 940 962 1028 986 971 862 1023 985 1004 966 1061 989 955 1003 1017 1012 1016 1021 961 999 1030 1019 1018 1017 1012 1029 1032 972 1055 996 1005 1028 994 1007 1037 1059 1036 1051 1021 973 1064 1018 1013 1062 1016 1049 1009 1061 1069 1059 1077 1091 1109 997 1101 1116 1108 1073 1141 1085 1138 1133 1196 1178 1178 1208 1212 1206 1241 1272 1264 1351 1375 1404 1500 1490 1568 1598 1694 1696 1793 1814 1831 1882 1944 2029 2146 2309 2371 2448 2657 2701 3016 3299 3308 3610 3829 3987 4066 4254 4286 4369 4449 4441 4300 4216 4399 4215 4143 4120 3916 3786 3734 3574 3347 3293 3119 2944 2914 2595 2588 2396 2283 2303 1997 2008 1893 1847 1809 1707 1587 1577 1545 1474 1426 1396 1475 1368 1385 1388 1373 1295 1322 1291 1319 1248 1247 1292 1197 1217 1210 1238 1149 1170 1113 1135 1181 1130 1103 1056 1028 1078 1094 1027 1117 976 1023 986 988 1077 1003 999 1011 1005 1031 1008 1001 968 997 1009 950 985 971 1010 982 978 1026 928 920 987 976 973 991 983 967 998 959 992 929 897 982 969 955 938 976 903 1019 969 991 968 983 970 996 896 1018 1029 977 959 957 1012 1005 976 943 995 953 914 938 979 984 965 977 980 987 998 890 907 961 932 935 907 1004 923 960 972 928 981 907 980 881 961 937 934 900 966 980 905 988 917 956 942 940 947 960 944 922 913 945 926 967 927 957 963 872 925 978 951 969 924 996 954 968 969 906 940 944 942 979 977 970 986 879 1010 961 944 930 972 1004 962 991 944 978 1026 976 985 883 985 980 1012 936 1059 1023 1081 1106 1120 1161 1185 1164 1176 1209 1223 1249 1288 1232 1263 1160 1218 1271 1299 1223 1256 1218 1160 1158 1240 1192 1169 1071 1171 1100 1125 1170 1095 1082 1033 1033 1022 1028 971 1050 938 1019 1025 953 989 960 970 983 908 938 913 1000 1005 973 901 1006 932 1010 925 916 929 926 965 909 898 892 999 879 932 966 866 893 888 846 869 909 906 925 925 915 885 908 885 934 916 952 960 887 923 954 935 860 921 916 899 931 922 891 926 892 910 892 921 894 851 929 906 881 900 873 922 851 914 898 874 932 881 854 910 879 919 920 904 890 871 908 948 886 860 891 952 887 946 887 895 887 873 920 935 874 915 937 985 970 965 1016 980 952 970 961 950 969 941 947 984 1038 960 981 901 971 935 992 1017 946 948 954 873 917 962 956 889 939 938 937 915 921 934 936 873 913 894 908 939 899 867 876 878 915 896 877 893 888 868 899 906 930 895 898 844 871 891 903 870 862 885 897 875 967 881 911 944 915 932 921 941 965 901 958 1005 902 922 1000 975 944 977 983 980 909 984 1032 994 1062 1000 1065 1005 1062 1062 1054 998 1029 1055 1023 1044 964 1034 962 1004 996 993 960 913 993 990 873 954 928 989 961 925 942 929 940 873 924 924 892 891 913 872 915 910 835 865 918 909 842 869 865 873 947 857 884 854 865 849 846 912 862 895 890 868 892 872 818 850 824 851 865 898 900 878 815 831 848 903 808 877 810 891 819 891 860 853 885 845 855 834 849 846 823 853 768 814 850 888 856 841 863 779 890 828 828 865 816 857 845 869 835 840 787 841 829 799 788 858 880 846 869 826 845 790 800 851 849 792 875 889 895 881 871 832 828 826 819 827 855 799 852 834 788 836 816 828 810 845 877 817 835 813 838 841 846 834 799 789 767 801 789 790 888 769 856 824 834 836 802 826 896 791 866 774 790 863 845 853 860 844 806 802 832 865 892 802 790 807 789 813 808 817 842 831 858 892 829 863 797 820 764 841 838 803 783 805 830 829 822 827 873 825 838 832 788 807 857 815 831 845 789 845 835 833 837 788 852 814 814 892 843 819 778 843 819 856 772 796 859 811 858 821 817 838 800 767 814 835 837 848 862 814 838 805 808 796 832 853 818 795 829 818 811 810 824 854 800 807 838 810 825 765 842 833 795 742 833 817 844 820 818 849 855 813 856 769 795 824 863 839 797 843 824 845 847 843 848 797 821 780 864 795 798 807 808 787 847 810 792 814 807 809 796 819 819 810 770 810 862 849 812 849 850 863 853 853 841 820 828 813 860 839 885 864 840 928 832 863 876 862 834 893 909 874 870 906 857 847 884 885 873 946 883 857 903 926 849 897 819 906 836 870 820 804 860 860 819 839 825 847 818 833 821 837 889 813 864 826 866 837 843 870 859 816 911 815 783 869 822 827 938 886 860 854 918 921 921 941 982 982 990 1041 1030 1021 1138 1059 1111 1144 1121 1114 1183 1210 1232 1242 1178 1200 1218 1179 1154 1179 1116 1181 1101 1147 1164 1138 1117 1071 1046 1034 971 966 1020 983 961 924 863 859 960 874 872 953 883 884 886 887 850 851 870 886 885 869 806 866 825 742 863 873 750 865 819 863 882 830 861 837 850 803 840 789 845 851 828 881 845 824 854 804 776 808 824 815 832 832 832 794 880 867 847 813 851 770 882 898 851 850 882 903 834 927 870 941 918 888 882 919 930 860 905 953 902 985 905 901 942 919 942 898 894 914 884 899 902 913 888 840 869 879 852 917 820 858 887 911 853 903 864 844 817 820 839 825 882 904 811 877 816 851 883 794 839 801 816 828 820 790 872 851 788 790 845 788 871 821 836 831 811 796 797 783 842 795 831 811 863 794 815 792 798 749 818 802 815 834 821 745 803 773 750 778 750 726 810 793 794 816 819 775 799 778 770 806 782 814 774 820 821 829 760 810 780 792 734 810 759 798 807 815 755 843 795 776 816 844 815 793 802 765 835 781 786 848 790 800 764 832 815 817 808 857 850 816 776 779 809 851 854 830 866 796 831 838 826 842 857 887 932 940 943 957 974 1019 1073 1074 1110 1141 1252 1312 1263 1361 1388 1473 1484 1464 1523 1461 1472 1529 1450 1435 1398 1398 1355 1332 1430 1342 1317 1351 1278 1252 1351 1258 1229 1133 1181 1154 1090 1009 1066 1052 1049 1020 984 972 975 919 949 907 942 890 891 877 888 885 858 884 862 922 874 892 871 824 790 861 833 830 846 820 864 851 861 866 806 848 914 831 875 836 836 865 860 851 832 790 877 849 865 806 799 841 816 816 837 764 841 756 857 840 793 801 777 800 766 791 789 787 837 815 778 766 776 781 795 775 797 778 790 782 836 750 741 792 782 767 839 784 747 794 825 733 749 776 790 777 790 752 739 757 769 768 771 745 733 757 760 756 757 753 796 774 788 775 783 760 805 780 739 802 781 847 733 755 782 754 793 738 773 786 773 757 792 809 793 728 726 787 812 742 751 768 723 832 738 823 755 791 789 758 795 732 820 754 805 799 835 862 831 874 856 929 891 902 882 886 921 893 873 925 929 874 936 842 869 861 908 892 901 867 869 848 845 850 900 875 871 811 766 832 884 797 824 841 846 821 786 846 789 801 831 803 781 776 785 811 725 831 761 814 786 792 766 723 769 777 777 802 741 766 821 819 766 778 772 780 775 794 750 723 765 759 711 735 716 728 758 746 731 717 732 746 738 763 770 737 777 714 788 714 785 774 808 791 772 755 747 743 724 735 761 718 777 771 802 747 751 752 763 792 788 767 746 822 744 751 756 745 754 782 759 752 742 728 731 670 728 715 759 711 699 785 740 742 712 714 710 782 705 762 762 772 739 730 756 729 758 733 721 734 721 745 763 712 731 719 718 718 812 729 750 732 813 715 749 726 748 719 769 764 772 691 708 753 763 718 697 760 723 695 739 736 732 685 735 714 709 757 711 748 729 746 747 739 693 750 749 808 771 766 771 772 716 734 762 772 781 770 756 770 752 711 764 759 796 752 746 769 647 826 828 802 740 821 803 821 850 858 720 765 841 821 809 860 852 874 877 849 888 862 858 826 865 806 848 789 842 862 838 829 827 784 818 847 780 817 771 772 770 800 781 852 799 803 792 781 775 709 767 826 765 718 759 752 739 758 733 773 745 776 767 701 747 778 764 739 740 835 756 740 754 753 743 736 794 732 782 777 750 734 747 754 754 742 712 762 742 763 760 741 699 736 711 679 663 736 750 714 746 724 768 719 738 759 775 694 725 743 739 781 734 732 729 747 779 752 737 729 722 714 722 742 708 738 741 753 706 789 695 726 749 759 708 723 730 690 764 677 728 764 725 735 726 706 682 709 750 801 741 708 730 709 694 772 751 738 728 716 692 755 781 702 730 763 731 714 723 705 731 720 726 690 717 734 699 695 698 754 723 715 738 729 783 730 735 678 718 768 693 738 756 702 786 709 705 726 760 736 731 720 696 772 745 739 690 756 671 753 749 773 686 743 709 739 695 724 771 778 738 815 715 755 785 754 783 730 728 791 721 810 737 729 744 718 749 756 773 774 771 729 702 759 726 745 746 745 729 749 695 703 693 710 764 705 736 710 722 704 712 751 738 746 693 727 748 735 759 713 733 724 757 727 740 745 708 732 760 818 775 779 847 792 763 794 754 776 828 811 829 802 787 780 812 824 781 807 839 828 788 783 762 774 785 803 796 697 754 719 729 784 768 744 753 831 787 760 772 746 768 731 736 740 725 734 771 758 715 730 695 742 737 732 710 775 706 723 729 730 752 768 749 649 703 709 653 679 665 700 714 662 718 725 723 737 730 708 741 700 711 787 728 752 746 676 693 698 726 742 750 691 672 730 712 691 727 716 746 688 746 760 690 706 650 756 668 748 673 739 780 713 701 738 697 673 749 693 710 716 721 674 692 714 718 724 702 682 719 738 701 693 681 708 694 690 733 749 722 691 718 672 714 699 743 696 671 723 782 672 673 697 713 661 683 693 664 760 661 691 717 706 717 755 678 688 702 676 729 734 695 758 768 666 799 706 696 670 687 722 645 697 649 689 635 723 715 709 680 705 698 682 674 698 676 686 751 693 783 663 698 696 698 723 717 709 681 734 672 724 719 717 732 697 713 729 692 695 721 716 722 704 697 714 645 720 709 677 668 693 696 779 724 731 679 727 777 727 711 688 704 692 727 703 638 741 692 684 697 702 808 718 717 726 707 723 698 716 705 694 743 678 695 679 717 762 698 780 712 714 711 703 684 723 728 732 782 762 711 746 722 748 763 737 748 755 695 703 733 749 713 719 795 792 735 768 807 878 872 827 890 883 890 891 968 943 995 891 1016 986 938 971 963 977 1013 907 864 954 932 884 901 932 891 912 900 816 926 898 779 833 847 851 839 857 883 745 781 775 786 781 773 819 801 796 781 786 732 763 741 813 717 717 676 707 646 711 738 748 740 686 659 719 712 686 710 706 700 708 669 680 725 717 718 683 684 662 752 684 708 719 723 707 699 697 661 633 697 694 697 670 660 681 703 731 706 688 715 667 666 701 680 694 663 721 746 712 693 688 728 661 679 638 679 666 694 704 650 704 693 695 753 663 677 719 727 680 669 710 760 725 747 734 701 700 728 682 724 679 702 728 695 730 699 686 692 769 698 726 724 707 684 717 696 705 694 692 685 693 761 667 707 726 697 702 686 708 737 705 684 708 674 654 673 706 679 691 680 697 713 719 726 703 722 684 666 702 738 718 645 755 716 701 726 735 626 769 696 717 681 708 670 665 695 655 670 674 682 707 699 710 731 664 702 684 694 704 704 674 678 681 694 716 665 709 697 741 718 726 716 719 691 671 712 696 728 709 690 707 735 718 672 644 683 672 696 656 702 699 689 714 688 733 691 729 647 696 701 697 643 734 690 711 697 716 692 695 659 633 630 644 727 647 718 741 730 649 722 682 692 747 668 669 676 682 672 673 738 686 719 686 725 699 672 694 719 686 737 711 706 698 697 715 679 641 709 745 652 671 700 694 696 707 647 658 679 627 697 642 671 674 714 686 695 652 687 674 779 666 691 717 689 715 714 704 736 671 719 659 742 715 650 720 700 715 718 697 661 691 720 717 709 699 750 724 749 733 787 702 735 735 724 694 726 802 694 781 688 721 707 727 730 678 709 741 710 714 685 724 647 732 716 712 731 710 695 720 710 706 709 701 722 676 721 719 685 762 651 712 705 708 716 733 684 664 717 696 663 713 634 687 730 677 695 688 720 669 683 676 686 681 696 679 707 716 671 711 705 685 666 660 703 734 646 664 721 653 634 639 706 699 679 670 693 690 675 667 711 683 672 676 690 642 660 701 698 700 678 677 657 672 698 698 705 658 714 720 659 742 655 709 684 651 673 630 660 690 675 712 701 670 691 740 683 702 664 711 677 707 693 647 707 707 633 682 674 670 662 704 675 652 685 746 683 720 672 709 649 680 704 634 639 677 658 678 667 665 680 629 730 675 701 678 621 680 663 721 718 684 703 691 701 672 640 713 668 679 661 725 695 707 691 669 681 648 674 613 662 663 674 691 679 712 681 660 689 704 670 727 673 736 671 699 690 646 677 705 712 658 663 672 723 710 666 711 700 701 667 666 691 698 723 682 693 598 673 681 704 695 677 682 707 647 794 708 622 685 715 670 691 695 681 703 699 693 708 715 730 701 698 713 713 686 696 648 708 672 650 632 679 680 692 704 674 707 611 697 719 687 702 658 703 726 693 699 700 673 715 636 694 684 779 706 729 704 734 694 741 695 778 699 762 718 731 752 737 709 732 801 704 729 690 709 712 720 739 693 725 710 727 738 756 739 705 818 721 710 748 645 733 686 681 757 752 755 707 745 765 743 725 757 741 702 740 731 717 710 744 695 719 760 721 745 790 779 774 789 802 811 840 765 824 782 784 765 778 772 804 776 793 824 770 791 752 765 737 737 752 760 753 733 771 739 781 743 758 721 771 747 734 751 771 722 695 704 733 736 707 739 698 702 750 756 680 719 762 715 708 707 770 722 707 715 691 727 707 756 759 742 782 695 734 728 781 745 687 755 740 753 737 735 676 755 690 719 738 703 688 738 738 781 739 763 765 762 728 718 721 734 737 739 732 720 713 733 710 771 695 666 759 713 727 713 773 690 748 741 729 730 723 681 727 709 759 706 690 741 704 705 689 735 720 733 732 720 705 735 714 729 640 678 677 668 702 701 715 732 687 677 744 708 688 649 705 666 719 761 760 674 706 683 703 780 691 694 724 714 752 681 674 679 721 690 672 683 730 710 710 693 731 671 725 695 686 742 707 737 707 685 677 724 765 751 747 743 711 775 701 746 708 739 706 684 737 756 742 735 761 734 786 759 738 771 787 763 745 724 801 832 829 840 842 843 845 847 851 868 926 889 990 925 967 1055 1055 1056 1093 1070 1093 1189 1201 1255 1237 1224 1285 1241 1169 1247 1257 1124 1217 1098 1249 1177 1152 1091 1145 1179 1221 1028 1119 1138 1098 1112 1147 1096 1091 1095 988 1039 1015 1077 1011 1041 1031 1000 921 980 979 942 925 921 888 921 849 881 900 844 837 860 868 835 757 836 806 825 749 781 804 791 839 784 819 816 756 792 771 742 782 749 766 772 710 758 679 722 757 763 749 724 696 727 752 734 692 755 688 715 766 695 707 712 689 666 733 656 713 755 751 708 736 734 755 720 662 735 705 737 714 716 670 749 713 720 700 681 689 694 662 703 684 664 709 663 637 661 705 677 699 663 685 678 698 678 770 691 637 705 671 678 689 705 746 719 691 664 683 699 672 725 715 688 704 708 661 628 697 682 693 714 664 680 725 693 713 725 702 701 737 661 706 724 774 696 754 737 730 722 780 728 784 721 746 733 693 735 655 718 680 732 704 728 739 752 710 721 699 711 686 753 677 729 729 738 768 738 667 699 727 678 675 701 676 683 666 655 666 685 762 721 699 686 691 659 718 699 653 693 693 681 697 671 691 689 693 707 695 697 696 713 644 695 697 700 706 698 706 683 708 623 705 700 648 677 654 641 682 712 691 698 641 637 676 716 666 660 653 655 678 700 717 655 640 686 729 659 696 667 666 659 693 672 663 691 648 661 637 675 686 649 695 714 719 663 649 697 684 624 634 656 699 693 686 632 660 648 662 710 664 673 635 721 667 708 688 627 729 684 722 628 657 706 678 716 679 667 694 698 686 705 676 700 686 664 655 714 681 669 654 694 654 674 677 683 702 714 685 685 739 684 738 714 697 699 745 728 689 776 765 705 693 707 734 708 750 668 682 765 688 754 737 755 706 744 769 743 736 726 701 716 731 650 669 689 720 685 670 689 722 724 717 713 776 699 702 707 650 679 724 682 714 691 670 711 705 682 692 675 695 725 697 699 710 709 745 740 715 695 721 681 678 694 679 676 697 746 663 690 660 674 706 680 642 654 710 648 684 714 706 732 673 667 690 633 678 647 646 678 658 705 645 624 715 644 676 727 640 672 635 663 622 658 713 672 662 676 665 655 674 699 636 596 673 675 638 709 634 645 685 662 638 689 638 637 646 660 645 617 638 665 627 664 669 634 645 646 672 675 713 672 614 681 672 710 644 691 660 656 679 617 654 690 658 662 657 595 666 656 683 620 653 645 646 682 664 694 652 655 679 672 624 644 602 632 717 610 639 652 650 700 687 692 684 681 627 654 621 632 681 685 696 654 652 606 698 683 612 645 662 668 663 674 648 659 596 669 674 680 676 654 637 653 690 676 644 692 684 612 681 645 633 685 657 699 638 685 687 606 641 659 682 673 647 692 642 666 645 674 659 665 670 632 656 655 671 625 668 635 703 640 665 685 705 720 717 632 629 700 655 673 682 761 745 674 738 734 720 660 684 707 678 729 694 701 688 751 680 737 671 764 733 718 686 693 690 663 667 661 662 704 691 742 717 677 673 719 697 651 659 660 642 654 717 695 709 667 657 702 695 696 607 683 669 696 721 713 645 713 678 657 695 669 635 626 650 688 657 677 670 665 685 664 649 612 694 658 626 673 657 637 668 636 672 667 670 684 672 687 632 650 648 675 670 680 621 670 676 636 653 640 718 660 630 600 660 648 594 671 636 656 693 652 641 640 679 647 633 645 660 665 655 676 661 643 676 634 683 664 618 690 688 638 650 633 662 624 661 663 724 594 699 640 655 677 636 652 643 669 668 663 663 642 688 639 673 667 632 627 690 664 638 648 711 640 615 640 611 687 670 671 632 609 705 645 673 622 648 634 618 668 629 657 643 634 704 677 663 665 655 642 630 638 620 626 681 640 671 671 657 645 664 704 653 668 629 652 663 720 631 639 626 698 687 679 690 667 584 687 690 576 676 713 618 742 668 677 691 686 632 663 667 624 672 664 709 647 666 679 706 669 700 698 660 677 707 744 675 733 678 694 685 718 706 700 720 708 732 679 722 698 703 705 720 762 720 735 705 746 777 730 742 704 756 758 756 783 753 746 845 746 880 862 914 892 876 876 940 885 902 919 919 969 957 957 1026 912 1001 987 947 968 936 897 892 921 828 935 839 905 878 828 866 905 822 885 830 877 842 818 865 825 849 829 831 883 778 800 845 810 832 797 787 760 797 742 738 748 751 693 722 743 716 730 719 700 735 695 734 706 711 705 664 653 649 671 683 639 686 641 683 626 660 664 674 666 656 686 688 652 681 614 665 697 653 692 632 699 687 655 650 671 652 665 678 663 678 663 668 686 683 634 656 633 638 687 655 683 652 662 654 670 674 603 658 669 693 647 619 645 655 654 661 667 689 679 695 642 663 678 676 634 633 621 695 628 650 649 650 657 657 633 623 594 650 676 651 637 658 645 644 643 641 635 694 652 686 647 675 634 664 642 662 672 649 687 650 734 649 660 618 670 677 705 618 675 646 686 733 686 665 659 660 619 682 648 684 639 671 664 634 689 632 672 652 697 638 648 622 701 625 666 670 686 651 620 670 657 662 641 618 635 658 663 636 650 626 641 601 652 631 707 689 604 671 665 684 601 651 665 621 653 653 651 621 612 608 672 614 632 670 633 636 672 666 638 656 632 667 610 632 621 651 661 658 668 619 656 601 634 649 670 640 650 648 633 669 638 681 631 662 642 679 660 615 641 634 642 664 635 651 663 681 659 668 646 657 669 671 670 621 638 640 604 675 625 622 671 664 652 635 679 680 668 676 635 634 608 667 669 621 646 610 662 617 618 677 608 660 640 656 701 664 643 634 641 651 647 649 685 680 740 694 604 588 603 602 616 656 633 672 647 694 638 689 690 662 681 633 614 675 694 625 647 576 655 595 657 675 667 645 641 613 637 662 636 615 619 664 614 644 614 642 663 600 662 592 623 609 656 646 643 640 678 628 657 605 621 565 670 570 654 638 664 683 617 669 674 629 606 618 619 614 639 719 640 642 670 564 670 636 614 615 640 616 585 644 624 642 628 625 626 641 617 595 647 587 654 677 610 680 643 670 633 663 651 619 626 669 615 624 639 647 600 608 584 652 641 642 643 679 624 665 710 648 659 649 662 608 603 646 627 592 622 620 651 609 641 626 606 650 675 575 662 663 657 594 640 651 639 655 633 611 628 657 619 634 630 625 653 663 655 636 601 639 622 624 634 631 643 650 599 675 621 636 617 669 657 616 648 628 609 644 630 611 612 638 646 641 637 619 660 627 654 637 572 697 648 614 595 659 648 645 640 629 656 635 669 664 621 659 671 589 611 623 628 662 669 618 624 633 633 592 641 620 588 633 647 648 660 660 662 586 663 610 681 661 650 575 639 679 643 634 617 636 606 658 684 594 627 649 633 658 643 626 667 615 618 640 665 598 646 648 690 624 624 602 625 666 613 629 669 663 685 616 631 679 656 629 652 630 627 694 609 687 630 653 658 629 744 651 647 647 659 674 736 686 703 668 670 669 628 691 676 664 728 653 713 654 650 729 669 673 648 667 686 675 623 696 697 756 675 698 698 711 634 666 691 702 662 640 692 679 678 708 699 676 679 695 674 705 679 665 708 661 641 678 678 685 651 725 694 692 662 680 701 718 665 680 707 685 718 731 665 745 634 662 662 669 697 634 689 678 667 685 622 678 634 657 646 629 652 724 648 687 636 661 649 673 629 638 665 642 653 661 648 662 680 675 678 668 666 663 618 676 623 632 622 633 667 564 634 633 592 631 645 627 631 604 596 635 677 662 597 599 594 648 674 644 641 632 651 657 614 606 615 621</counts>
			</dataPoints>
		</scan>
	</xrdMeasurement>
</xrdMeasurements>
