<?xml version="1.0"?>
<xrdMeasurements xmlns="http://www.xrdml.com/XRDMeasurement/2.3" xmlns:xsi="http://www.w3.org/2001/XMLSchema-instance" xsi:schemaLocation="http://www.xrdml.com/XRDMeasurement/2.3 http://www.xrdml.com/XRDMeasurement/2.3/XRDMeasurement.xsd" status="Completed" recordIdentifier="{2B6C6FED-23C9-437D-AE6B-01D601DD7C3E}">
	<comment>
		<entry/>
	</comment>
	<sample type="To be analyzed">
		<id>GPSS_Li1p60Ni0p80V0p10Ta0p10Cl4_121325_693cb366f4d05ae3d69752be</id>
		<name></name>
		<preparedBy></preparedBy>
	</sample>
	<xrdMeasurement measurementType="Scan" status="Completed" sampleMode="Reflection">
		<usedWavelength intended="K-Alpha 1">
			<kAlpha1 unit="Angstrom">1.5405980</kAlpha1>
			<kAlpha2 unit="Angstrom">1.5444260</kAlpha2>
			<kBeta unit="Angstrom">1.3922500</kBeta>
			<ratioKAlpha2KAlpha1>0.5000</ratioKAlpha2KAlpha1>
		</usedWavelength>
		<incidentBeamPath>
			<radius unit="mm">145.00</radius>
			<xRayTube id="1010048" name="Empyrean Cu LFF HR (9430 033 7310x)">
				<tension unit="kV">40.0</tension>
				<current unit="mA">15.0</current>
				<anodeMaterial>Cu</anodeMaterial>
				<focus type="Line">
					<length unit="mm">12.0</length>
					<width unit="mm">0.4</width>
					<takeOffAngle unit="deg">6.0</takeOffAngle>
				</focus>
			</xRayTube>
			<sollerSlit id="21010002" name="Soller slits 0.04 rad.">
				<opening unit="rad">0.0400</opening>
			</sollerSlit>
			<mask id="22031000" name="Fixed mask 13 mm">
				<width unit="mm">9.00</width>
			</mask>
			<divergenceSlit id="22120001" name="Divergence slit 1°" xsi:type="fixedDivergenceSlitType">
				<distanceToSample unit="mm">50.00</distanceToSample>
				<height unit="mm">1.52</height>
			</divergenceSlit>
		</incidentBeamPath>
		<sampleMovement xsi:type="spinningSampleMovementType">
			<spinnerRevolutionTime unit="seconds">1.0</spinnerRevolutionTime>
		</sampleMovement>
		<diffractedBeamPath>
			<radius unit="mm">145.00</radius>
			<antiScatterSlit id="22090040" name="AS slit 9 mm (PIXcel)" xsi:type="fixedAntiScatterSlitType">
				<height unit="mm">9.00</height>
			</antiScatterSlit>
			<sollerSlit id="21020003" name="Large Soller slits 0.04 rad.">
				<opening unit="rad">0.0400</opening>
			</sollerSlit>
			<filter id="20030001" name="Large beta-filter Nickel">
				<material>Ni</material>
				<thickness unit="mm">0.020</thickness>
			</filter>
			<detector id="7010019" name="PIXcel1D-Medipix3 detector" xsi:type="rtmsDetectorType">
				<phd unit="keV">
					<lowerLevel>4.02</lowerLevel>
					<upperLevel>11.27</upperLevel>
				</phd>
				<mode>Scanning</mode>
				<activeLength unit="deg">5.542</activeLength>
			</detector>
		</diffractedBeamPath>
		<scan appendNumber="0" mode="Continuous" scanAxis="Gonio" status="Completed">
			<header>
				<startTimeStamp>2025-12-17T13:14:44-08:00</startTimeStamp>
				<endTimeStamp>2025-12-17T13:22:51-08:00</endTimeStamp>
				<author>
					<name>AutomatedUser</name>
				</author>
				<source>
					<applicationSoftware version="1.7b (136)">PANalytical Aeris Instrument Suite</applicationSoftware>
					<instrumentControlSoftware version="3.2.00000000 20240306">AERIS</instrumentControlSoftware>
					<instrumentID>950485</instrumentID>
				</source>
			</header>
			<dataPoints>
				<positions axis="2Theta" unit="deg">
					<startPosition>10.00943322</startPosition>
					<endPosition>99.99442286</endPosition>
				</positions>
				<positions axis="Omega" unit="deg">
					<startPosition>5.00471661</startPosition>
					<endPosition>49.99721143</endPosition>
				</positions>
				<commonCountingTime unit="seconds">12.495</commonCountingTime>
				<counts unit="counts">3175 3152 3054 3222 3207 3193 3136 3113 3134 3081 3165 3162 3207 3090 3075 3253 3058 3186 3080 3227 3175 3141 3197 3131 3130 3253 3113 3171 3175 3186 3209 3218 3183 3098 3296 3186 3220 3192 3244 3205 3136 3202 3104 3139 3089 3278 3038 3190 3199 3215 3137 3251 3288 3269 3165 3300 3181 3273 3218 3143 3224 3327 3227 3312 3133 3127 3167 3225 3279 3251 3205 3293 3207 3288 3205 3212 3144 3334 3252 3292 3264 3312 3236 3309 3317 3387 3267 3270 3268 3194 3193 3252 3281 3264 3141 3372 3367 3234 3273 3341 3200 3250 3294 3266 3261 3326 3288 3452 3182 3353 3257 3255 3262 3362 3224 3293 3326 3234 3307 3258 3310 3332 3369 3170 3256 3274 3349 3359 3204 3379 3341 3231 3241 3217 3316 3311 3238 3291 3311 3407 3371 3266 3293 3251 3391 3337 3335 3240 3393 3383 3242 3338 3349 3291 3368 3335 3257 3321 3217 3334 3455 3213 3299 3276 3307 3213 3415 3250 3329 3285 3377 3348 3316 3342 3425 3369 3341 3362 3233 3355 3331 3361 3294 3203 3344 3197 3240 3364 3335 3332 3363 3321 3215 3302 3377 3344 3389 3351 3378 3342 3280 3299 3222 3406 3221 3343 3264 3312 3224 3256 3322 3288 3279 3248 3296 3265 3226 3224 3275 3250 3274 3214 3302 3205 3227 3338 3205 3216 3232 3277 3341 3197 3231 3276 3231 3188 3196 3263 3287 3219 3240 3150 3197 3104 3250 3319 3237 3224 3189 3243 3241 3279 3169 3209 3224 3305 3199 3106 3307 3166 3172 3244 3213 3140 3222 3218 3146 3179 3162 3256 3169 3268 3295 3267 3138 3309 3188 3290 3199 3172 3274 3213 3164 3321 3130 3221 3234 3198 3198 3328 3170 3157 3243 3249 3196 3211 3307 3170 3309 3327 3219 3345 3315 3330 3208 3284 3253 3192 3355 3418 3341 3252 3299 3348 3287 3275 3296 3343 3419 3282 3422 3305 3380 3322 3293 3347 3379 3384 3281 3420 3450 3415 3376 3432 3352 3315 3396 3342 3442 3530 3449 3468 3407 3398 3371 3523 3496 3473 3531 3530 3513 3510 3418 3558 3525 3421 3511 3443 3441 3370 3500 3654 3689 3449 3575 3487 3692 3524 3563 3594 3552 3454 3512 3636 3485 3720 3611 3558 3539 3513 3585 3548 3547 3627 3654 3615 3597 3577 3606 3599 3499 3661 3534 3576 3629 3745 3457 3602 3558 3606 3653 3712 3583 3784 3684 3659 3601 3544 3714 3661 3714 3607 3608 3779 3562 3662 3758 3730 3678 3654 3563 3689 3722 3685 3701 3771 3688 3661 3625 3700 3657 3717 3803 3695 3746 3874 3779 3898 3842 3937 3807 3873 3999 4008 4029 4180 4104 4094 4126 4166 4239 4209 4217 4012 4127 4243 4179 4187 4178 4263 4354 4357 4501 4519 4591 4592 4555 4794 4649 4851 4932 5031 5201 5339 5261 5437 5624 5606 5723 5739 5688 5804 5892 5673 5818 5789 6050 6046 6076 6135 6220 6500 6373 6619 6622 6668 6564 6779 6709 6552 6695 6448 6273 6082 5892 5688 5499 5312 4982 4828 4691 4296 4290 3912 3822 3816 3630 3628 3553 3583 3457 3514 3540 3495 3267 3403 3387 3477 3350 3450 3246 3471 3345 3462 3367 3346 3302 3307 3312 3334 3393 3272 3195 3314 3198 3256 3259 3250 3310 3251 3154 3287 3150 3293 3162 3251 3189 3200 3171 3113 3123 3170 3328 3154 3191 3068 3220 3123 3138 3171 3116 3127 3230 3167 3151 3223 3139 3224 3100 3190 3011 3161 3028 3079 3129 3098 3103 3119 3114 3130 3037 2915 3141 3145 3022 3121 3138 3259 3021 2993 3126 3102 2966 3107 3020 3138 3014 3089 3013 3088 3147 3002 3114 3050 3048 3017 3070 3081 3042 3060 2919 3108 3032 3073 2991 3133 2987 3037 3118 3015 3080 3031 3025 3100 2964 2999 2973 3026 2975 3060 2972 3026 2917 3137 3055 2991 3100 3049 3012 2994 3006 3060 3080 3051 2851 3037 3067 3028 3135 3096 3082 3088 3059 3098 3078 3126 3182 3154 3150 3091 3161 3038 3144 3223 2966 3133 3141 3136 3049 3172 3167 3161 3059 3044 3060 3031 2988 2938 2995 3041 2914 3042 3024 3029 2981 2894 2960 2995 2982 2919 3025 3013 2977 2935 2922 2931 2926 2986 2960 2971 2930 2881 2912 2953 2980 2902 2932 2924 3035 2915 3024 3051 2919 2910 3007 2885 2944 2935 3003 2911 2947 2934 2877 2794 2954 2850 2905 2843 2956 2862 2983 2895 2727 2892 2869 2896 2896 2854 2806 2908 2875 2832 3022 2851 2839 2778 2903 2863 2913 2895 2846 2871 2886 2928 2869 2848 2930 2849 2942 2803 2887 2897 2988 2813 2935 2901 2895 2932 2861 2886 2913 2737 2853 2806 2805 2889 2859 2853 2805 2910 2883 2783 2933 2850 2764 2824 2841 2795 2777 2849 2848 2836 2855 2829 2721 2801 2833 2800 2884 2743 2926 2769 2790 2775 2761 2770 2694 2810 2775 2746 2833 2887 2789 2718 2821 2755 2850 2810 2792 2782 2773 2764 2791 2769 2748 2823 2851 2764 2693 2800 2724 2782 2750 2841 2741 2855 2804 2911 2700 2836 2731 2807 2720 2794 2770 2732 2772 2718 2848 2812 2639 2735 2708 2672 2755 2704 2687 2692 2660 2737 2674 2831 2596 2700 2735 2552 2695 2705 2651 2669 2685 2726 2710 2680 2712 2758 2644 2761 2718 2600 2785 2693 2668 2768 2650 2636 2754 2701 2651 2692 2662 2639 2697 2615 2644 2646 2711 2591 2654 2625 2703 2702 2625 2646 2694 2719 2740 2619 2741 2678 2481 2661 2728 2608 2751 2678 2685 2595 2542 2683 2544 2722 2679 2595 2620 2720 2589 2635 2609 2655 2608 2661 2572 2766 2595 2643 2651 2629 2645 2536 2662 2641 2571 2523 2701 2544 2564 2644 2620 2676 2647 2657 2664 2568 2595 2612 2574 2545 2565 2552 2672 2571 2549 2676 2645 2656 2622 2659 2606 2509 2603 2536 2583 2546 2520 2627 2709 2692 2495 2525 2623 2657 2646 2613 2582 2563 2537 2528 2690 2532 2681 2676 2537 2691 2549 2599 2635 2613 2543 2659 2553 2710 2493 2659 2710 2499 2718 2634 2519 2713 2551 2623 2608 2596 2545 2586 2644 2547 2538 2688 2671 2602 2691 2729 2607 2551 2633 2647 2647 2568 2596 2555 2660 2599 2720 2596 2594 2608 2715 2613 2664 2533 2643 2643 2605 2582 2578 2577 2614 2658 2593 2653 2555 2703 2612 2682 2585 2645 2490 2651 2672 2589 2554 2596 2660 2679 2594 2604 2565 2604 2656 2634 2642 2650 2586 2620 2611 2626 2608 2678 2540 2525 2533 2525 2576 2720 2548 2604 2545 2658 2567 2511 2646 2664 2579 2624 2531 2651 2599 2625 2599 2525 2631 2557 2618 2620 2552 2565 2498 2564 2650 2509 2586 2589 2566 2526 2477 2635 2552 2552 2531 2540 2638 2548 2495 2512 2478 2508 2540 2390 2534 2598 2503 2548 2520 2540 2536 2619 2600 2556 2509 2544 2530 2541 2562 2617 2580 2540 2637 2535 2561 2566 2642 2564 2563 2639 2598 2649 2591 2541 2684 2713 2623 2744 2687 2678 2695 2751 2675 2748 2664 2675 2625 2588 2630 2649 2643 2504 2689 2730 2479 2610 2631 2636 2526 2527 2513 2519 2571 2464 2507 2490 2421 2495 2432 2392 2443 2439 2517 2446 2332 2449 2409 2387 2368 2275 2272 2339 2221 2325 2295 2298 2244 2230 2243 2241 2224 2251 2115 2172 2197 2152 2181 2250 2215 2131 2183 2160 2150 2203 2192 2217 2168 2195 2095 2098 2152 2175 2111 2172 2201 2100 2116 2120 2072 2020 2056 2016 2107 2088 2090 2083 1979 2190 2049 2046 2140 2063 2109 2104 2111 1983 2111 2084 2038 2088 2006 1993 2099 1996 2001 2081 2031 2001 2060 2003 1978 2074 2021 2108 2067 2006 2046 2079 2019 1998 1929 1979 2028 2019 1963 1933 1997 2032 1937 2056 1932 1944 1982 2054 1963 2036 1954 1969 2011 2000 1959 2082 1966 1956 1962 2027 2020 1957 1969 1973 2014 1993 2018 2077 1979 2087 2044 2018 1952 2079 1996 1990 2089 2092 1976 2026 1937 2043 1950 2011 2022 2052 2029 2011 1982 1950 2021 1977 1990 1885 1981 1918 1938 1954 2038 1945 1964 1966 1858 1990 1886 1950 1967 1986 2015 1946 1980 1911 1966 1950 1934 1928 1949 1960 1931 1894 1997 1950 1963 1884 1946 1936 1936 1947 1871 1962 1915 1990 1971 1962 1881 1958 1870 1799 1920 1959 1974 1965 1923 2030 1936 1898 1887 1870 1862 1903 1870 2014 1956 1928 1892 1931 1960 1840 1935 1883 1918 1967 1959 1899 1913 2028 2008 1898 1926 1902 1895 1964 1832 1981 1915 1994 1932 1884 1930 2041 1993 1946 1927 1937 1900 1904 1939 2030 1936 1926 1970 2052 1919 1904 1890 1998 1961 1905 1995 1956 1947 1902 1953 1932 1986 1989 1945 1919 1865 2025 1914 1951 1900 1884 1956 1906 1963 1907 1870 1947 1996 1991 2032 1956 2017 1958 1921 1903 1958 1901 1966 1979 1883 1878 1981 1984 1944 1911 1985 1921 1970 1979 1931 1879 1953 1949 1879 1991 1882 1986 1927 2035 2007 2057 2012 2085 2149 2125 2014 2057 2078 2216 2204 2188 2267 2294 2382 2308 2323 2308 2263 2365 2224 2375 2387 2468 2439 2341 2465 2428 2519 2405 2563 2535 2568 2531 2483 2460 2431 2386 2320 2421 2308 2326 2237 2225 2147 2119 2086 2017 2030 1973 1877 1954 1902 1880 1911 1831 1921 1823 1818 1848 1899 1753 1795 1784 1800 1730 1768 1798 1766 1728 1751 1716 1807 1695 1693 1606 1690 1637 1655 1682 1706 1649 1694 1740 1721 1692 1707 1701 1673 1733 1678 1772 1667 1733 1606 1618 1699 1598 1595 1620 1654 1680 1573 1602 1646 1694 1656 1648 1616 1629 1698 1615 1693 1677 1580 1677 1611 1568 1688 1684 1576 1712 1700 1687 1635 1674 1613 1608 1621 1635 1634 1634 1652 1576 1602 1619 1571 1603 1688 1533 1659 1579 1630 1575 1590 1652 1592 1549 1577 1566 1610 1598 1550 1644 1646 1659 1607 1635 1614 1596 1614 1743 1665 1622 1749 1713 1752 1650 1719 1734 1742 1693 1751 1866 1810 1835 1757 1782 1825 1811 1851 1827 1886 1821 1922 1912 1923 1847 1934 1809 1869 1871 1905 1944 1891 1839 1959 1918 1900 1844 1925 1984 1941 1921 1876 1876 1879 1852 1875 1878 1844 1816 1847 1847 1881 1855 1775 1772 1758 1746 1752 1722 1679 1700 1651 1716 1651 1688 1674 1615 1663 1628 1629 1682 1580 1545 1601 1545 1578 1530 1580 1533 1538 1541 1543 1480 1446 1509 1418 1441 1467 1461 1483 1430 1428 1455 1415 1467 1449 1405 1394 1473 1433 1498 1444 1571 1379 1447 1444 1405 1365 1361 1445 1379 1399 1409 1418 1480 1369 1372 1401 1424 1373 1435 1421 1420 1462 1458 1425 1440 1533 1431 1433 1478 1470 1428 1499 1438 1425 1480 1538 1412 1537 1484 1543 1516 1535 1576 1643 1696 1697 1707 1729 1772 1851 1975 2054 2091 2384 2486 2605 2733 2879 2893 2968 3147 3125 3054 3196 3141 3157 3155 3220 3254 3228 3217 3396 3311 3374 3377 3424 3340 3364 3169 3145 3025 2941 2885 2756 2657 2611 2513 2362 2320 2261 2205 2052 2036 1944 1873 1918 1772 1735 1676 1648 1614 1516 1503 1465 1448 1453 1495 1435 1390 1398 1417 1397 1376 1423 1418 1401 1412 1363 1360 1385 1340 1341 1389 1372 1376 1296 1421 1422 1309 1340 1386 1363 1371 1343 1404 1394 1364 1329 1292 1345 1347 1336 1310 1312 1337 1364 1325 1341 1296 1275 1355 1282 1340 1337 1336 1312 1305 1298 1231 1283 1341 1359 1336 1282 1402 1224 1230 1225 1255 1329 1289 1298 1297 1304 1347 1322 1264 1304 1241 1255 1280 1230 1255 1320 1291 1274 1237 1266 1269 1301 1262 1325 1245 1315 1365 1269 1386 1278 1258 1255 1242 1271 1160 1217 1282 1256 1216 1210 1221 1251 1317 1279 1266 1242 1243 1214 1263 1224 1232 1207 1223 1191 1212 1267 1189 1206 1240 1290 1290 1278 1277 1246 1252 1147 1197 1210 1226 1284 1212 1196 1165 1297 1224 1210 1198 1207 1158 1232 1232 1190 1217 1186 1224 1235 1232 1262 1204 1185 1274 1159 1136 1228 1221 1116 1179 1204 1229 1164 1220 1267 1252 1193 1219 1173 1199 1273 1220 1185 1219 1212 1286 1223 1270 1195 1192 1286 1137 1255 1214 1261 1162 1190 1254 1200 1285 1243 1260 1179 1225 1221 1282 1254 1266 1222 1263 1297 1297 1387 1394 1405 1343 1379 1309 1396 1404 1489 1517 1417 1466 1439 1430 1467 1393 1361 1397 1378 1341 1416 1448 1445 1302 1438 1380 1365 1309 1368 1336 1387 1275 1332 1355 1305 1284 1236 1276 1296 1228 1243 1255 1246 1233 1242 1247 1322 1218 1201 1256 1174 1184 1227 1217 1229 1228 1222 1251 1199 1193 1220 1183 1274 1213 1234 1227 1178 1197 1194 1125 1197 1139 1204 1165 1206 1189 1253 1212 1262 1213 1165 1199 1173 1185 1198 1204 1265 1204 1222 1216 1218 1277 1240 1234 1143 1230 1167 1178 1196 1246 1229 1204 1165 1153 1230 1233 1197 1218 1141 1228 1167 1173 1265 1231 1241 1228 1183 1237 1168 1167 1230 1219 1200 1163 1190 1151 1201 1152 1152 1254 1207 1176 1173 1196 1126 1183 1161 1161 1194 1223 1183 1221 1191 1224 1232 1214 1205 1172 1161 1268 1189 1252 1187 1222 1160 1214 1236 1281 1231 1206 1187 1258 1243 1292 1249 1274 1177 1281 1250 1253 1216 1301 1295 1193 1288 1312 1332 1346 1335 1352 1365 1424 1417 1532 1553 1610 1666 1740 1908 1920 1940 2167 2097 2187 2298 2426 2491 2510 2568 2766 2773 2908 2913 3027 3173 3288 3239 3419 3401 3548 3452 3746 3629 3758 3747 3954 3763 3751 3675 3886 3684 3825 3494 3657 3337 3395 3102 3099 2816 2786 2609 2519 2313 2273 2090 1919 1858 1792 1566 1608 1481 1505 1464 1425 1342 1354 1298 1256 1274 1197 1246 1212 1285 1315 1205 1241 1226 1234 1233 1189 1219 1186 1219 1180 1214 1189 1247 1138 1220 1229 1158 1132 1100 1151 1189 1162 1186 1175 1163 1172 1184 1202 1199 1262 1247 1247 1154 1156 1227 1238 1250 1190 1287 1212 1274 1266 1318 1240 1288 1287 1282 1224 1293 1317 1333 1359 1362 1365 1392 1433 1484 1554 1547 1584 1666 1560 1706 1810 1835 1849 1930 1973 2035 2058 2025 2043 2117 2117 2000 1999 2019 2118 2045 2085 1983 2014 2037 1933 2032 1976 1816 1988 1912 1819 1759 1858 1743 1718 1637 1668 1510 1624 1548 1525 1471 1476 1430 1405 1369 1408 1400 1350 1331 1352 1316 1412 1324 1345 1388 1267 1394 1280 1314 1295 1376 1316 1329 1341 1243 1348 1352 1290 1323 1338 1316 1307 1302 1286 1284 1356 1237 1192 1309 1318 1285 1276 1208 1243 1246 1240 1253 1245 1226 1177 1255 1207 1159 1259 1209 1198 1164 1137 1211 1149 1129 1143 1103 1169 1128 1125 1137 1069 1150 1078 1199 1181 1140 1087 1172 1150 1145 1145 1077 1145 1059 1153 1057 1052 1122 1065 1058 1072 1095 1087 1057 1098 1029 1084 1057 1046 1113 1044 1053 1074 1051 1094 986 1028 1136 1031 1028 1079 1112 1077 1083 1090 1058 1053 1097 1046 1125 1110 1047 1046 1074 1094 1057 1038 1058 1071 1054 1079 1108 1089 1048 1069 1123 1067 1101 1096 1072 1133 1143 1125 1149 1130 1094 1125 1151 1130 1113 1112 1099 1137 1153 1132 1135 1068 1053 1102 1104 1077 1103 1071 1095 1137 1135 1143 1089 1008 1089 1092 1052 1038 1082 1000 1004 1072 1071 1047 1010 1049 1004 1075 1087 1031 1105 1036 1033 992 973 1053 973 1039 1045 1019 964 1012 1016 1000 974 1027 969 1013 1012 952 939 974 1015 983 1051 986 1023 973 968 957 998 992 940 943 970 992 979 975 949 942 965 953 1036 1009 941 952 990 992 1004 958 984 929 953 970 971 1016 970 997 961 959 995 1022 946 992 1003 1029 963 1013 943 922 923 1017 1020 988 944 932 979 976 993 998 964 951 1026 950 1015 1028 952 965 986 925 979 964 988 994 992 1024 990 1018 1000 1001 996 989 1001 1028 1093 982 940 950 1002 1006 990 1022 990 909 973 998 1015 963 956 952 944 992 981 961 992 936 959 916 1011 960 917 943 955 947 911 887 949 902 982 933 979 948 928 953 951 939 909 966 966 849 937 940 851 1033 935 932 918 957 921 881 916 909 879 938 939 922 937 918 919 904 880 861 905 880 887 875 875 832 963 873 1001 897 972 883 920 917 909 903 877 868 938 914 895 885 896 914 875 908 822 894 815 908 873 853 885 898 927 850 863 879 935 905 885 840 858 834 833 861 869 890 878 896 873 869 883 799 863 857 795 840 852 829 863 881 858 832 808 896 844 816 909 913 874 841 849 818 850 866 916 862 857 826 887 889 911 819 854 830 873 856 841 920 813 881 866 893 866 845 804 904 856 835 876 826 879 823 845 833 877 873 857 858 857 895 878 793 866 880 842 836 778 856 814 859 875 792 849 854 850 793 836 794 844 781 807 785 851 814 869 813 834 822 879 854 778 816 799 862 812 900 830 836 836 809 833 834 813 835 830 825 857 828 831 841 884 808 834 838 823 762 839 790 816 843 786 851 892 846 831 782 838 807 819 834 820 796 860 830 861 801 784 803 830 860 841 767 804 811 798 799 856 841 848 856 784 815 904 788 788 834 816 834 836 786 812 808 754 865 888 900 823 813 866 824 847 837 828 793 808 809 864 781 793 813 820 843 821 760 863 799 828 840 771 871 882 869 836 796 876 872 834 832 847 861 816 855 853 907 872 844 807 925 851 833 897 823 819 867 812 811 800 848 788 839 793 815 843 838 875 831 821 798 832 792 848 874 801 776 781 808 804 803 810 803 816 838 834 790 805 820 764 800 867 853 857 806 825 810 795 795 808 807 754 804 787 776 827 762 781 830 817 786 857 817 794 789 746 789 806 786 805 794 834 803 829 818 779 808 748 809 796 793 825 778 829 814 781 796 761 739 792 784 753 816 783 835 759 793 831 750 783 791 779 790 785 792 745 783 805 748 803 817 764 753 767 870 779 744 801 776 771 848 768 797 799 812 732 779 822 809 735 736 795 805 767 833 798 820 799 856 777 817 785 773 775 782 777 741 801 793 794 790 757 784 730 748 752 791 741 805 819 773 802 766 730 785 799 791 757 824 805 782 777 764 796 774 793 850 779 828 767 768 723 816 794 828 845 781 767 796 781 778 816 774 781 744 778 856 795 803 759 773 798 776 807 770 785 792 787 786 745 812 787 807 816 792 772 773 810 802 775 754 802 765 772 724 806 834 785 781 788 764 816 788 737 787 730 807 783 807 802 822 803 840 798 774 793 822 783 850 847 797 826 845 888 846 852 861 782 888 834 826 880 856 862 867 859 828 917 807 894 848 848 883 802 807 828 794 789 775 831 822 849 762 795 841 771 781 828 735 814 785 828 825 823 816 852 809 797 813 787 791 816 803 809 841 819 806 780 808 866 763 805 761 828 804 806 876 875 797 805 838 778 818 803 802 846 835 817 797 789 848 786 786 822 816 769 841 793 777 780 821 780 786 808 780 796 766 791 826 823 759 845 791 826 839 775 803 803 815 829 839 816 808 812 813 883 833 796 832 785 815 812 816 837 842 827 845 900 868 847 914 918 920 895 867 928 856 888 864 867 874 905 915 837 865 925 880 867 886 911 859 846 915 877 866 880 832 869 878 837 851 819 870 848 818 833 801 849 802 817 832 736 792 720 808 765 791 760 807 790 786 786 762 760 749 748 783 735 766 797 821 749 805 769 753 773 751 820 733 765 773 735 775 745 788 745 737 722 762 779 760 767 763 716 796 725 747 798 736 796 801 741 769 743 809 794 805 741 745 805 725 774 809 742 759 761 726 821 698 794 715 775 727 739 784 754 766 741 760 780 741 736 744 752 723 755 770 767 777 761 739 762 707 790 764 741 771 715 788 736 732 723 811 721 807 746 732 774 780 754 719 742 724 741 766 726 788 759 796 744 726 784 741 702 799 763 762 751 780 729 729 768 764 785 783 717 773 745 722 756 762 725 751 730 786 785 763 801 755 754 745 814 778 769 775 774 768 749 719 833 770 752 695 760 705 728 778 787 738 842 734 803 733 724 764 760 715 795 716 799 750 768 738 755 737 767 794 793 794 813 784 777 824 835 814 862 834 802 861 824 828 801 900 961 932 920 1016 1033 988 1112 1051 1066 1095 1104 1069 1069 1145 1134 1106 1146 1250 1235 1290 1255 1212 1235 1254 1233 1296 1215 1286 1320 1357 1299 1276 1287 1244 1260 1214 1200 1215 1232 1172 1152 1153 1153 1149 1075 1059 1132 1053 1016 1051 1045 915 921 988 906 902 925 844 902 886 875 848 919 881 803 856 793 858 822 815 859 778 778 738 777 842 789 773 764 742 747 804 770 773 767 762 806 786 739 805 819 785 808 771 757 711 755 725 753 719 725 742 804 683 730 765 778 732 734 781 718 757 761 713 740 767 723 776 748 787 760 763 744 687 754 776 707 762 735 724 714 749 765 777 713 715 780 745 729 710 772 700 765 700 740 740 719 738 735 706 753 778 732 765 786 756 794 756 801 748 786 802 830 780 818 798 840 807 845 838 869 901 818 850 877 883 887 911 927 894 985 933 941 938 958 982 917 892 905 919 925 960 902 966 911 884 839 901 874 930 879 888 894 799 874 808 800 856 893 839 823 814 826 874 870 890 813 917 919 908 999 1002 1012 1070 1086 1081 1091 1195 1032 1163 1170 1243 1278 1262 1229 1259 1337 1323 1327 1320 1397 1429 1482 1491 1400 1396 1386 1364 1353 1318 1312 1308 1353 1271 1305 1354 1319 1247 1214 1295 1197 1172 1151 1237 1101 1124 1037 1052 1074 1090 1034 1046 961 963 868 937 858 939 852 869 870 853 868 803 807 768 811 809 750 774 798 734 712 759 741 716 758 686 669 720 770 752 696 689 712 760 724 745 692 730 701 714 687 657 653 682 703 725 694 736 694 699 701 697 683 667 679 701 662 691 739 689 687 733 672 720 646 706 678 660 729 700 700 682 716 695 692 737 653 703 727 693 723 658 721 722 734 689 692 624 689 655 656 693 699 698 669 677 671 657 664 680 717 682 696 655 675 692 730 713 688 653 641 661 683 683 657 672 673 693 692 688 655 663 713 700 728 702 685 672 699 655 702 690 687 717 716 688 641 690 650 648 683 662 671 700 679 706 701 686 715 698 677 661 670 699 675 721 712 675 682 717 682 721 708 750 680 724 729 664 681 694 684 737 719 729 766 741 748 744 779 767 820 766 766 847 833 845 866 890 898 908 875 876 925 873 959 905 893 890 935 923 955 973 896 943 925 924 926 988 911 881 905 944 887 859 905 840 835 848 792 844 779 790 825 787 791 802 752 808 766 801 768 790 774 703 712 715 699 728 706 725 717 748 738 756 683 735 717 688 759 687 751 749 791 735 724 784 718 709 729 726 703 727 713 747 748 711 727 759 721 728 682 715 696 703 710 629 692 672 701 685 696 696 696 701 685 710 683 690 708 653 681 714 703 641 685 704 750 662 724 660 699 666 630 663 694 705 669 666 697 660 692 655 663 677 703 659 692 726 719 677 655 669 638 629 674 651 651 656 659 714 686 674 666 649 659 657 713 632 693 650 683 649 665 685 634 645 679 713 690 652 635 634 674 627 629 637 676 708 695 631 622 650 666 649 700 681 709 669 643 632 645 647 658 609 600 678 683 614 657 614 707 625 573 619 635 622 695 582 630 640 632 649 634 595 663 646 638 618 609 693 653 617 648 637 615 611 669 612 688 633 657 681 678 644 600 661 632 593 673 658 644 632 662 596 618 642 594 566 622 650 646 612 591 573 653 641 591 655 584 622 679 643 603 593 636 591 655 641 603 582 591 596 620 631 623 632 630 585 600 617 603 637 677 645 619 654 603 644 625 596 639 644 636 626 627 568 637 647 640 579 637 604 623 640 614 625 633 633 657 609 620 606 633 639 629 625 617 607 599 588 623 653 644 638 618 581 607 580 650 636 617 646 649 643 588 653 637 635 650 642 617 595 643 620 610 658 596 639 653 598 647 636 614 635 624 649 695 699 679 595 637 647 658 625 640 681 624 633 671 630 632 627 632 617 653 679 651 659 621 628 611 633 600 664 655 704 636 679 629 651 647 608 647 624 661 627 656 666 678 605 638 618 631 607 612 643 650 641 673 625 625 650 660 675 652 689 643 692 661 714 694 708 742 722 744 753 729 754 718 731 781 812 765 727 741 782 765 818 767 792 816 745 786 816 778 820 764 782 764 759 787 772 760 733 710 727 722 733 716 745 743 698 771 710 712 704 691 676 726 738 659 654 627 669 651 655 631 624 644 589 598 660 586 602 635 663 656 653 636 614 602 637 596 603 580 583 592 563 599 572 603 568 611 656 575 629 526 590 594 601 562 613 588 660 590 634 583 573 608 622 558 601 626 573 655 564 589 605 597 609 655 658 589 672 591 639 617 598 617 613 598 628 596 592 594 582 606 618 612 610 602 593 560 590 615 591 563 637 618 591 591 575 626 565 620 600 573 613 573 598 613 605 608 595 577 571 563 599 596 623 590 615 559 585 606 583 572 577 563 578 546 561 579 554 604 572 581 603 604 535 598 593 596 549 555 645 583 613 578 567 618 597 653 581 556 577 583 580 601 601 638 615 611 608 610 614 552 573 579 617 596 593 630 573 574 619 629 616 645 628 599 588 601 602 638 643 566 640 594 633 588 626 591 667 661 609 652 595 621 611 633 646 610 639 646 625 639 616 657 601 662 633 638 659 675 652 680 638 654 662 602 652 661 683 660 626 657 670 709 662 655 731 786 714 724 763 714 777 724 740 723 711 701 717 715 749 750 742 739 721 674 721 735 780 715 768 729 766 723 756 749 731 749 765 764 725 773 805 759 750 764 765 702 776 687 710 705 701 672 703 741 669 769 691 699 721 695 687 623 678 670 628 666 657 671 611 640 600 587 601 655 608 597 644 571 594 601 591 580 576 579 544 593 586 622 592 558 572 557 578 596 573 613 601 592 626 562 606 554 600 596 582 589 592 620 581 582 580 555 589 586 616 583 574 635 570 602 593 598 605 632 579 536 572 583 577 605 609 603 598 592 602 579 573 559 607 547 567 601 623 604 624 580 577 624 607 585 593 604 569 565 620 550 601 591 595 576 647 599 589 596 592 578 641 602 629 599 600 576 621 560 589 574 629 685 607 635 605 703 633 602 688 659 645 626 670 666 605 653 662 631 645 634 610 637 630 683 647 628 632 682 719 624 622 620 627 615 644 647 644 669 607 642 605 632 650 631 636 589 609 604 557 628 610 631 578 591 607 626 622 607 608 577 585 631 619 604 577 598 633 626 620 587 636 618 559 624 588 631 560 575 584 633 599 621 596 658 604 605 605 609 630 607 623 602 601 591 591 618 629 642 607 619 612 657 604 619 650 625 623 632 618 637 655 597 631 627 642 653 646 636 613 689 627 645 657 660 629 640 628 678 625 697 610 628 621 666 687 624 610 624 622 608 567 573 576 646 631 627 641 594 608 608 605 632 594 588 556 588 549 578 600 540 601 561 614 584 562 567 598 553 592 539 525 582 621 547 589 582 594 636 573 561 577 542 536 618 645 635 583 586 559 553 564 553 550 559 559 561 535 549 599 565 599 590 568 605 558 571 548 577 594 532 563 561 602 634 588 602 635 582 625 611 601 571 566 605 618 626 553 631 614 637 614 611 633 656 587 610 639 608 612 660 605 635 624 649 621 606 576 604 635 628 657 631 672 653 629 679 644 655 659 628 590 639 619 618 609 638 615 655 650 623 624 638 667 639 595 653 576 659 581 633 627 575 597 586 608 585 590 564 604 602 652 605 556 581 584 587 573 591 570 586 589 551 622 559 544 586 555 570 573 624 560 605 566 561 607 604 620 589 561 615 580 547 549 574 606 547 578 558 544 589 548 590 572 551 589 553 592 572 540 528 543 545 575 545 541 566 546 542 554 535 540 562 526 551 548 503 569 547 588 553 582 543 570 504 512 534 552 517 579 551 562 560 571 543 526 570 537 600 606 517 537 537 541 507 554 538 523 521 510 572 548 543 605 584 563 550 561 542 592 561 564 534 549 532 576 538 555 574 553 523 548 516 580 557 489 536 535 548 551 538 535 547 542 566 522 545 553 590 530 565 548 586 569 522 525 569 525 541 508 544 509 531 506 530 582 573 496 519 501 549 527 559 528 551 547 559 541 500 496 551 530 554 539 532 512 552 551 536 500 547 504 549 553 508 502 533 569 544 536 509 549 532 563 505 557 502 549 496 523 549 524 545 539 521 516 553 475 553 556 540 550 533 576 533 547 532 548 503 529 515 545 532 549 513 527 566 531 552 578 540 534 518 524 529 552 544 561 528 538 518 567 511 510 537 541 511 475 543 529 532 542 519 521 567 563 485 533 563 517 578 514 564 557 516 541 534 552 522 532 515 538 547 522 513 549 553 541 552 526 550 563 546 562 559 557 550 549 553 520 540 565 557 520 558 551 538 495 542 547 534 562 558 554 513 531 553 554 559 557 564 567 569 518 540 525 531 560 557 533 529 551 546 586 562 560 568 561 573 512 540 549 548 561 526 536 505 499 565 566 517 545 583 526 546 540 539 547 575 513 529 509 555 567 523 573 542 554 577 508 536 552 567 496 541 549 559 547 592 523 494 545 553 523 538 569 606 562 537 510 539 524 566 535 535 498 496 509 541 548 557 524 552 527 586 532 513 559 528 516 542 586 515 566 529 533 502 524 542 525 520 521 523 497 573 567 528 516 542 478 513 547 547 568 571 513 524 536 496 507 503 490 535 540 545 521 482 499 493 519 513 548 520 516 534 499 523 521 561 541 545 518 544 602 513 526 516 552 526 520 543 505 503 521 526 526 539 531 521 513 542 551 568 521 476 499 484 535 506 515 540 540 508 517 538 481 538 558 531 553 511 529 542 529 519 567 570 562 549 513 516 495 520 524 569 534 536 553 557 540 517 528 524 550 537 558 526 518 540 557 572 516 547 561 539 506 535 560 565 553 531 558 519 561 552 546 542 532 523 535 523 536 543 528 523 515 545 576 560 494 551 534 572 526 579 571 547 595 522 544 508 562 567 556 567 565 582 556 575 583 611 541 555 561 579 576 542 578 577 545 558 575 613 570 561 605 590 581 572 575 575 632 575 632 626 625 562 610 584 626 593 556 615 606 635 587 572 585 620 558 597 588 604 601 591 587 614 595 558 537 522 546 594 588 565 539 554 553 552 529 548 537 544 533 545 539 542 540 540 495 590 590 549 559 523 546 575 565 571 519 557 532 535 553 497 539 560 547 551 536 540 551 550 539 548 534 518 504 501 526 535 539 514 550 542 508 540 538 554 526 586 536 518 496 502 543 547 524 503 490 547 507 524 530 509 508 464 554 531 503 452 540 532 512 526 528 531 495 539 501 493 534 517 517 492 553 521 503 513 505 513 501 502 492 559 532 542 545 537 521 575 536 512 558 521 525 515 525 543 566 535 533 520 544 540 511 547 539 545 542 508 546 530 491 572 514 537 518 528 473 496 496 497 515 539 549 540 541 555 509 510 580 518 500 540 533 490 541 553 545 520 517 572 539 496 542 575 493 533 530 503 508 478 483 516 573 538 577 555 528 512 505 529 518 557 538 593 524 578 517 507 523 576 531 495 502 510 513 500 511 540 505 554 518 531 508 531 531 539 504 527 510 518 545 473 505 536 533 537 558 558 515 521 525 498 512 503 513 532 540 524 539 536 490 543 539 579 489 558 562 564 496 512 557 520 540 531 568 542 545 529 584 512 536 536 517 527 565 531 579 524 556 569 554 529 507 561 555 580 584 544 508 519 606 527 540 582 541 554 555 592 531 550 503 558 520 552 533 522 578 600 517 511 548 581 522 512 512 532 523 536 534 577 489 536 550 504 522 556 583 544 511 533 560 550 483 517 521 511 522 509 509 558 526 511 538 491 492 530 547 545 506 551 510 517 574 493 522 559 494 505 527 540 544 506 506 481 473 541 489 541 522 550 522 536 533 566 578 503 510 524 533 535 545 529 555 512 578 534 547 552 534 505 515 553 522 561 504 502 551 466 556 514 555 500 515 507 574 510 519 567 587 527 560 517 540 520 541 518 587 531 543 515 456 523 472 515 527 574 539 577 507 552 536 524 521 529 538 567 509 520 529 525 564 554 485 562 528 562 498 500 547 529 556 526 557 513 509 561 551 545 517 555 502 502 577 559 521 565 565 585 527 564 533 525 552 514 516 531 523 515 557 550 535 548 528 572 522 505 500 493 526 542 511 535 536 481 495 564 558 550 503 572 550 531 468 581 567 567 551 563 545 570 511 564 515 559 519 555 540 529 537 577 590 560 542 555 573 550 551 574 568 569 565 567 599 547 574 556 605 565 583 541 539 533 536 527 591 548 532 562 514 564 511 562 551 544 572 549 555 552 534 584 566 528 526 539 548 565 536 536 543 523 544 522 532 530 550 543 511 559 555 559 546 498 508 532 559 527 542 502 554 524 535 549 554 546 540 547 493 525 507 569 519 529 548 552 522 532 584 503 501 514 564 489 529 520 527 518 539 522 530 565 483 516 548 509 568 537 522 510 531 507 513 552 528 510 550 545 508 470 554 504 564 543 527 522 549 511 501 564 515 517 519 506 497 500 558 522 533 558 556 558 571 517 524 523 542 541 548 491 562 534 574 480 542 569 550 605 573 529 596 525 565 483 580 591 576 502 605 534 542 636 589 606 575 584 553 601 569 574 601 583 562 577 560 572 553 540 592 576 566 614 554 566 590 568 584 585 605 568 574 571 573 580 536 549 572 565 509 559 571 549 578 560 595 534 555 592 541 586 577 525 554 526 584 585 577 516 565 536 589 521 576 569 558 529 549 577 539 551 554 536 524 543 557 540 563 532 509 529 518 486 526 521 538 561 543 536 565 518 529 530 497 537 525 518 534 502 521 531 533 533 533 557 515 524 546 566 503 506 523 548 537 549 481 480 525 555 515 508 542 534 555 530 507 499 504 512 509 531 507 540 503 543 528 506 507 498 501 547 550 507 522 489 497 521 528 524 486 511 556 536 494 508 537 562 532 535 544 522 503 563 505 516 523 549 549 547 541 503 543 564 497 535 568 526 522 529 510 566 489 494 504 574 510 519 522 541 540 493 502 552 464 534 543 545 537 514 544 560 543 522 533 546 536 549 561 522 534 522 505 502 525 549 540 556 528 519 530 512 558 515 542 576 545 529 543 536 529 532 546 552 571 486 561 592 531 548 550 588 554 568 581 532 596 594 575 589 588 558 537 606 586 553 529 615 592 539 558 557 564 622 505 552 601 566 620 567 582 553 605 534 607 596 574 567 542 554 600 549 541 583 547 570 616 621 536 548 585 600 566 626 549 578 586 563 594 527 552 615 548 585 581 551 532 540 608 561 516 508 522 544 539 546 530 533 524 587 528 524 530 499 552 538 529 507 541 514 525 509 508 520 535 490 526 527 512 572 510 540 531 491 493 575 559 524 525 543 522 537 523 496 487 521 519 512 577 507 521 529 486 572 527 504 506 521 506 542 516 521 556 510 531 530 547 565 501 519 496 526 523 550 512 528 495 532 527 517 509 503 534 532 535 559 549 514 532 530 525 489 513 491 543 503 504 538 520 549 498 526 469 504 525 469 516 524 542 529 514 507 533 482 511 519 511 522 524 491 515 511 543 505 541 515 499 539 520 515 501 486 538 568 559 539 539 502 498 521 522 465 528 549 548 532 539 493 547 526 493 502 555 533 549 558 552 578 456 529 566 545 567 524 557 550 549 539 500 504 524 520 527 537 501 529 576 524 535 523 510 512 490 509 529 531 580 560 516 563 543 533 554 528 527 511 532 543 487 518 556 509 534 486 494 541 501 470 534 514 528 549 492 546 515 516 473 498 543 536 510 510 551 518 535 539 475 518 491 488 495 525 481 518 537 513 538 509 505 515 493 509 557 572 575 561 524 573 526 482 572 553 553 530 561 571 567 527 572 523 514 531 588 582 543 533 606 525 554 610 577 585 601 552 571 586 616 548 563 583 596 603 576 612 615 540 600 532 556 554 594 572 571 522 568 568 583 545 590 561 522 529 528 563 530 584 536 548 525 507 551 539 580 527 524 543 521 569 530 558 522 522 540 530 506 525 524 538 501 493 539 518 541 531 580 540 536 505 514 485 557 498 540 550 511 546 478 513 561 507 513 525 525 492 525 531 559 522 531 548 557 506 572 560 558 560 567 533 540 546 528 589 556 528 535 559 552 517 515 535 535 515 557 540 506 540 504 501 490 517 535 536 489 548 479 515 514 540 549 508 524 535 524 452 542 512 495 505 503 495 475 493 490 524 536 507 488 506 550 502 506 462 484 494 497 480 493 491 484 487 492 515 505 544 471 495 487 516 490 491 498 486 507 513 514 530 476 472 514 500 527 510 461 497 496 475 504 483 545 485 538 522 492 486 509 492 515 501 517 519 515 502 542 516 486 483 505 522 525 483 524 508 484 544 526 550 494 510 479 517 490 493 520 479 504 481 522 468 475 487 506 477 439 483 480 502 490 502 482 519 461 449 470 507 487 481 448 516 535 507 513 495 530 441 520 486 476 524 505 471 483 523 458 487 479 546 512 526 461 507 529 474 472 444 482 540 495 501 469 537 503 500 499 491 499 504 464 486 477 491 517 502 495 511 491 518 504 487 489 482 503 464 489 489 491 487 494 534 494 499 473 440 467 466 496 495 505 489 499 509 495 513 508 458 482 473 504 477 459 494 494 467 510 456 486 524 453 458 471 464 511 456 482 501 527 504 510 520 499 480 490 497 487 493 444 491 492 479 526 471 458 533 504 518 469 507 484 487 511 496 487 501 474 503 511 473 540 479 516 462 515 486 512 481 495 524 504 503 505 507 493 502 485 511 507 492 501 461 527 548 500 503 537 476 453 494 504 466 506 500 505 517 499 495 553 533 500 521 482 475 524 545 502 495 482 494 465 517 528 491 516 546 476 527 518 536 512 475 572 484 481 531 485 515 480 497 509 543 502 497 503 482 504 499 502 487 502 523 489 497 492 465 436 491 499 468 498 500 530 516 499 503 502 510 511 531 472 473 494 433 491 508 462 484 459 472 488 424 465 473 451 470 495 469 496 464 473 473 526 470 502 515 462 471 488 493 499 513 506 443 525 442 512 478 457 492 468 460 483 498 456 489 444 467 497 491 469 478 482 484 502 471 486 499 499 493 477 474 426 466 450 517 496 500 503 490 488 562 485 510 458 521 502 500 459 478 511 541 459 480 479 487 515 528 504 511 473 504 459 487 492 502 503 526 517 481 523 455 517 500 479 551 520 480 488 519 519 447 495 453 513 541 510 531 501 504 487 514 496 484 527 501 513 485 502 474 541 472 484 486 534 517 537 539 548 541 550 528 533 550 496 556 534 548 539 533 524 504 476 541 514 535 517 512 549 546 506 517 556 519 565 515 542 533 551 541 512 556 556 609 531 548 491 551 574 539 568 510 523 571 584 563 602 581 585 577 534 561 545 566 467 526 550 516 515 523 520 572 530 531 520 576 511 512 549 527 533 557 497 508 523 494 486 477 489 531 524 491 550 542 529 469 477 509 472 488 516 482 503 511 519 530 505 486 476 473 475 531 474 495 531 461 479 500 516 483 460 473 465 504 488 508 484 490 470 462 495 505 486 492 486 472 480 516 480 437 482 471 493 477 507 516 485 507 511 511 472 492 443 457 458 477 504 507 483 467 494 465 487 517 500 446 483 501 499 491 490 442 456 485 539 485 483 474 482 482 487 504 470 520 478 508 480 466 505 482 467 472 495 505 490 485 480 495 533 462 495 465 474 461 496 498 473 498 501 479 487 483 496 472 476 482 468 466 476 505 549 511 477 520 485 479 475 451 432 491 455 457 481 480 480 518 473 551 465 452 489 524 487 494 482 446 504 462 506 489 476 467 484 507 462 502 487 484 513 454 469 482 452 513 502 449 499 478 524 510 483 494 457 482 467 505 534 487 528 460 531 505 474 445 471 523 505 498 425 504 495 460 499 520 475 477 467 452 482 495 508 512 469 422 470 466 487 472 508 492 520 467 468 480 471 465 479 462 501 468 482 482 480 488 500 520 509 478 508 488 486 496 461 526 476 544 494 450 464 450 484 499 441 482 460 485 457 477 479 503 485 524 478 517 515 493 466 481 521 525 472 506 484 479 467 487 499 459 456 483 480 493 480 492 462 462 453 469 478 510 459 507 516 504 474 460 482 504 495 473 508 485 455 484 483 469 471 501 508 479 453 450 482 476 491 449 487 466 515 443 473 490 441 516 502 480 456 459 484 487 456 509 433 494 453 565 452 458 474 488 485 481 494 480 468 459 495 461 489 478 476 535 510 467 501 482 470 477 479 471 474 455 458 489 466 470 465 520 491 482 469 491 512 472 482 513 511 460 487 491 481 491 495 496 510 464 487 502 526 498 486 476 544 457 519 506 480 493 509 510 476 483 466 409 520 515 523 511 483 502 545 479 518 470 484 502 525 542 497 484 522 512 483 489 470 500 502 493 495 534 496 491 439 503 497 515 514</counts>
			</dataPoints>
		</scan>
	</xrdMeasurement>
</xrdMeasurements>
