<?xml version="1.0"?>
<xrdMeasurements xmlns="http://www.xrdml.com/XRDMeasurement/2.3" xmlns:xsi="http://www.w3.org/2001/XMLSchema-instance" xsi:schemaLocation="http://www.xrdml.com/XRDMeasurement/2.3 http://www.xrdml.com/XRDMeasurement/2.3/XRDMeasurement.xsd" status="Completed" recordIdentifier="{F6449A30-98EC-4F5C-9733-323F66B2B9F7}">
	<comment>
		<entry/>
	</comment>
	<sample type="To be analyzed">
		<id>GPSS_Li1p4Fe0p8Nb0p2Cl4_081225_689c052571f8245643114707</id>
		<name></name>
		<preparedBy></preparedBy>
	</sample>
	<xrdMeasurement measurementType="Scan" status="Completed" sampleMode="Reflection">
		<usedWavelength intended="K-Alpha 1">
			<kAlpha1 unit="Angstrom">1.5405980</kAlpha1>
			<kAlpha2 unit="Angstrom">1.5444260</kAlpha2>
			<kBeta unit="Angstrom">1.3922500</kBeta>
			<ratioKAlpha2KAlpha1>0.5000</ratioKAlpha2KAlpha1>
		</usedWavelength>
		<incidentBeamPath>
			<radius unit="mm">145.00</radius>
			<xRayTube id="1010048" name="Empyrean Cu LFF HR (9430 033 7310x)">
				<tension unit="kV">40.0</tension>
				<current unit="mA">15.0</current>
				<anodeMaterial>Cu</anodeMaterial>
				<focus type="Line">
					<length unit="mm">12.0</length>
					<width unit="mm">0.4</width>
					<takeOffAngle unit="deg">6.0</takeOffAngle>
				</focus>
			</xRayTube>
			<sollerSlit id="21010002" name="Soller slits 0.04 rad.">
				<opening unit="rad">0.0400</opening>
			</sollerSlit>
			<mask id="22031000" name="Fixed mask 13 mm">
				<width unit="mm">9.00</width>
			</mask>
			<divergenceSlit id="22120001" name="Divergence slit 1°" xsi:type="fixedDivergenceSlitType">
				<distanceToSample unit="mm">50.00</distanceToSample>
				<height unit="mm">1.52</height>
			</divergenceSlit>
		</incidentBeamPath>
		<sampleMovement xsi:type="spinningSampleMovementType">
			<spinnerRevolutionTime unit="seconds">1.0</spinnerRevolutionTime>
		</sampleMovement>
		<diffractedBeamPath>
			<radius unit="mm">145.00</radius>
			<antiScatterSlit id="22090040" name="AS slit 9 mm (PIXcel)" xsi:type="fixedAntiScatterSlitType">
				<height unit="mm">9.00</height>
			</antiScatterSlit>
			<sollerSlit id="21020003" name="Large Soller slits 0.04 rad.">
				<opening unit="rad">0.0400</opening>
			</sollerSlit>
			<filter id="20030001" name="Large beta-filter Nickel">
				<material>Ni</material>
				<thickness unit="mm">0.020</thickness>
			</filter>
			<detector id="7010019" name="PIXcel1D-Medipix3 detector" xsi:type="rtmsDetectorType">
				<phd unit="keV">
					<lowerLevel>4.02</lowerLevel>
					<upperLevel>11.27</upperLevel>
				</phd>
				<mode>Scanning</mode>
				<activeLength unit="deg">5.542</activeLength>
			</detector>
		</diffractedBeamPath>
		<scan appendNumber="0" mode="Continuous" scanAxis="Gonio" status="Completed">
			<header>
				<startTimeStamp>2025-08-14T19:21:46-07:00</startTimeStamp>
				<endTimeStamp>2025-08-14T19:29:54-07:00</endTimeStamp>
				<author>
					<name>AutomatedUser</name>
				</author>
				<source>
					<applicationSoftware version="1.7b (136)">PANalytical Aeris Instrument Suite</applicationSoftware>
					<instrumentControlSoftware version="3.2.00000000 20240306">AERIS</instrumentControlSoftware>
					<instrumentID>950485</instrumentID>
				</source>
			</header>
			<dataPoints>
				<positions axis="2Theta" unit="deg">
					<startPosition>10.00943322</startPosition>
					<endPosition>99.99442286</endPosition>
				</positions>
				<positions axis="Omega" unit="deg">
					<startPosition>5.00471661</startPosition>
					<endPosition>49.99721143</endPosition>
				</positions>
				<commonCountingTime unit="seconds">12.495</commonCountingTime>
				<counts unit="counts">3134 3275 3203 3222 3228 3240 3178 3375 3165 3130 3280 3263 3244 3297 3345 3367 3310 3250 3317 3315 3326 3316 3334 3369 3244 3280 3286 3325 3321 3312 3273 3328 3282 3289 3297 3310 3342 3465 3264 3502 3317 3306 3440 3325 3396 3410 3313 3300 3474 3355 3379 3427 3400 3308 3421 3407 3499 3350 3488 3450 3407 3480 3496 3512 3519 3555 3534 3548 3581 3430 3621 3555 3546 3487 3501 3576 3660 3672 3680 3610 3598 3596 3692 3643 3679 3557 3578 3643 3531 3546 3593 3496 3511 3427 3669 3632 3596 3593 3587 3562 3573 3485 3507 3480 3613 3723 3585 3637 3499 3542 3493 3649 3590 3524 3503 3490 3516 3604 3485 3618 3585 3576 3580 3524 3614 3576 3585 3656 3509 3533 3632 3542 3617 3559 3618 3581 3664 3591 3613 3496 3491 3649 3594 3588 3536 3559 3548 3552 3529 3536 3494 3566 3594 3693 3681 3709 3569 3616 3642 3712 3556 3567 3600 3649 3552 3600 3772 3617 3515 3606 3572 3584 3600 3650 3534 3552 3604 3606 3522 3555 3562 3581 3578 3613 3637 3601 3521 3486 3463 3576 3433 3521 3598 3596 3570 3488 3535 3592 3535 3512 3595 3479 3518 3529 3530 3479 3621 3547 3587 3495 3620 3514 3456 3693 3496 3499 3479 3516 3519 3545 3519 3485 3521 3453 3486 3605 3512 3592 3462 3486 3415 3600 3517 3445 3524 3449 3529 3535 3558 3560 3403 3419 3603 3460 3606 3516 3395 3419 3517 3547 3558 3482 3470 3511 3545 3374 3538 3501 3472 3441 3448 3498 3452 3396 3410 3622 3553 3478 3401 3477 3373 3592 3481 3562 3497 3483 3513 3393 3513 3577 3417 3450 3501 3438 3514 3555 3484 3487 3487 3390 3523 3615 3519 3637 3491 3404 3498 3409 3622 3471 3512 3516 3459 3558 3542 3456 3576 3614 3573 3591 3552 3414 3542 3526 3540 3586 3485 3615 3596 3641 3505 3548 3350 3600 3570 3505 3692 3606 3656 3593 3565 3602 3617 3700 3674 3736 3753 3696 3630 3777 3682 3700 3744 3723 3629 3655 3765 3644 3682 3710 3699 3798 3727 3625 3679 3719 3660 3692 3675 3769 3723 3694 3882 3769 3696 3734 3753 3850 3729 3702 3857 3886 3869 3807 3892 3831 3965 3900 3821 3905 3909 3852 3858 3888 3899 3806 3960 3778 3873 3851 3925 4055 3983 3869 3948 3904 3885 3991 3883 3921 3956 3935 3937 3890 3984 3908 4069 4052 3981 4062 4153 4033 4034 4050 4156 4093 4136 3986 4058 4049 4126 4192 4154 4291 4228 4369 4422 4502 4508 4545 4612 4496 4553 4540 4548 4545 4605 4674 4628 4725 4547 4513 4566 4602 4580 4571 4564 4598 4581 4712 4680 4588 4711 4623 4748 4745 4765 4636 4751 4692 4660 4824 4597 4604 4547 4480 4591 4481 4409 4514 4415 4270 4261 4157 4249 4292 4285 4135 4197 4141 4239 4201 4167 4170 4168 4097 4206 4188 4078 4188 4009 4075 4051 4087 4013 3979 4050 4023 4022 3873 3874 3949 3757 3823 3829 3817 3707 3738 3680 3653 3719 3728 3851 3731 3772 3657 3789 3761 3766 3803 3769 3722 3787 3648 3633 3683 3672 3633 3711 3735 3654 3716 3658 3606 3644 3536 3697 3721 3620 3611 3588 3602 3611 3559 3645 3665 3577 3628 3514 3563 3569 3588 3628 3553 3487 3547 3659 3538 3599 3615 3599 3618 3523 3589 3548 3554 3457 3419 3481 3604 3556 3509 3585 3534 3455 3588 3415 3504 3567 3376 3447 3402 3497 3423 3376 3489 3498 3506 3352 3427 3386 3483 3393 3372 3548 3544 3399 3438 3371 3399 3373 3323 3371 3414 3402 3455 3391 3421 3329 3543 3420 3359 3378 3352 3383 3322 3306 3445 3447 3399 3333 3387 3353 3426 3302 3471 3380 3343 3372 3306 3384 3423 3405 3513 3496 3303 3452 3405 3456 3230 3436 3399 3388 3342 3427 3329 3426 3427 3375 3471 3408 3351 3417 3352 3474 3393 3364 3368 3375 3380 3374 3266 3441 3341 3315 3543 3359 3300 3333 3365 3256 3455 3351 3330 3352 3453 3319 3364 3278 3351 3446 3413 3422 3513 3353 3321 3377 3338 3310 3377 3459 3393 3372 3262 3276 3197 3329 3346 3428 3119 3296 3315 3249 3353 3393 3237 3242 3444 3234 3258 3252 3380 3292 3252 3245 3328 3322 3310 3252 3313 3270 3301 3259 3284 3256 3336 3163 3297 3199 3362 3269 3330 3253 3283 3339 3332 3291 3334 3251 3250 3180 3331 3334 3260 3246 3247 3349 3165 3301 3121 3470 3262 3276 3379 3174 3341 3292 3228 3326 3311 3244 3216 3167 3161 3247 3227 3266 3211 3212 3225 3228 3170 3177 3335 3345 3104 3212 3250 3244 3331 3158 3248 3273 3202 3282 3261 3213 3202 3235 3212 3220 3287 3179 3240 3237 3231 3220 3247 3193 3167 3165 3258 3161 3212 3123 3253 3240 3082 3205 3308 3217 3179 3354 3264 3120 3402 3201 3174 3181 3211 3251 3153 3112 3159 3120 3190 3340 3224 3180 3231 3054 3254 3251 3118 3110 3179 3148 3153 3072 3098 3135 3118 3086 3237 3234 3067 3109 3176 3200 3135 3191 3130 3070 3123 3249 3115 3085 3098 3187 3138 3136 3165 3225 3163 3010 3109 3166 3170 3204 3079 3128 3062 3110 3135 3186 3186 3164 3191 3067 3128 3096 3167 3236 3138 3187 3102 3188 3101 3050 3018 3123 3068 3126 3025 3000 3078 3150 3067 3138 3147 3109 3017 3247 3164 3188 3057 3026 3068 3220 3090 3106 3106 3053 3040 3114 3082 3029 3076 3041 3055 2938 3091 3051 3115 3036 3030 3092 3047 3067 3187 3046 2995 3033 3038 3069 3108 3109 3161 3038 3028 3021 3007 3062 3007 2967 3121 3033 3046 3111 3013 3006 3148 3065 3010 3149 3043 3040 3148 3034 3037 2958 3061 3085 3076 3095 3121 3103 2977 3105 3124 3112 2989 3140 2951 3070 3149 3109 3087 3092 3058 3036 3079 3002 3006 3039 3030 3113 3010 2972 3084 2983 3016 2990 3047 3092 3088 2924 3066 3022 3020 2981 2938 2988 3064 3120 3024 3022 3037 3014 3093 3099 3028 2980 3181 3004 3063 3022 3078 3094 3217 3005 3060 2979 2983 3038 2964 3053 3071 3051 3055 3017 2995 3051 3132 3021 3109 3033 3083 3012 2925 3173 3131 3050 2982 3115 3019 3207 3025 3088 3074 3073 3073 3040 3105 3071 3046 3081 3015 3065 3070 3073 3002 3112 3032 3091 3054 2931 3055 3000 3066 3141 3135 3062 3064 3124 3049 3125 3056 3171 3061 3035 3081 3103 3104 2999 3116 3033 3088 3003 3034 3048 3120 3103 2951 3052 3099 3050 3082 3076 3141 3128 3071 2981 3100 3017 3040 3117 3118 3003 3013 3057 3081 3012 3041 2979 3040 3017 3083 2969 3063 3076 3068 2976 3009 2946 3008 2976 3075 3020 2966 2920 2973 3029 2888 2972 2978 2914 3044 3047 2922 2995 2972 2922 2922 2956 3081 3087 3054 2996 2984 3016 2994 2900 2979 2980 2941 2866 2983 2855 2885 2889 2961 2999 3021 2910 3001 2837 2904 2809 2845 2928 2883 2901 2824 2981 2773 2819 2975 2862 2921 2732 2741 2909 2850 2755 2831 2831 2874 2831 2783 2890 2773 2807 2727 2837 2785 2777 2781 2738 2896 2741 2699 2802 2739 2717 2677 2824 2685 2765 2661 2724 2795 2625 2732 2726 2736 2698 2761 2723 2743 2637 2757 2674 2690 2803 2687 2755 2658 2666 2686 2558 2661 2630 2822 2721 2619 2653 2648 2698 2621 2645 2604 2597 2637 2717 2606 2619 2650 2587 2477 2596 2633 2652 2638 2653 2547 2578 2651 2560 2716 2528 2631 2584 2647 2507 2556 2665 2604 2647 2564 2526 2622 2427 2597 2556 2660 2540 2528 2505 2504 2587 2641 2517 2529 2611 2584 2478 2461 2544 2529 2586 2554 2560 2516 2481 2573 2568 2488 2580 2546 2438 2496 2555 2516 2512 2472 2531 2521 2525 2582 2602 2581 2590 2547 2546 2532 2488 2568 2535 2479 2613 2629 2523 2553 2555 2474 2546 2490 2530 2524 2566 2464 2517 2448 2536 2546 2492 2535 2537 2546 2522 2551 2457 2632 2495 2590 2555 2476 2483 2508 2449 2447 2575 2520 2497 2473 2550 2458 2505 2493 2465 2404 2509 2439 2487 2554 2523 2416 2443 2446 2348 2463 2394 2492 2495 2483 2472 2467 2356 2388 2405 2480 2419 2461 2380 2483 2537 2450 2453 2465 2468 2501 2510 2380 2455 2394 2538 2445 2477 2534 2496 2435 2442 2464 2469 2415 2493 2422 2410 2360 2436 2530 2515 2438 2443 2533 2390 2482 2589 2531 2491 2522 2479 2409 2522 2410 2442 2421 2519 2529 2554 2412 2448 2397 2596 2513 2520 2530 2509 2499 2462 2527 2474 2512 2425 2378 2505 2533 2444 2483 2483 2497 2418 2453 2482 2476 2411 2572 2512 2513 2427 2458 2459 2555 2371 2455 2426 2515 2474 2484 2431 2519 2410 2461 2470 2496 2537 2500 2501 2548 2517 2398 2436 2497 2479 2524 2511 2423 2532 2465 2435 2398 2544 2452 2502 2485 2429 2482 2543 2397 2439 2525 2528 2533 2448 2457 2431 2510 2448 2430 2489 2527 2370 2418 2344 2350 2459 2437 2423 2415 2435 2429 2420 2342 2435 2483 2339 2421 2357 2423 2331 2422 2474 2415 2400 2457 2355 2401 2469 2333 2412 2378 2378 2379 2328 2386 2294 2383 2294 2340 2385 2355 2296 2367 2400 2373 2315 2345 2416 2413 2315 2327 2324 2400 2304 2338 2246 2269 2326 2344 2366 2504 2333 2348 2327 2322 2244 2321 2299 2249 2352 2342 2240 2301 2209 2271 2309 2246 2382 2214 2197 2254 2276 2263 2217 2161 2153 2293 2263 2225 2244 2230 2234 2285 2153 2236 2241 2191 2230 2324 2219 2167 2213 2234 2213 2137 2241 2233 2218 2250 2215 2272 2196 2157 2192 2192 2226 2205 2217 2232 2163 2117 2227 2241 2197 2088 2215 2223 2255 2217 2044 2109 2187 2092 2168 2178 2098 2180 2100 2215 2182 2096 2145 2108 2180 2076 2182 2215 2116 2271 2140 2048 2137 2044 2121 2142 2203 2230 2124 2155 2148 2123 2139 2186 2175 2157 2132 2200 2138 2221 2175 2231 2213 2198 2195 2234 2262 2324 2298 2298 2361 2365 2411 2454 2449 2503 2517 2474 2527 2467 2442 2477 2495 2487 2551 2446 2445 2485 2511 2493 2586 2501 2635 2498 2524 2577 2544 2526 2508 2570 2533 2545 2479 2527 2453 2398 2421 2304 2324 2382 2399 2309 2339 2279 2345 2257 2311 2265 2131 2265 2262 2224 2204 2216 2252 2209 2193 2243 2156 2172 2109 2163 2108 2067 2109 2237 2146 2187 2174 2116 2149 2192 2115 2154 2100 2159 2129 2137 2065 2112 2096 2050 2051 2121 2053 1972 2049 2057 2106 2035 2042 2072 1991 2050 2136 2091 2074 2016 2097 2155 2041 2105 2049 1998 2041 2117 2054 2072 2032 2063 2112 2142 2242 2214 2280 2324 2276 2372 2342 2438 2493 2568 2549 2655 2650 2611 2669 2676 2710 2756 2689 2844 2706 2703 2710 2736 2815 2854 2824 2981 2949 3111 2909 3053 3139 3109 3228 3098 3237 3115 3134 3103 2974 2898 2865 2783 2830 2773 2660 2594 2540 2498 2632 2444 2386 2356 2412 2422 2316 2303 2250 2328 2273 2228 2218 2133 2265 2138 2158 2193 2106 2051 2130 2023 1976 2003 2053 1977 1915 1968 1949 1990 1943 1936 1962 1983 1987 1972 1874 1890 1890 1973 1930 1904 1919 2005 1908 1886 1949 1917 1973 1896 1958 1902 1926 1881 1883 1918 1881 1865 1981 1942 1947 1937 1853 1917 1871 1870 1817 1915 1958 1920 1932 1902 1864 1919 1893 1957 1860 2035 2014 1875 1929 1910 1904 1925 1932 1923 1905 1902 1910 1936 1856 1873 1931 1923 1856 1928 1909 1907 1923 1757 1915 1921 1925 1901 1835 1823 1884 1922 1856 1940 1894 1846 1832 1834 1912 1941 1933 1917 1916 1778 1878 1948 1866 1866 1853 1850 1960 1895 1835 1851 1856 1810 1826 1915 1802 1792 1849 1787 1911 1924 1859 1814 1833 1893 1854 1892 1822 1820 1861 1882 1883 1858 1800 1906 1820 1843 1829 1934 1888 1832 1863 1766 1890 1857 1852 1845 1870 1853 1841 1870 1827 1815 1908 1873 1835 1830 1822 1846 1847 1881 1881 1779 1832 1837 1849 1857 1945 1876 1810 1904 1764 1888 1820 1819 1935 1829 1810 1936 1846 1800 1887 1945 1899 1858 1863 1834 1968 1877 1785 1882 1844 1806 1796 1912 1932 1901 1865 1877 1968 1942 1928 1906 1891 1943 1946 1963 1905 1991 1951 2039 2024 1997 1947 2096 1995 2019 2077 2082 2048 2099 2185 2181 2085 2045 2032 2013 2047 1991 2041 2054 1940 1952 1979 1943 1957 1958 2010 1983 1962 1984 1963 1894 1933 1949 1904 1911 1863 1914 1992 1825 1950 1805 1974 1919 1918 1814 1864 1897 1912 1868 1841 1896 1852 1878 1819 1913 1836 1801 1767 1879 1830 1809 1879 1826 1888 1829 1877 1904 1928 1799 1836 1869 1804 1785 1841 1839 1907 1787 1922 1836 1887 1786 1781 1824 1753 1816 1950 1780 1939 1822 1887 1839 1881 1799 1835 1866 1876 1819 1778 1818 1851 1856 1813 1818 1811 1881 1858 1788 1852 1818 1825 1895 1847 1875 1812 1845 1853 1844 1843 1860 1830 1890 1803 1880 1829 1836 1872 1889 1814 1861 1840 1882 1885 1872 1842 1907 1870 1788 1955 1924 1862 1912 2001 1983 2031 1949 1998 1958 1928 2043 2068 2136 2181 2239 2281 2395 2387 2441 2643 2595 2638 2873 2969 3188 3222 3344 3532 3486 3745 3761 3821 3814 3792 3974 3859 3952 3890 4073 4093 4126 4122 4105 4164 4256 4148 4367 4221 4269 4368 4451 4532 4477 4580 4635 4520 4520 4468 4275 4358 4195 4115 3921 3884 3790 3586 3536 3273 3291 3172 3190 3093 2932 2896 2921 2771 2718 2684 2602 2659 2530 2539 2447 2518 2363 2321 2355 2332 2220 2250 2167 2183 2216 2133 2126 2119 2078 2060 2074 2060 2016 1967 2029 2011 2013 1916 1912 1990 1963 1981 2022 1979 1981 1946 1987 1935 1930 1934 1914 2017 1921 1871 1935 1940 1869 1914 1959 1955 1913 1887 1917 1862 1873 1847 1839 1845 1903 1857 1814 1852 1897 1850 1815 1796 1888 1808 1779 1869 1879 1792 1862 1827 1860 1869 1868 1818 1789 1884 1848 1885 1803 1827 1846 1776 1832 1774 1816 1772 1807 1891 1763 1824 1760 1814 1732 1801 1816 1812 1793 1750 1720 1757 1737 1778 1857 1754 1852 1724 1809 1846 1775 1823 1789 1711 1686 1740 1752 1707 1715 1836 1750 1710 1818 1704 1700 1677 1753 1743 1714 1707 1747 1721 1707 1774 1809 1770 1680 1738 1752 1720 1798 1749 1720 1704 1707 1715 1756 1708 1741 1759 1766 1749 1731 1768 1665 1780 1728 1724 1652 1663 1801 1843 1706 1767 1697 1668 1740 1693 1751 1725 1778 1741 1682 1806 1739 1718 1789 1836 1809 1774 1722 1660 1730 1745 1695 1667 1716 1705 1740 1713 1732 1752 1698 1703 1638 1713 1670 1717 1678 1645 1684 1760 1664 1640 1753 1722 1752 1662 1710 1677 1635 1703 1653 1593 1777 1681 1653 1718 1705 1730 1799 1715 1731 1667 1683 1707 1646 1771 1716 1689 1713 1690 1684 1697 1696 1693 1794 1723 1761 1718 1706 1759 1781 1744 1784 1787 1730 1745 1664 1753 1788 1704 1745 1781 1749 1652 1729 1685 1734 1777 1733 1762 1663 1769 1728 1810 1727 1784 1814 1672 1761 1721 1734 1724 1722 1733 1786 1764 1733 1791 1711 1690 1755 1736 1821 1719 1673 1658 1698 1790 1667 1691 1703 1721 1745 1678 1673 1681 1686 1681 1711 1663 1664 1696 1713 1673 1677 1632 1778 1701 1709 1629 1622 1621 1773 1701 1744 1783 1704 1758 1697 1729 1732 1692 1759 1679 1661 1744 1693 1703 1710 1700 1693 1669 1725 1702 1609 1670 1746 1698 1710 1669 1720 1648 1685 1759 1707 1712 1712 1684 1723 1682 1722 1693 1686 1733 1661 1729 1725 1667 1767 1734 1752 1610 1737 1816 1737 1711 1687 1764 1663 1689 1627 1707 1677 1640 1655 1680 1652 1641 1690 1659 1676 1630 1735 1672 1592 1649 1750 1731 1658 1609 1650 1653 1622 1680 1676 1693 1644 1598 1665 1638 1674 1661 1634 1647 1715 1665 1631 1596 1655 1634 1671 1599 1685 1646 1668 1677 1700 1678 1650 1628 1646 1607 1685 1661 1690 1694 1703 1634 1667 1586 1658 1621 1702 1651 1719 1668 1658 1662 1620 1617 1632 1551 1632 1589 1641 1690 1620 1588 1636 1591 1572 1631 1677 1661 1625 1575 1719 1670 1617 1638 1638 1639 1657 1675 1613 1642 1624 1595 1608 1619 1601 1692 1650 1584 1649 1577 1617 1734 1549 1594 1621 1663 1594 1719 1655 1718 1632 1647 1599 1602 1597 1584 1534 1630 1662 1593 1668 1631 1644 1637 1646 1583 1610 1579 1617 1559 1567 1623 1645 1593 1678 1612 1637 1606 1569 1710 1643 1628 1581 1633 1593 1636 1584 1709 1627 1584 1618 1579 1597 1575 1644 1636 1622 1544 1620 1613 1602 1642 1649 1572 1682 1589 1609 1664 1619 1636 1713 1659 1558 1612 1526 1548 1576 1577 1605 1613 1626 1574 1605 1568 1556 1590 1543 1623 1614 1640 1590 1613 1623 1596 1622 1557 1624 1657 1605 1604 1623 1634 1555 1590 1575 1597 1595 1532 1618 1559 1545 1613 1625 1614 1646 1588 1618 1665 1627 1554 1625 1666 1626 1610 1563 1525 1621 1608 1583 1731 1635 1612 1613 1663 1586 1573 1584 1587 1660 1588 1642 1551 1632 1552 1503 1517 1586 1606 1613 1595 1581 1596 1602 1546 1656 1528 1571 1584 1663 1629 1627 1665 1551 1610 1581 1581 1544 1556 1568 1710 1606 1648 1640 1643 1618 1604 1595 1639 1571 1577 1655 1648 1577 1640 1609 1648 1607 1544 1597 1606 1633 1586 1589 1596 1599 1535 1641 1606 1567 1605 1627 1651 1601 1547 1593 1681 1543 1601 1592 1650 1591 1553 1601 1583 1718 1579 1608 1565 1614 1644 1605 1575 1552 1579 1531 1526 1625 1521 1529 1570 1611 1577 1666 1629 1552 1635 1672 1538 1592 1612 1619 1597 1581 1594 1653 1595 1620 1671 1590 1659 1590 1629 1635 1550 1632 1624 1636 1626 1645 1599 1655 1637 1585 1565 1601 1539 1581 1621 1628 1576 1657 1595 1680 1653 1564 1566 1621 1687 1611 1618 1626 1623 1568 1568 1591 1573 1678 1573 1501 1613 1575 1559 1578 1596 1605 1599 1538 1549 1576 1496 1566 1623 1567 1580 1546 1558 1569 1570 1568 1564 1562 1534 1607 1636 1622 1603 1620 1570 1590 1641 1554 1619 1590 1713 1555 1579 1571 1621 1623 1599 1551 1624 1544 1619 1579 1621 1613 1587 1627 1549 1683 1579 1618 1621 1530 1657 1632 1573 1607 1606 1617 1563 1552 1604 1577 1611 1643 1683 1668 1608 1659 1606 1668 1689 1624 1584 1634 1634 1654 1601 1594 1606 1553 1620 1617 1574 1726 1640 1586 1550 1606 1617 1626 1632 1522 1588 1628 1571 1594 1562 1627 1562 1483 1658 1626 1605 1666 1572 1582 1642 1600 1557 1573 1630 1605 1627 1630 1608 1554 1596 1645 1525 1558 1646 1620 1587 1609 1533 1644 1560 1660 1656 1510 1499 1523 1564 1562 1589 1616 1618 1659 1585 1589 1663 1548 1583 1603 1647 1640 1559 1585 1605 1681 1646 1583 1601 1635 1653 1588 1620 1625 1620 1554 1682 1612 1612 1698 1655 1681 1702 1773 1735 1695 1776 1808 1763 1698 1746 1819 1832 1832 1802 1859 1815 1825 1923 1805 1803 1853 1870 1873 1834 1923 1892 1848 1897 1830 1832 1823 1812 1794 1866 1847 1874 1810 1825 1758 1888 1842 1797 1811 1787 1766 1746 1808 1723 1744 1747 1702 1719 1777 1681 1704 1678 1691 1690 1636 1684 1674 1615 1629 1608 1693 1596 1600 1639 1701 1702 1561 1599 1611 1487 1588 1638 1614 1583 1596 1604 1624 1629 1573 1617 1650 1503 1618 1570 1629 1527 1559 1546 1630 1553 1634 1626 1614 1619 1616 1577 1679 1562 1558 1712 1592 1540 1615 1550 1611 1541 1607 1538 1610 1552 1564 1543 1623 1581 1612 1595 1621 1604 1546 1583 1618 1616 1557 1628 1590 1580 1560 1553 1497 1500 1535 1595 1632 1544 1585 1544 1563 1510 1616 1604 1546 1516 1567 1513 1663 1601 1615 1603 1578 1527 1527 1583 1592 1492 1615 1526 1567 1589 1575 1610 1594 1649 1540 1570 1479 1611 1583 1479 1558 1544 1572 1536 1544 1535 1592 1609 1625 1660 1532 1548 1584 1597 1471 1622 1550 1540 1619 1600 1605 1539 1560 1547 1567 1603 1501 1577 1582 1534 1597 1539 1540 1590 1561 1592 1530 1546 1535 1569 1509 1624 1457 1550 1550 1569 1568 1603 1619 1595 1549 1600 1534 1500 1533 1593 1503 1554 1525 1572 1564 1664 1568 1511 1575 1571 1627 1489 1536 1547 1546 1561 1534 1614 1561 1558 1521 1514 1551 1533 1616 1669 1568 1631 1558 1567 1621 1589 1589 1519 1550 1572 1586 1541 1598 1565 1580 1652 1545 1572 1562 1513 1588 1590 1581 1640 1571 1568 1544 1611 1652 1626 1597 1637 1580 1566 1675 1574 1568 1524 1615 1610 1543 1618 1605 1503 1671 1623 1502 1556 1604 1569 1619 1559 1645 1642 1530 1618 1627 1622 1622 1546 1562 1543 1585 1643 1630 1585 1647 1570 1621 1621 1564 1576 1639 1599 1505 1590 1540 1570 1520 1558 1577 1568 1531 1495 1592 1559 1548 1530 1574 1464 1579 1565 1547 1593 1593 1608 1566 1536 1662 1589 1590 1538 1620 1551 1557 1592 1561 1634 1629 1586 1563 1575 1617 1556 1576 1635 1578 1587 1566 1646 1548 1601 1655 1550 1573 1618 1622 1674 1616 1606 1576 1714 1735 1681 1707 1696 1720 1765 1862 1803 1808 1942 2016 2071 2128 2285 2270 2376 2406 2498 2568 2779 2724 2643 2702 2787 2895 2827 2962 2948 2877 2859 2927 2912 2973 2997 2918 2956 2838 2921 2963 3015 2919 2842 2858 2884 2898 2883 2783 2728 2782 2676 2748 2689 2664 2757 2714 2689 2516 2475 2454 2480 2392 2405 2386 2352 2343 2265 2211 2146 2185 2176 2135 2142 2146 2154 2085 2105 2080 2146 2064 2143 2039 2051 2071 1984 1884 1938 1902 2009 1903 1970 1917 1914 1919 1822 1845 1809 1807 1820 1754 1887 1738 1939 1783 1871 1892 1865 1799 1904 1878 1827 1757 1820 1812 1881 1883 1790 1866 1892 1874 1789 1886 1835 1847 1779 1805 1779 1894 1773 1813 1722 1808 1712 1772 1668 1725 1735 1695 1665 1746 1781 1711 1673 1700 1613 1630 1683 1606 1587 1666 1643 1555 1549 1630 1631 1551 1703 1621 1543 1644 1559 1630 1548 1552 1590 1571 1575 1598 1589 1513 1592 1546 1546 1644 1591 1617 1572 1594 1551 1512 1513 1580 1602 1580 1578 1491 1494 1563 1514 1620 1516 1562 1589 1490 1523 1614 1569 1469 1479 1632 1575 1509 1435 1557 1595 1512 1558 1550 1590 1517 1530 1518 1526 1531 1494 1535 1487 1530 1498 1490 1533 1409 1499 1482 1541 1553 1652 1473 1498 1529 1531 1613 1554 1624 1548 1477 1638 1623 1603 1652 1669 1648 1553 1608 1594 1666 1656 1668 1732 1700 1714 1696 1642 1637 1686 1672 1680 1735 1673 1684 1607 1654 1633 1663 1690 1643 1659 1654 1635 1677 1641 1625 1617 1700 1574 1571 1650 1569 1613 1655 1591 1569 1649 1613 1607 1636 1656 1595 1580 1585 1585 1590 1589 1635 1595 1563 1611 1600 1562 1609 1599 1633 1615 1608 1537 1574 1642 1524 1544 1622 1581 1532 1609 1432 1513 1569 1547 1522 1511 1518 1569 1480 1598 1529 1576 1528 1570 1605 1512 1549 1554 1642 1635 1603 1573 1571 1599 1603 1626 1683 1678 1562 1559 1604 1637 1627 1587 1528 1549 1551 1631 1569 1593 1616 1576 1571 1583 1566 1602 1569 1600 1615 1603 1598 1487 1513 1641 1619 1552 1537 1606 1572 1549 1500 1585 1504 1605 1577 1547 1583 1522 1517 1546 1489 1532 1539 1563 1528 1627 1465 1495 1431 1485 1477 1511 1566 1528 1551 1408 1522 1513 1508 1448 1534 1503 1507 1480 1495 1502 1549 1512 1476 1501 1530 1486 1518 1458 1510 1447 1447 1454 1450 1552 1560 1448 1477 1522 1496 1520 1498 1528 1432 1491 1473 1474 1476 1480 1465 1502 1529 1403 1452 1453 1540 1514 1446 1465 1498 1497 1503 1540 1502 1519 1535 1462 1509 1476 1498 1494 1500 1477 1548 1462 1486 1495 1470 1414 1539 1477 1460 1509 1482 1490 1522 1436 1402 1481 1462 1554 1464 1532 1430 1529 1462 1509 1490 1422 1393 1507 1442 1456 1495 1461 1521 1461 1416 1489 1578 1450 1436 1426 1520 1481 1558 1445 1461 1538 1509 1415 1474 1455 1492 1577 1536 1499 1471 1457 1479 1523 1447 1461 1537 1520 1478 1465 1426 1441 1485 1387 1437 1464 1407 1499 1470 1500 1498 1472 1517 1525 1439 1532 1502 1518 1532 1481 1464 1476 1469 1456 1485 1520 1522 1546 1450 1480 1482 1411 1479 1416 1470 1476 1447 1489 1443 1479 1470 1489 1469 1452 1551 1442 1519 1527 1545 1462 1492 1443 1406 1445 1450 1368 1424 1462 1500 1469 1473 1456 1573 1487 1437 1452 1457 1511 1466 1436 1438 1464 1476 1487 1524 1466 1420 1397 1484 1493 1451 1502 1444 1464 1432 1468 1520 1481 1470 1424 1499 1508 1377 1468 1486 1433 1455 1407 1520 1396 1466 1490 1545 1503 1462 1493 1499 1435 1539 1483 1442 1427 1429 1401 1523 1469 1502 1489 1525 1468 1451 1434 1485 1383 1516 1535 1420 1457 1510 1503 1501 1437 1458 1472 1426 1495 1449 1495 1455 1440 1516 1447 1434 1503 1462 1414 1427 1442 1502 1531 1481 1552 1455 1529 1438 1452 1449 1422 1492 1489 1489 1508 1486 1482 1386 1554 1429 1383 1470 1450 1434 1478 1474 1443 1512 1470 1429 1457 1450 1504 1411 1431 1446 1446 1471 1474 1444 1413 1446 1464 1535 1435 1454 1493 1411 1439 1429 1499 1519 1472 1420 1452 1494 1473 1519 1450 1487 1450 1475 1433 1429 1476 1458 1446 1530 1493 1430 1453 1441 1446 1414 1503 1466 1517 1438 1534 1455 1474 1547 1389 1462 1432 1418 1487 1496 1494 1519 1444 1458 1436 1542 1493 1452 1370 1418 1389 1492 1426 1398 1475 1468 1509 1427 1470 1469 1496 1451 1427 1434 1454 1482 1455 1413 1397 1503 1477 1411 1479 1400 1522 1492 1520 1514 1497 1510 1466 1448 1441 1469 1447 1486 1427 1417 1403 1551 1449 1477 1463 1503 1554 1516 1352 1529 1533 1499 1453 1513 1520 1452 1455 1474 1484 1538 1417 1488 1516 1469 1464 1480 1517 1510 1468 1449 1406 1480 1541 1515 1508 1510 1444 1528 1516 1517 1519 1519 1501 1463 1447 1416 1517 1514 1499 1506 1520 1478 1545 1568 1523 1526 1471 1520 1513 1484 1520 1437 1464 1462 1474 1552 1527 1529 1516 1551 1576 1560 1606 1505 1569 1597 1602 1625 1532 1581 1567 1577 1610 1618 1616 1701 1539 1584 1592 1644 1646 1557 1546 1519 1527 1606 1607 1595 1614 1593 1590 1497 1606 1663 1632 1561 1553 1600 1561 1591 1601 1557 1547 1612 1560 1681 1631 1619 1607 1622 1623 1654 1629 1604 1625 1635 1486 1593 1570 1611 1595 1513 1606 1548 1558 1581 1552 1590 1557 1582 1617 1540 1590 1478 1576 1493 1506 1515 1475 1494 1563 1496 1470 1497 1467 1529 1497 1463 1475 1536 1404 1433 1510 1501 1468 1570 1491 1459 1428 1430 1455 1460 1429 1485 1443 1512 1457 1450 1430 1461 1488 1513 1469 1482 1359 1526 1406 1417 1440 1474 1479 1469 1419 1441 1381 1460 1418 1466 1507 1451 1448 1431 1521 1412 1463 1494 1400 1475 1419 1414 1433 1424 1424 1426 1513 1453 1493 1424 1482 1475 1430 1415 1434 1426 1444 1389 1503 1504 1447 1397 1477 1387 1389 1412 1482 1412 1464 1474 1402 1464 1412 1370 1473 1423 1421 1427 1491 1470 1447 1461 1452 1450 1467 1460 1524 1466 1457 1452 1472 1439 1399 1400 1474 1495 1530 1433 1425 1503 1446 1447 1448 1433 1468 1354 1462 1500 1494 1469 1489 1494 1500 1436 1396 1459 1459 1395 1416 1432 1479 1476 1490 1424 1483 1489 1487 1425 1484 1433 1522 1532 1463 1434 1475 1453 1426 1449 1469 1452 1494 1458 1476 1420 1427 1414 1440 1485 1511 1533 1443 1472 1510 1407 1455 1474 1457 1480 1504 1515 1537 1511 1540 1578 1557 1616 1631 1643 1635 1698 1664 1767 1636 1728 1660 1701 1678 1687 1806 1763 1780 1787 1721 1757 1747 1756 1728 1667 1775 1878 1848 1721 1778 1738 1722 1724 1691 1705 1718 1685 1635 1675 1600 1634 1680 1674 1613 1589 1610 1590 1634 1668 1594 1629 1632 1619 1676 1692 1698 1584 1580 1667 1566 1607 1668 1569 1636 1673 1549 1576 1651 1619 1631 1579 1670 1503 1568 1569 1557 1589 1525 1564 1579 1570 1589 1525 1581 1500 1510 1499 1441 1417 1509 1499 1516 1551 1477 1426 1465 1501 1421 1427 1511 1468 1485 1439 1503 1502 1429 1501 1393 1459 1519 1480 1485 1407 1412 1465 1538 1406 1473 1471 1475 1449 1464 1444 1471 1447 1515 1440 1507 1463 1447 1421 1403 1470 1391 1418 1494 1450 1473 1495 1463 1466 1483 1459 1391 1513 1455 1470 1492 1427 1506 1416 1469 1454 1448 1401 1455 1428 1425 1485 1463 1414 1462 1506 1474 1458 1440 1482 1457 1504 1466 1485 1436 1497 1557 1483 1470 1487 1450 1532 1407 1497 1485 1464 1376 1464 1507 1447 1457 1452 1467 1387 1452 1450 1482 1461 1500 1484 1478 1465 1554 1498 1470 1490 1535 1462 1507 1585 1525 1563 1527 1538 1572 1522 1619 1499 1493 1533 1544 1487 1516 1525 1525 1525 1584 1577 1509 1526 1508 1530 1475 1518 1571 1487 1466 1553 1469 1473 1471 1476 1460 1486 1437 1492 1496 1443 1450 1430 1454 1526 1415 1396 1470 1525 1380 1436 1534 1426 1494 1477 1472 1460 1434 1483 1410 1476 1468 1487 1443 1469 1540 1447 1483 1419 1391 1486 1501 1449 1399 1482 1387 1395 1445 1387 1445 1483 1454 1446 1452 1365 1445 1411 1464 1447 1446 1442 1416 1457 1427 1398 1453 1375 1477 1378 1482 1424 1349 1408 1451 1465 1384 1465 1401 1433 1403 1390 1396 1391 1446 1392 1391 1451 1552 1398 1416 1439 1467 1362 1464 1333 1398 1413 1425 1458 1426 1425 1414 1379 1435 1354 1454 1471 1536 1443 1426 1492 1419 1375 1390 1388 1414 1452 1335 1454 1424 1428 1464 1454 1356 1451 1438 1459 1377 1435 1389 1383 1491 1418 1350 1383 1438 1380 1370 1435 1385 1374 1452 1385 1508 1408 1398 1381 1450 1358 1424 1364 1388 1396 1376 1404 1395 1424 1380 1431 1372 1430 1402 1508 1450 1432 1386 1410 1373 1410 1376 1501 1453 1391 1482 1448 1411 1372 1410 1395 1327 1426 1391 1412 1453 1375 1428 1420 1409 1375 1479 1435 1409 1451 1434 1367 1397 1384 1407 1424 1426 1409 1389 1403 1383 1403 1411 1446 1319 1426 1457 1385 1419 1477 1365 1435 1342 1446 1437 1350 1326 1397 1446 1348 1443 1322 1416 1346 1353 1447 1420 1402 1446 1398 1427 1414 1327 1371 1373 1381 1406 1390 1386 1389 1402 1426 1450 1415 1385 1382 1436 1378 1375 1305 1389 1370 1416 1418 1410 1394 1436 1389 1370 1379 1425 1468 1396 1364 1345 1430 1369 1340 1355 1403 1391 1316 1369 1429 1394 1385 1478 1372 1412 1352 1376 1353 1393 1449 1349 1401 1379 1413 1376 1401 1288 1412 1378 1379 1383 1365 1419 1406 1429 1401 1416 1412 1445 1390 1401 1383 1331 1395 1386 1421 1418 1347 1389 1363 1363 1439 1400 1408 1347 1358 1417 1431 1357 1397 1357 1351 1335 1344 1355 1348 1361 1345 1324 1411 1428 1374 1406 1410 1372 1423 1402 1419 1376 1347 1423 1427 1480 1397 1427 1312 1374 1389 1413 1421 1404 1413 1335 1362 1413 1427 1365 1350 1386 1349 1379 1460 1439 1408 1382 1353 1398 1348 1317 1366 1424 1368 1390 1380 1387 1379 1323 1453 1463 1359 1387 1401 1435 1390 1444 1401 1459 1380 1411 1433 1434 1335 1347 1383 1349 1403 1402 1401 1367 1427 1460 1402 1411 1416 1406 1363 1369 1417 1348 1382 1442 1418 1367 1399 1407 1334 1442 1427 1345 1356 1392 1405 1333 1477 1440 1420 1419 1398 1307 1481 1426 1429 1405 1364 1368 1306 1388 1353 1365 1333 1369 1400 1317 1378 1347 1386 1359 1334 1327 1382 1374 1392 1358 1406 1439 1393 1442 1383 1456 1395 1416 1342 1351 1406 1453 1408 1398 1401 1336 1447 1420 1447 1442 1411 1479 1418 1428 1433 1415 1458 1402 1424 1444 1383 1393 1454 1483 1388 1481 1422 1388 1437 1449 1323 1439 1398 1426 1440 1450 1447 1418 1413 1380 1477 1389 1475 1464 1396 1408 1440 1377 1420 1431 1401 1403 1387 1491 1439 1409 1460 1434 1426 1462 1392 1342 1451 1378 1427 1436 1382 1428 1453 1428 1407 1454 1401 1447 1421 1356 1365 1434 1413 1345 1358 1401 1443 1402 1436 1370 1322 1426 1407 1347 1364 1336 1434 1436 1380 1319 1501 1409 1361 1396 1423 1430 1434 1392 1381 1382 1377 1407 1450 1414 1395 1360 1344 1416 1359 1446 1314 1431 1348 1436 1352 1371 1374 1382 1337 1432 1381 1362 1357 1347 1345 1434 1355 1365 1450 1449 1432 1338 1388 1395 1342 1413 1291 1409 1463 1447 1354 1443 1344 1419 1428 1358 1446 1397 1440 1377 1396 1333 1356 1368 1402 1399 1382 1354 1404 1361 1341 1447 1400 1475 1429 1352 1382 1393 1389 1387 1367 1411 1424 1409 1382 1405 1343 1443 1374 1410 1490 1459 1437 1408 1411 1417 1313 1376 1412 1378 1327 1407 1383 1406 1365 1446 1444 1398 1414 1382 1361 1352 1382 1382 1345 1329 1390 1426 1354 1359 1368 1364 1333 1416 1348 1435 1414 1342 1358 1395 1334 1411 1419 1429 1325 1380 1393 1394 1370 1361 1334 1393 1347 1366 1417 1365 1312 1414 1370 1394 1427 1407 1379 1426 1395 1413 1433 1414 1344 1427 1307 1384 1426 1369 1384 1371 1395 1395 1394 1329 1348 1387 1445 1353 1383 1430 1369 1347 1397 1444 1304 1400 1373 1401 1420 1369 1353 1388 1457 1376 1372 1389 1328 1371 1376 1372 1379 1409 1373 1358 1395 1418 1360 1366 1398 1424 1424 1394 1400 1497 1476 1396 1458 1419 1498 1448 1454 1441 1429 1505 1465 1516 1461 1505 1500 1465 1465 1476 1538 1418 1473 1491 1505 1505 1409 1449 1481 1548 1496 1503 1460 1510 1417 1541 1506 1451 1429 1439 1467 1422 1400 1554 1392 1477 1519 1488 1396 1429 1424 1481 1417 1414 1477 1450 1413 1471 1516 1382 1448 1411 1506 1405 1494 1460 1532 1438 1403 1483 1491 1464 1411 1514 1432 1463 1391 1410 1412 1395 1415 1379 1469 1438 1378 1426 1463 1371 1442 1353 1402 1432 1441 1419 1406 1429 1297 1442 1352 1435 1357 1416 1410 1466 1438 1397 1444 1404 1391 1376 1408 1419 1435 1437 1320 1392 1401 1439 1371 1334 1403 1335 1412 1432 1387 1404 1396 1458 1455 1378 1341 1384 1388 1360 1332 1363 1300 1418 1378 1405 1426 1405 1378 1412 1370 1354 1447 1362 1446 1349 1372 1359 1394 1392 1444 1346 1343 1380 1348 1405 1420 1372 1372 1387 1393 1362 1339 1434 1387 1330 1396 1296 1410 1388 1359 1379 1305 1421 1339 1395 1368 1418 1439 1327 1328 1330 1452 1351 1330 1406 1369 1395 1393 1375 1353 1344 1330 1376 1363 1376 1396 1371 1415 1367 1363 1409 1393 1366 1397 1403 1365 1329 1389 1336 1391 1426 1380 1375 1339 1337 1442 1431 1368 1414 1374 1307 1414 1419 1380 1362 1375 1346 1318 1404 1342 1404 1398 1333 1406 1392 1409 1391 1312 1307 1332 1391 1300 1310 1375 1396 1385 1364 1372 1392 1384 1347 1397 1418 1344 1337 1397 1370 1348 1412 1421 1311 1360 1390 1407 1359 1346 1355 1406 1383 1335 1355 1401 1392 1313 1410 1374 1398 1395 1455 1344 1383 1325 1404 1342 1341 1420 1359 1374 1300 1425 1430 1400 1351 1369 1362 1377 1404 1366 1288 1316 1400 1400 1350 1261 1371 1365 1407 1395 1400 1370 1352 1324 1383 1358 1379 1389 1368 1398 1404 1405 1364 1402 1421 1364 1349 1378 1442 1343 1381 1380 1359 1397 1335 1332 1410 1419 1361 1370 1322 1380 1304 1373 1330 1403 1393 1445 1342 1373 1426 1452 1351 1395 1338 1367 1339 1347 1422 1410 1449 1349 1411 1376 1398 1325 1293 1388 1330 1403 1325 1410 1439 1365 1349 1363 1367 1350 1411 1334 1340 1376 1322 1369 1328 1326 1401 1438 1413 1378 1330 1377 1433 1397 1363 1360 1358 1311 1418 1387 1372 1393 1371 1331 1398 1326 1331 1340 1404 1330 1409 1360 1290 1399 1362 1296 1386 1399 1422 1331 1283 1377 1361 1283 1432 1320 1307 1346 1359 1344 1398 1368 1401 1436 1371 1425 1296 1397 1401 1330 1317 1421 1362 1398 1376 1330 1366 1384 1388 1387 1367 1395 1421 1413 1284 1449 1348 1416 1341 1377 1325 1334 1357 1400 1397 1388 1396 1334 1396 1332 1353 1403 1330 1362 1411 1389 1397 1387 1407 1364 1434 1369 1319 1347 1350 1344 1366 1387 1410 1348 1405 1309 1261 1341 1324 1347 1418 1346 1352 1337 1379 1384 1418 1432 1284 1399 1347 1431 1349 1347 1364 1285 1405 1361 1340 1372 1376 1364 1366 1347 1333 1386 1465 1416 1413 1293 1356 1433 1384 1392 1383 1346 1362 1324 1355 1372 1350 1403 1468 1376 1350 1319 1453 1430 1335 1455 1339 1349 1359 1443 1322 1350 1347 1377 1349 1327 1352 1390 1319 1376 1383 1354 1339 1416 1447 1400 1401 1407 1400 1374 1345 1358 1348 1343 1425 1403 1365 1476 1323 1422 1394 1336 1335 1358 1355 1353 1416 1370 1325 1377 1379 1348 1391 1313 1350 1402 1386 1352 1315 1361 1377 1392 1327 1423 1349 1421 1381 1319 1324 1384 1326 1406 1393 1326 1332 1395 1361 1405 1379 1366 1365 1473 1397 1396 1352 1351 1346 1434 1380 1393 1388 1335 1375 1344 1376 1396 1358 1388 1412 1503 1457 1450 1323 1319 1477 1389 1372 1366 1350 1378 1350 1425 1368 1355 1390 1414 1365 1460 1374 1329 1368 1413 1381 1403 1402 1379 1417 1407 1350 1355 1388 1363 1404 1430 1418 1462 1369 1403 1438 1461 1396 1445 1384 1428 1445 1428 1441 1399 1456 1394 1404 1333 1429 1394 1385 1397 1388 1434 1357 1378 1419 1474 1414 1426 1454 1396 1378 1371 1363 1330 1425 1348 1369 1383 1395 1416 1385 1418 1343 1343 1346 1401 1362 1418 1460 1388 1368 1438 1391 1428 1411 1451 1428 1381 1423 1402 1360 1461 1406 1407 1473 1445 1467 1485 1443 1438 1373 1403 1391 1490 1395 1414 1397 1456 1367 1472 1361 1420 1416 1322 1329 1364 1424 1368 1361 1412 1439 1388 1375 1399 1405 1439 1405 1361 1379 1406 1430 1321 1378 1433 1442 1425 1442 1443 1431 1425 1391 1405 1418 1413 1445 1389 1382 1409 1426 1407 1400 1394 1430 1381 1412 1382 1452 1408 1459 1361 1387 1389 1435 1374 1354 1392 1439 1378 1416 1412 1390 1426 1418 1382 1439 1407 1412 1393 1441 1420 1423 1424 1423 1407 1403 1473 1340 1459 1389 1402 1457 1461 1337 1444 1439 1369 1403 1412 1381 1342 1400 1384 1383 1380 1396 1334 1390 1274 1407 1330 1384 1388 1358 1406 1411 1446 1431 1386 1364 1399 1351 1347 1333 1405 1412 1362 1325 1397 1374 1416 1410 1379 1344 1344 1420 1375 1374 1332 1416 1431 1421 1366 1400 1346 1379 1321 1406 1406 1409 1347 1369 1416 1467 1421 1333 1355 1416 1371 1353 1415 1443 1387 1448 1294 1384 1401 1357 1345 1333 1376 1422 1441 1438 1396 1362 1394 1409 1386 1407 1354 1369 1449 1386 1418 1403 1375 1377 1455 1442 1471 1457 1434 1425 1446 1419 1514 1451 1391 1405 1495 1457 1503 1502 1566 1522 1589 1491 1557 1514 1561 1498 1622 1581 1551 1556 1608 1595 1660 1593 1611 1602 1566 1633 1614 1665 1594 1674 1734 1670 1606 1651 1646 1693 1629 1649 1630 1639 1582 1692 1637 1615 1685 1632 1540 1507 1583 1554 1607 1575 1538 1555 1515 1520 1563 1501 1663 1460 1541 1477 1535 1543 1505 1482 1441 1497 1532 1470 1542 1472 1473 1489 1514 1471 1456 1507 1500 1449 1416 1496 1509 1450 1518 1451 1516 1515 1517 1438 1479 1508 1478 1521 1464 1521 1579 1517 1450 1498 1455 1512 1471 1489 1471 1424 1544 1501 1458 1487 1457 1553 1450 1515 1516 1405 1392 1490 1495 1437 1439 1341 1476 1447 1472 1515 1512 1432 1368 1442 1465 1463 1422 1450 1463 1417 1492 1368 1458 1348 1418 1389 1411 1468 1397 1348 1383 1386 1403 1406 1456 1439 1428 1446 1315 1422 1380 1401 1379 1385 1389 1434 1347 1421 1484 1407 1388 1429 1422 1319 1406 1342 1413 1448 1426 1377 1420 1345 1430 1328 1346 1410 1444 1390 1496 1457 1485 1459 1448 1452 1416 1433 1418 1438 1398 1399 1408 1367 1424 1448 1436 1391 1412 1378 1430 1465 1439 1406 1434 1398 1408 1466 1422 1358 1449 1438 1410 1485 1395 1447 1456 1394 1402 1451 1410 1447 1496 1465 1377 1405 1423 1381 1410 1376 1422 1394 1370 1467 1405 1416 1382 1350 1426 1432 1431 1367 1363 1475 1490 1358 1416 1405 1404 1391 1374 1451 1430 1449 1412 1364 1427 1327 1333 1421 1327 1402 1403 1412 1391 1396 1367 1430 1477 1475 1386 1422 1365 1394 1379 1403 1320 1369 1418 1390 1431 1339 1392 1414 1391 1374 1395 1313 1420 1385 1394 1449 1353 1379 1419 1441 1334 1344 1379 1366 1356 1380 1375 1357 1450 1396 1419 1367 1382 1412 1402 1390 1346 1396 1354 1435 1387 1367 1347 1379 1359 1326 1390 1395 1384 1355 1362 1381 1357 1346 1353 1326 1389 1385 1322 1334 1316 1411 1372 1370 1310 1349 1395 1338 1399 1382 1407 1401 1367 1418 1404 1403 1343 1352 1424 1351 1345 1307 1397 1311 1369 1332 1407 1348 1381 1370 1419 1407 1401 1369 1370 1408 1408 1366 1336 1367 1421 1401 1371 1404 1338 1395 1391 1404 1359 1377 1405 1396 1379 1333 1364 1428 1298 1419 1327 1357 1380 1395 1344 1379 1329 1385 1367 1299 1389 1429 1348 1344 1434 1419 1350 1430 1363 1347 1360 1325 1389 1336 1391 1305 1352 1337 1368 1310 1334 1343 1367 1367 1360 1420 1339 1328 1346 1359 1377 1332 1363 1369 1288 1284 1369 1347 1352 1381 1328 1341 1296 1358 1361 1390 1401 1271 1360 1365 1304 1390 1314 1327 1348 1336 1396 1325 1367 1339 1340 1330 1360 1302 1315 1360 1306 1394 1353 1352 1366 1407 1400 1304 1386 1361 1307 1293 1407 1325 1359 1354 1302 1347 1330 1360 1407 1332 1338 1375 1367 1330 1433 1358 1318 1341 1363 1338 1392 1366 1394 1410 1366 1369 1343 1388 1308 1354 1413 1379 1334 1390 1333 1349 1376 1412 1329 1342 1369 1398 1315 1311 1338 1397 1422 1402 1316 1377 1338 1355 1347 1415 1316 1417 1333 1340 1376 1363 1351 1342 1340 1379 1361 1279 1312 1308 1315 1350 1366 1369 1346 1378 1313 1355 1315 1285 1318 1331 1371 1313 1294 1319 1361 1312 1438 1359 1352 1347 1347 1315 1368 1340 1325 1257 1343 1405 1395 1353 1323 1339 1339 1286 1373 1354 1374 1314 1381 1358 1408 1316 1326 1340 1367 1313 1364 1394 1372 1361 1428 1343 1402 1395 1452 1334 1345 1377 1359 1323 1358 1346 1384 1351 1343 1349 1417 1365 1349 1385 1450 1389 1371 1401 1481 1380 1370 1368 1356 1315 1418 1347 1351 1391 1364 1343 1322 1369 1372 1381 1348 1354 1382 1360 1397 1389 1409 1325 1337 1371 1408 1389 1407 1381 1358 1349 1385 1455 1406 1439 1415 1380 1331 1432 1361 1405 1422 1336 1381 1350 1367 1404 1485 1380 1410 1407 1389 1375 1413 1354 1401 1340 1352 1373 1334 1364 1358 1277 1350 1335 1393 1384 1358 1391 1400 1315 1391 1339 1397 1365 1365 1458 1289 1347 1383 1357 1345 1359 1416 1392 1332 1324 1320 1302 1400 1361 1294 1416 1330 1342 1439 1397 1367 1339 1412 1355 1346 1352 1310 1348 1393 1444 1361 1356 1439 1300 1314 1312 1283 1349 1377 1403 1388 1354 1327 1455 1355 1372 1312 1319 1350 1232 1329 1387 1367 1376 1385 1373 1319 1374 1331 1281 1327 1382 1415 1337 1319 1382 1371 1369 1363 1348 1353 1315 1359 1344 1381 1322 1335 1292 1315 1380 1374 1370 1312 1358 1353 1424 1346 1313 1326 1352 1314 1381 1377 1319 1357 1326 1430 1405 1338 1433 1335 1321 1318 1410 1369 1382 1398 1289 1377 1332 1338 1367 1358 1362 1321 1381 1342 1356 1340 1330 1306 1348 1423 1316 1278 1339 1364 1362 1391 1322 1365 1349 1335 1302 1354 1287 1391 1299 1377 1368 1359 1328 1365 1341 1340 1336 1352 1287 1304 1346 1327 1383 1372 1360 1384 1339 1335 1348 1313 1351 1327 1354 1372 1382 1394 1299 1351 1304 1351 1364 1353 1396 1311 1358 1309 1297 1415 1249 1267 1324 1440 1399 1413 1429 1313 1390 1395 1357 1368 1388 1381 1401 1429 1370 1303 1401 1408 1364 1450 1317 1375 1367 1338 1378 1271 1368 1352 1373 1439 1430 1361 1346 1385 1388 1353 1387 1376 1339 1394 1376 1326 1383 1384 1359 1401 1406 1329 1401 1440 1465 1441 1402 1466 1431 1510 1462 1466 1419 1483 1478 1457 1531 1469 1532 1509 1464 1545 1508 1597 1503 1580 1468 1536 1516 1517 1478 1523 1471 1533 1456 1496 1537 1568 1533 1531 1535 1507 1560 1516 1526 1482 1475 1476 1501 1515 1427 1419 1449 1491 1493 1421 1455 1432 1474 1432 1476 1436 1417 1382 1362 1435 1409 1380 1442 1334 1407 1390 1458 1418 1355 1374 1457 1413 1380 1435 1413 1429 1373 1377 1464 1455 1344 1379 1360 1451 1338 1422 1340 1433 1355 1421 1454 1441 1420 1419 1431 1456 1402 1400 1436 1399 1368 1418 1454 1449 1477 1463 1419 1399 1380 1432 1429 1446 1348 1428 1423 1459 1387 1416 1379 1389 1397 1423 1406 1321 1387 1382 1427 1362 1408 1359 1371 1448 1437 1327 1413 1405 1411 1435 1388 1328 1354 1397 1344 1386 1373 1399 1327 1357 1386 1360 1333 1328 1300 1399 1300 1286 1348 1328 1382 1437 1372 1337 1406 1303 1361 1348 1399 1371 1416 1309 1376 1363 1357 1362 1386 1375 1320 1323 1335 1315 1404 1349 1467 1290 1360 1295 1302 1373 1360 1367 1326 1384 1356 1382 1378 1368 1360 1431 1462 1372 1351 1338 1402 1371 1348 1379 1403 1407 1351 1394 1394 1363 1359 1336 1379 1321 1373 1385 1435 1396 1375 1381 1329 1342 1439 1437 1363 1382 1426 1393 1411 1372 1363 1410 1350 1373 1400 1320 1455 1396 1360 1327 1369 1354 1375 1376 1391 1391 1393 1362 1349 1312 1338 1316 1325 1336 1334 1327 1384 1292 1372 1433 1369 1341 1319 1380 1377 1364 1309 1365 1398 1359 1313 1323 1335 1319 1316 1340 1360 1350 1368 1364 1288 1345 1235 1335 1327 1352 1289 1346 1350 1367 1351 1395 1373 1376 1354 1316 1351 1392 1332 1397 1299 1344 1372 1340 1381 1343 1354 1315 1340 1331 1343 1321 1348 1324 1391 1368 1352 1348 1383 1341 1303 1375 1369 1411 1268 1311 1277 1327 1320 1327 1343 1351 1338 1326 1351 1362 1340 1357 1383 1325 1287 1319 1369 1363 1285 1359 1341 1295 1334 1364 1364 1400 1289 1348 1298 1428 1319 1354 1321 1311 1256 1379 1305 1386 1354 1355 1370 1391 1344 1412 1329 1332 1334 1358 1332 1402 1373 1358 1337 1352 1372 1304 1279 1266 1304 1375 1360 1327 1366 1383 1312 1333 1320 1309 1368 1352 1332 1274 1332 1377 1359 1321 1429 1286 1258 1338 1375 1367 1294 1323 1372 1339 1393 1352 1313 1292 1361 1368 1374 1376 1373 1281 1349 1373 1298 1316 1382 1366 1427 1374 1277 1352 1322 1354 1376 1302 1313 1371 1339 1381 1329 1378 1358 1316 1300 1358 1290 1359 1274 1381 1315 1344 1288 1339 1279 1366 1350 1429 1333 1329 1331 1331 1332 1349 1288 1339 1345 1349 1239 1368 1319 1345 1303 1331 1300 1257 1318 1263 1350 1403 1387 1340 1333 1321 1331 1342 1313 1302 1346 1318 1400 1350 1312 1289 1367 1367 1347 1346 1402 1357 1319 1368 1248 1312 1367 1284 1298 1331 1340 1397 1350 1347 1302 1362 1339 1365 1316 1301 1306 1353 1452 1266 1419 1349 1326 1342 1312 1273 1366 1314 1307 1340 1312 1244 1352 1327 1348 1330 1353 1392 1309 1331 1349 1364 1263 1264 1338 1410 1270 1304 1312 1356 1393 1363 1361 1343 1310 1278 1374 1295 1328 1300 1386 1339 1307 1260 1305 1366 1354 1337 1320 1408 1386 1378 1386 1448 1308 1345 1359 1370 1346 1323 1307 1367 1316 1346 1303 1371 1352 1385 1361 1338 1343 1375 1365 1310 1361 1315 1365 1374 1323 1385 1328 1340 1334 1266 1328 1322 1351 1305 1296 1360 1344 1348 1313 1319 1334 1336 1333 1327 1341 1302 1356 1384 1346 1302</counts>
			</dataPoints>
		</scan>
	</xrdMeasurement>
</xrdMeasurements>
