<?xml version="1.0"?>
<xrdMeasurements xmlns="http://www.xrdml.com/XRDMeasurement/2.3" xmlns:xsi="http://www.w3.org/2001/XMLSchema-instance" xsi:schemaLocation="http://www.xrdml.com/XRDMeasurement/2.3 http://www.xrdml.com/XRDMeasurement/2.3/XRDMeasurement.xsd" status="Completed" recordIdentifier="{BFCF4075-CCC3-4B58-B6AE-EE17CEC5A85B}">
	<comment>
		<entry/>
	</comment>
	<sample type="To be analyzed">
		<id>GPSS_Li1p7Co0p9Ta0p1Cl4_112225_6921f967f4e53d1f72397d38</id>
		<name></name>
		<preparedBy></preparedBy>
	</sample>
	<xrdMeasurement measurementType="Scan" status="Completed" sampleMode="Reflection">
		<usedWavelength intended="K-Alpha 1">
			<kAlpha1 unit="Angstrom">1.5405980</kAlpha1>
			<kAlpha2 unit="Angstrom">1.5444260</kAlpha2>
			<kBeta unit="Angstrom">1.3922500</kBeta>
			<ratioKAlpha2KAlpha1>0.5000</ratioKAlpha2KAlpha1>
		</usedWavelength>
		<incidentBeamPath>
			<radius unit="mm">145.00</radius>
			<xRayTube id="1010048" name="Empyrean Cu LFF HR (9430 033 7310x)">
				<tension unit="kV">40.0</tension>
				<current unit="mA">15.0</current>
				<anodeMaterial>Cu</anodeMaterial>
				<focus type="Line">
					<length unit="mm">12.0</length>
					<width unit="mm">0.4</width>
					<takeOffAngle unit="deg">6.0</takeOffAngle>
				</focus>
			</xRayTube>
			<sollerSlit id="21010002" name="Soller slits 0.04 rad.">
				<opening unit="rad">0.0400</opening>
			</sollerSlit>
			<mask id="22031000" name="Fixed mask 13 mm">
				<width unit="mm">9.00</width>
			</mask>
			<divergenceSlit id="22120001" name="Divergence slit 1°" xsi:type="fixedDivergenceSlitType">
				<distanceToSample unit="mm">50.00</distanceToSample>
				<height unit="mm">1.52</height>
			</divergenceSlit>
		</incidentBeamPath>
		<sampleMovement xsi:type="spinningSampleMovementType">
			<spinnerRevolutionTime unit="seconds">1.0</spinnerRevolutionTime>
		</sampleMovement>
		<diffractedBeamPath>
			<radius unit="mm">145.00</radius>
			<antiScatterSlit id="22090040" name="AS slit 9 mm (PIXcel)" xsi:type="fixedAntiScatterSlitType">
				<height unit="mm">9.00</height>
			</antiScatterSlit>
			<sollerSlit id="21020003" name="Large Soller slits 0.04 rad.">
				<opening unit="rad">0.0400</opening>
			</sollerSlit>
			<filter id="20030001" name="Large beta-filter Nickel">
				<material>Ni</material>
				<thickness unit="mm">0.020</thickness>
			</filter>
			<detector id="7010019" name="PIXcel1D-Medipix3 detector" xsi:type="rtmsDetectorType">
				<phd unit="keV">
					<lowerLevel>4.02</lowerLevel>
					<upperLevel>11.27</upperLevel>
				</phd>
				<mode>Scanning</mode>
				<activeLength unit="deg">5.542</activeLength>
			</detector>
		</diffractedBeamPath>
		<scan appendNumber="0" mode="Continuous" scanAxis="Gonio" status="Completed">
			<header>
				<startTimeStamp>2025-11-24T13:36:44-08:00</startTimeStamp>
				<endTimeStamp>2025-11-24T13:44:51-08:00</endTimeStamp>
				<author>
					<name>AutomatedUser</name>
				</author>
				<source>
					<applicationSoftware version="1.7b (136)">PANalytical Aeris Instrument Suite</applicationSoftware>
					<instrumentControlSoftware version="3.2.00000000 20240306">AERIS</instrumentControlSoftware>
					<instrumentID>950485</instrumentID>
				</source>
			</header>
			<dataPoints>
				<positions axis="2Theta" unit="deg">
					<startPosition>10.00943322</startPosition>
					<endPosition>99.99442286</endPosition>
				</positions>
				<positions axis="Omega" unit="deg">
					<startPosition>5.00471661</startPosition>
					<endPosition>49.99721143</endPosition>
				</positions>
				<commonCountingTime unit="seconds">12.495</commonCountingTime>
				<counts unit="counts">3853 3837 3766 3842 3813 3848 3890 3905 3816 3969 3802 3819 3706 3848 3878 3740 3875 3901 3826 3934 3907 3986 3877 4004 4031 4026 3914 3974 3947 3969 3912 3864 3799 3810 3961 3941 3824 3954 3991 3989 4019 4033 3908 3938 3954 3919 4098 3906 3954 4023 3883 3984 3998 3933 4025 3937 4007 4079 4047 3942 4093 4030 3965 4006 4072 3965 4144 4134 4149 4093 4005 4036 4145 4063 4227 4088 3977 4097 4086 4093 4114 4172 4107 4046 4143 4094 4105 4229 4043 4099 4063 4191 4051 4141 4139 4205 4198 4101 4070 4165 4137 4211 4264 4267 4281 4122 4234 4186 4320 4131 4147 4122 4162 4293 4302 4158 4223 4280 4380 4163 4290 4161 4296 4304 4379 4338 4107 4270 4294 4224 4104 4174 4259 4211 4235 4500 4334 4277 4238 4291 4158 4289 4291 4328 4429 4309 4303 4291 4286 4268 4264 4253 4410 4258 4446 4209 4338 4258 4210 4380 4360 4242 4277 4303 4385 4365 4332 4399 4396 4332 4182 4382 4405 4274 4361 4368 4211 4371 4238 4371 4363 4284 4298 4335 4375 4289 4417 4418 4403 4375 4401 4354 4373 4346 4419 4343 4409 4288 4280 4363 4367 4439 4279 4288 4272 4333 4236 4369 4314 4324 4229 4294 4276 4224 4294 4334 4291 4295 4426 4192 4399 4362 4320 4353 4376 4285 4393 4285 4313 4306 4301 4311 4303 4337 4264 4503 4343 4306 4226 4345 4366 4167 4369 4352 4275 4461 4271 4328 4255 4273 4253 4269 4314 4399 4346 4294 4395 4341 4416 4310 4223 4298 4239 4437 4288 4302 4404 4244 4326 4378 4238 4415 4372 4286 4312 4356 4294 4248 4372 4211 4287 4293 4418 4329 4360 4395 4307 4277 4439 4396 4430 4303 4296 4330 4217 4421 4492 4464 4379 4384 4384 4472 4376 4403 4371 4269 4348 4478 4399 4347 4375 4424 4460 4431 4480 4553 4424 4443 4439 4443 4507 4476 4377 4456 4446 4460 4517 4511 4583 4608 4549 4601 4506 4462 4455 4574 4475 4521 4561 4609 4595 4486 4512 4654 4647 4593 4555 4608 4685 4659 4612 4650 4662 4742 4629 4717 4669 4713 4680 4753 4716 4624 4624 4665 4746 4686 4797 4656 4748 4629 4790 4733 4748 4753 4870 4748 4758 4842 4771 4686 4869 4827 4941 4817 4773 4887 4866 4940 4780 4902 4838 4787 4968 4887 4884 4829 4835 4921 4950 4844 4925 4851 4887 4837 4993 4937 4937 4815 4809 4873 4917 4946 4896 4960 4827 4964 4917 5064 4911 4908 5079 5006 5066 4906 5120 5025 4944 5252 5215 5304 5243 5305 5325 5356 5393 5524 5579 5777 5683 5769 5840 5972 6071 6240 6015 6188 6318 6626 6554 6438 6599 6821 6760 7104 6864 6942 6842 6853 6738 6934 6707 6646 6422 6287 6439 6060 6089 6067 5846 5657 5455 5586 5339 5328 5449 5321 5329 5277 5217 5245 5142 5164 5227 5246 5176 5187 5230 5295 5129 5248 5062 5151 5007 5045 5018 4874 5016 4934 4862 4834 4758 4659 4851 4604 4821 4741 4675 4661 4668 4661 4723 4655 4535 4606 4691 4600 4662 4642 4531 4674 4423 4682 4560 4624 4584 4482 4594 4494 4575 4447 4573 4550 4509 4484 4492 4498 4567 4378 4412 4641 4632 4530 4480 4365 4405 4459 4467 4460 4426 4447 4496 4490 4500 4390 4533 4406 4588 4508 4380 4458 4341 4514 4438 4446 4429 4291 4356 4430 4490 4378 4441 4423 4431 4335 4303 4354 4411 4465 4401 4500 4283 4269 4454 4465 4483 4471 4455 4375 4331 4354 4329 4352 4418 4414 4363 4324 4298 4391 4392 4323 4472 4427 4474 4347 4330 4302 4305 4335 4501 4284 4332 4415 4292 4349 4371 4369 4379 4251 4311 4213 4273 4300 4312 4389 4290 4285 4419 4315 4430 4363 4201 4322 4317 4306 4304 4392 4263 4351 4348 4287 4279 4355 4390 4341 4387 4377 4471 4584 4427 4477 4467 4457 4517 4400 4532 4571 4505 4669 4565 4651 4735 4505 4571 4596 4570 4610 4570 4583 4750 4531 4573 4600 4629 4593 4580 4587 4490 4561 4450 4437 4411 4433 4475 4266 4268 4290 4279 4399 4329 4297 4311 4271 4255 4369 4365 4267 4285 4289 4295 4214 4292 4396 4419 4413 4342 4177 4333 4225 4346 4351 4356 4282 4263 4198 4299 4326 4282 4307 4438 4372 4304 4453 4334 4383 4329 4416 4432 4396 4465 4492 4451 4533 4396 4612 4629 4578 4591 4442 4480 4555 4649 4498 4599 4479 4425 4396 4437 4464 4336 4301 4326 4410 4333 4244 4209 4328 4387 4435 4234 4366 4164 4173 4346 4185 4293 4355 4182 4261 4297 4294 4206 4255 4343 4322 4268 4244 4246 4301 4228 4251 4327 4343 4134 4275 4238 4162 4274 4190 4220 4159 4225 4225 4240 4157 4155 4254 4264 4316 4143 4208 4142 4182 4150 4202 4227 4121 4099 4199 4278 4166 4219 4251 4276 4093 4151 4276 4127 4166 4166 4207 4186 4202 4096 4241 4281 4207 4257 4209 4162 4316 4084 4162 4102 4231 4145 4206 4249 4113 4239 4154 4184 4157 4131 4126 4088 4145 4128 4146 4181 4082 4223 4259 4217 4106 4118 4207 4117 4271 4075 4226 4202 4107 4062 4121 4291 4127 4047 4109 4190 4049 4173 4222 4266 4136 4168 4194 4117 4089 4083 4108 4193 4118 4130 4218 4301 4170 4108 4254 4081 4172 4117 4165 4237 4095 4133 4116 4168 4184 4243 4230 4023 4057 4147 4088 4206 4063 4185 4119 4118 4053 3999 4162 4096 4107 4045 3925 4061 4143 4061 4023 4014 4108 4132 4073 4006 4016 4209 4041 4122 4098 4102 4143 4139 4088 4058 4050 4141 4200 4112 4088 4004 4179 4110 4159 4017 4037 4169 4119 4158 3862 4164 4144 4072 4035 4057 4068 3956 3984 4181 4050 4064 3967 4132 4024 4185 4073 4055 4255 4032 4034 4143 3968 4120 4167 4048 4123 4073 4058 4096 4165 4077 4063 3993 4110 4164 4099 4010 4053 4124 4084 4069 4165 4063 4115 4055 4019 4135 4137 4175 4135 4120 4029 4110 4061 4090 4050 4139 4106 4072 4121 4073 4160 4066 4192 4204 4128 4116 4043 4103 4070 4152 3986 4250 4090 4106 4113 4120 4150 4292 4256 4043 4220 4159 4201 4162 4277 4151 4162 4103 4215 4216 4232 4218 4121 4288 4244 4125 4190 4098 4193 4187 4177 4146 4132 4163 4097 4109 4267 4340 4212 4261 4220 4319 4173 3981 4288 4156 4189 4188 4251 4131 4103 4268 4215 4247 4211 4180 4112 4247 4202 4262 4093 4200 4302 4249 4127 4183 4152 4114 4187 4175 4177 4118 4153 4137 4140 4267 4279 4123 4206 4274 4255 4156 4088 4151 4134 4132 4182 4206 4193 4158 4214 4153 4088 4110 4201 4174 4142 4209 4190 4120 4129 4142 4164 4141 4238 4165 4018 4111 4204 4094 4066 4223 4164 4058 4081 4147 4100 4094 4171 4284 4117 4117 4296 4124 4198 4060 4082 4026 4116 4141 3917 4097 4040 4195 4123 4076 4041 4115 4036 3966 4075 4018 4103 4073 3827 4012 4071 4114 4132 3987 3980 4066 4041 4053 4031 3953 3995 3999 3992 3933 4020 3970 4056 3933 3977 3985 4016 3894 3950 3806 3852 3844 3943 3826 3915 4034 3907 3836 4020 3968 3989 3926 3828 3946 3966 3935 3924 3954 3950 3738 3956 3998 3873 3944 3755 3934 3855 3915 3866 3874 3927 3892 3913 3860 3891 3789 3985 3782 3985 3797 3822 3829 3740 3881 3888 3869 3766 3855 3737 3910 3831 3740 3842 3843 3879 3817 3747 3699 3807 3807 3848 3703 3825 3873 3814 3755 3786 3773 3759 3713 3812 3608 3883 3806 3828 3775 3748 3723 3812 3767 3711 3757 3655 3586 3683 3693 3676 3862 3846 3678 3764 3652 3827 3848 3658 3754 3735 3832 3727 3680 3734 3717 3837 3744 3793 3760 3713 3692 3709 3735 3696 3722 3775 3670 3641 3730 3748 3815 3743 3594 3771 3669 3661 3884 3760 3732 3781 3768 3762 3876 3692 3771 3886 3850 3768 3821 3888 3847 3844 3915 3912 3911 3903 3910 3945 3854 3910 3966 3939 3981 4009 3917 4044 3984 3918 3998 3926 3909 3964 3882 3870 3899 3932 3828 4049 3830 3941 3899 3767 3961 3865 3942 3880 3786 3888 3801 3883 3790 3754 3792 3752 3855 3666 3795 3807 3653 3684 3633 3787 3599 3640 3702 3808 3751 3685 3664 3802 3671 3702 3632 3699 3738 3728 3678 3832 3717 3681 3732 3835 3718 3810 3720 3644 3793 3692 3710 3607 3761 3757 3676 3719 3735 3709 3727 3690 3738 3765 3820 3699 3688 3798 3627 3672 3702 3663 3839 3689 3765 3745 3632 3652 3708 3646 3602 3624 3686 3713 3750 3697 3807 3640 3762 3742 3656 3835 3827 3658 3844 3689 3676 3711 3687 3738 3747 3671 3741 3816 3752 3651 3620 3773 3711 3778 3819 3838 3836 3613 3758 3692 3775 3814 3691 3813 3702 3816 3888 3605 3780 3759 3802 3683 3849 3723 3704 3886 3777 3857 3711 3705 3711 3805 3819 3659 3722 3706 3839 3730 3677 3610 3781 3700 3720 3771 3701 3780 3801 3610 3730 3687 3736 3626 3728 3851 3652 3831 3820 3847 3778 3793 3766 3695 3749 3864 3708 3558 3654 3760 3742 3731 3706 3735 3747 3711 3636 3681 3735 3703 3657 3569 3686 3649 3685 3613 3601 3688 3734 3508 3623 3651 3681 3621 3657 3617 3654 3648 3722 3626 3662 3523 3605 3616 3588 3580 3577 3624 3611 3684 3552 3539 3652 3602 3562 3637 3528 3551 3653 3527 3612 3453 3611 3589 3445 3556 3520 3562 3610 3517 3468 3519 3696 3429 3578 3560 3621 3652 3486 3579 3501 3671 3633 3511 3523 3563 3526 3549 3524 3538 3519 3535 3460 3580 3425 3520 3429 3429 3487 3578 3542 3608 3530 3568 3481 3567 3520 3490 3416 3544 3418 3478 3581 3442 3458 3443 3440 3479 3441 3508 3414 3437 3488 3470 3499 3351 3512 3407 3494 3592 3551 3516 3522 3426 3440 3425 3425 3536 3353 3526 3516 3366 3510 3479 3453 3393 3412 3500 3446 3518 3482 3392 3399 3502 3448 3390 3367 3436 3395 3470 3567 3372 3405 3433 3306 3338 3304 3409 3425 3373 3523 3438 3354 3490 3419 3328 3428 3487 3449 3442 3426 3431 3422 3362 3454 3394 3499 3418 3423 3449 3442 3411 3450 3515 3517 3442 3437 3588 3482 3633 3599 3680 3708 3540 3648 3751 3751 3777 3781 3704 3724 3886 3780 3773 3812 3869 3725 3831 3816 3859 4003 3841 3906 3922 3932 3818 3894 3932 3964 4008 4021 4068 4035 4059 4048 4010 4019 3997 4005 3958 4089 3975 3894 3873 3800 3813 3885 3823 3695 3705 3733 3640 3589 3545 3539 3546 3524 3508 3370 3471 3522 3580 3503 3566 3570 3546 3492 3460 3549 3509 3558 3554 3526 3619 3608 3550 3390 3439 3484 3532 3496 3496 3523 3444 3447 3346 3302 3328 3476 3402 3477 3318 3486 3395 3343 3349 3430 3363 3424 3453 3381 3288 3358 3421 3364 3433 3519 3387 3396 3406 3536 3371 3503 3425 3422 3570 3633 3573 3750 3659 3772 4000 3769 3949 4100 3966 4084 4184 4184 4275 4361 4391 4508 4492 4590 4541 4630 4533 4681 4641 4691 4658 4544 4564 4471 4440 4495 4548 4340 4329 4210 4277 4185 4150 4268 4246 4177 3995 4100 4023 3908 3852 3818 3824 3652 3653 3577 3607 3508 3583 3600 3463 3409 3310 3383 3332 3242 3379 3234 3289 3309 3385 3202 3338 3283 3273 3310 3269 3321 3249 3254 3317 3144 3274 3206 3286 3281 3345 3410 3292 3302 3290 3231 3193 3181 3158 3304 3325 3250 3226 3233 3253 3166 3266 3228 3301 3218 3283 3255 3209 3232 3113 3237 3155 3184 3292 3195 3273 3148 3247 3386 3268 3176 3173 3357 3211 3280 3256 3274 3166 3256 3182 3261 3324 3218 3202 3178 3291 3196 3213 3291 3225 3219 3170 3229 3313 3131 3244 3234 3136 3301 3232 3145 3291 3243 3175 3293 3253 3252 3293 3177 3266 3202 3219 3142 3161 3111 3144 3301 3233 3288 3227 3149 3346 3147 3153 3306 3166 3154 3237 3162 3148 3210 3164 3215 3221 3163 3143 3181 3128 3107 3225 3089 3249 3205 3263 3195 3205 3148 3233 3137 3132 3176 3160 3223 3175 3183 3163 3272 3249 3248 3249 3203 3109 3167 3119 3165 3126 3130 3159 3157 3166 3206 3236 3009 3229 3180 3104 3124 3202 3177 3169 3239 3164 3125 3210 3126 3166 3182 3158 3180 3255 3125 3224 3222 3206 3168 3151 3142 3240 3186 3218 3182 3113 3169 3274 3152 3129 3104 3240 3155 3106 3250 3208 3149 3163 3228 2987 3044 3120 3163 3101 3175 3221 3092 3106 3147 3193 3291 3154 3179 3164 3163 3147 3098 3142 3226 3172 3134 3169 3204 3166 3154 3279 3136 3217 3188 3177 3256 3184 3178 3102 3263 3136 3249 3169 3173 3161 3212 3151 3259 3177 3225 3175 3057 3261 3117 3104 3179 3098 3268 3160 3185 3206 3227 3261 3316 3160 3173 3198 3144 3154 3187 3190 3122 3276 3258 3113 3153 3290 3112 3212 3219 3111 3237 3187 3130 3104 3253 3224 3085 3232 3250 3249 3279 3193 3172 3075 3000 3257 3154 3270 3093 3239 3136 3165 3200 3217 3143 3260 3219 3279 3193 3153 3345 3356 3184 3234 3169 3127 3190 3178 3194 3275 3263 3286 3236 3235 3191 3073 3289 3153 3269 3197 3239 3261 3265 3230 3194 3267 3378 3248 3256 3155 3209 3282 3277 3185 3378 3188 3333 3163 3221 3292 3259 3209 3349 3377 3393 3350 3391 3279 3241 3267 3269 3342 3408 3304 3366 3342 3448 3338 3449 3443 3612 3496 3584 3470 3618 3540 3796 3810 3831 3984 4064 4189 4271 4365 4430 4462 4593 4737 4940 4962 5052 5371 5539 5599 5744 5580 5846 6036 5950 6202 6009 6268 6137 6113 6260 6087 6281 6263 6238 6219 6243 6308 6166 6338 6499 6304 6519 6441 6711 6708 6873 6710 6828 6804 6834 6700 6700 6645 6496 6232 6166 5976 5911 5662 5450 5292 5182 4998 4792 4509 4358 4153 4099 4021 3858 3938 3807 3830 3848 3656 3768 3677 3581 3731 3633 3679 3817 3731 3694 3906 3717 3754 3810 3696 3735 3634 3704 3741 3757 3713 3690 3859 3690 3701 3719 3730 3669 3665 3527 3636 3639 3647 3688 3539 3645 3465 3540 3529 3460 3299 3419 3320 3499 3303 3278 3452 3262 3360 3353 3276 3250 3309 3163 3204 3349 3236 3223 3221 3202 3201 3162 3235 3186 3312 3264 3196 3152 3225 3288 3226 3216 3262 3233 3281 3242 3161 3201 3117 3218 3070 3338 3338 3254 3207 3194 3257 3179 3210 3223 3191 3176 3249 3167 3073 3204 3233 3248 3123 3196 3215 3206 3261 3260 3134 3262 3206 3297 3173 3172 3160 3197 3183 3132 3222 3218 3188 3089 3126 3268 3284 3318 3182 3231 3157 3192 3203 3244 3185 3281 3292 3110 3176 3197 3273 3033 3223 3207 3274 3143 3239 3188 3215 3180 3205 3181 3334 3112 3129 3303 3190 3262 3238 3276 3312 3183 3181 3186 3136 3212 3093 3208 3192 3246 3326 3069 3189 3148 3178 3210 3275 3230 3319 3111 3112 3196 3175 3137 3218 3160 3194 3123 3176 3162 3160 3316 3138 3201 3243 3146 3187 3211 3302 3302 3163 3252 3190 3076 3229 3201 3256 3202 3192 3219 3173 3119 3123 3135 3199 3272 3178 3238 3061 3238 3195 3198 3149 3131 3265 3047 3196 3323 3132 3102 3142 3248 3171 3198 3196 3145 3280 3308 3224 3129 3182 3213 3147 3191 3156 3225 3255 3180 3226 3331 3172 3271 3296 3224 3383 3141 3186 3247 3292 3294 3340 3421 3340 3294 3357 3405 3273 3319 3393 3434 3364 3265 3428 3236 3383 3308 3311 3318 3248 3175 3334 3316 3288 3325 3292 3299 3289 3267 3151 3283 3174 3229 3201 3190 3197 3105 3149 3189 3337 3256 3210 3219 3124 3143 3228 3107 3146 3204 3152 3191 3196 3179 3178 3273 3290 3287 3218 3176 3153 3122 3155 3142 3186 3193 3223 3192 3216 3160 3227 3201 3224 3206 3190 3228 3219 3143 3183 3196 3176 3258 3145 3213 3187 3166 3251 3313 3141 3221 3215 3190 3216 3106 3242 3250 3301 3352 3234 3241 3243 3308 3353 3330 3246 3371 3310 3381 3375 3441 3329 3383 3331 3366 3373 3380 3403 3402 3374 3381 3308 3234 3293 3249 3367 3324 3327 3247 3220 3250 3238 3194 3216 3197 3287 3219 3141 3115 3234 3241 3187 3088 3162 3160 3222 3136 3195 3220 3056 3233 3055 3189 3164 3103 3142 3117 3165 3107 3147 3219 3145 3123 3064 3098 3114 3314 3186 3021 3190 3146 3169 3230 3224 3122 3092 3143 3136 3164 3259 3255 3242 3106 3236 3131 3130 3133 3160 3194 3056 3259 3141 3235 3114 3121 3078 3103 3134 3165 3076 3204 3148 3129 3164 3165 3183 3172 3071 3105 3156 3204 3155 3178 3018 3148 3157 3155 3108 3159 3230 3139 3107 3188 3263 3107 3145 3126 3154 3203 3109 3082 3123 3153 3076 3148 3156 3140 3171 3130 3136 3203 3198 3267 3165 3176 3152 3152 3141 3112 3144 3099 3043 3120 3155 3108 3134 3216 3112 3172 3051 3056 3092 3118 3123 3102 3077 3044 3201 3100 3144 3085 3088 3120 3121 3077 3154 3180 3185 3170 3192 3074 3256 3146 3250 3181 3133 3136 3100 3134 3088 3250 3103 3149 3132 3058 3173 3127 3183 3166 3052 3281 3240 3138 3150 3087 3091 3185 3117 3159 3151 3020 3086 3207 3127 3187 3205 3165 3140 3074 3125 3126 3103 3046 3082 3109 3145 3156 3131 3215 3187 3106 3145 3184 3209 3177 3061 3157 3136 3194 3089 3241 3111 3194 3144 3099 3116 3099 3043 3180 3128 3115 3216 3176 3009 3143 3127 3173 3078 3148 3196 3105 3287 3115 3139 3160 3066 3116 3151 3147 3100 3136 2991 3063 3107 3076 3079 3349 3118 3228 3164 3065 3101 3228 3211 3185 3093 3123 3192 3047 3073 3116 3137 3164 3248 3128 3083 3166 3113 3137 3071 3106 3120 3222 3071 3206 3161 3155 3162 3031 3149 3143 3157 3115 3193 3174 3051 3166 3156 3169 3104 2986 3067 3271 3210 3202 3094 3222 3095 3143 3114 3214 3082 3053 3234 3147 3194 3151 3121 3089 3162 3269 3065 3156 3097 3192 3270 3271 3186 3221 3221 3248 3292 3287 3280 3285 3279 3272 3261 3304 3310 3248 3348 3255 3264 3366 3254 3210 3377 3260 3219 3307 3208 3215 3187 3172 3293 3129 3196 3221 3171 3241 3220 3228 3148 3193 3117 3234 3113 3182 3118 3128 3055 3213 3177 3295 3065 3130 3116 3101 3048 3118 3131 3216 3147 3156 3112 3158 3038 3110 3169 3099 3141 3258 3124 3161 3085 3178 3042 3178 3135 3141 3222 3002 3063 3182 3080 3215 3094 3155 3132 3053 3255 3068 3140 3232 3177 3121 3043 3130 3102 3156 3116 3173 3094 3144 3139 3246 3138 3079 3058 3143 3094 3117 3189 3070 3033 3209 3059 3216 3199 3075 3142 3161 3154 3135 3042 3088 3217 3189 3103 3118 3178 3214 3051 3098 3124 3035 3238 3117 3057 3093 3156 3073 3096 3095 3109 3202 3170 3119 3128 3004 3222 3161 3130 3078 3047 3106 3091 3070 3130 3053 3192 3233 3100 3075 3127 3125 3095 3164 3097 3218 3116 3136 3162 3111 3143 3086 3081 3013 3176 3208 3224 3078 3096 3145 3182 3096 3158 3135 3273 3142 3172 3205 3101 3139 3234 2976 3223 3165 3103 3146 3191 3129 3123 3103 3186 3076 3154 3084 3134 3105 3273 3180 3138 3158 3071 3164 3140 3146 3163 3157 3134 3147 3241 3082 3126 3118 3249 3180 3036 3198 3165 3194 3170 3226 3143 3215 3144 3229 3128 3081 3158 3229 3179 3154 3291 3187 3219 3248 3207 3318 3300 3241 3355 3370 3351 3417 3435 3333 3464 3439 3549 3499 3377 3321 3424 3457 3759 3498 3490 3602 3495 3544 3512 3443 3561 3526 3717 3541 3588 3600 3531 3571 3578 3636 3639 3628 3551 3583 3589 3667 3571 3736 3582 3652 3615 3544 3636 3647 3607 3573 3478 3497 3540 3382 3384 3328 3341 3468 3262 3345 3329 3243 3364 3305 3227 3138 3171 3207 3219 3281 3217 3098 3202 3164 3266 3188 3224 3262 3162 3209 3185 3129 3251 3270 3071 3150 3142 3128 3257 3141 3237 3228 3127 3138 3127 3252 3222 3242 3183 3222 3115 3195 3278 3163 3105 3293 3220 3195 3157 3181 3224 3212 3195 3207 3295 3236 3177 3196 3127 3280 3232 3293 3364 3227 3211 3281 3158 3205 3184 3243 3163 3241 3209 3210 3137 3232 3187 3162 3115 3108 3090 3123 3100 3177 3278 3158 3183 3124 3111 3123 3160 3111 3109 3170 3062 3204 3120 3125 3162 3154 3239 3072 3235 3158 3199 3209 3099 3290 3139 3072 3140 3206 3156 3131 3141 3041 3149 3165 3122 3130 3084 3146 3024 3125 2965 3097 3204 3234 3067 3053 3122 3119 3145 3073 3281 3191 3153 3217 3106 3110 3136 3095 3113 3139 3098 3092 3164 3226 3130 3051 3119 3124 3046 3102 3251 3233 3134 3138 3122 3088 3187 3202 3118 3304 3148 3190 3023 3019 3186 3085 3051 3102 3169 3080 3106 3178 3158 3070 3217 3139 3257 3122 3190 3180 3136 3080 3085 3260 3180 3188 3180 3085 3119 3089 3108 3197 3202 3184 3200 3278 3246 3096 3098 3189 3152 3228 3100 3027 3249 3105 3190 3122 3121 3030 3248 3118 3148 3234 3155 3147 3316 3147 3198 3269 3137 3076 3114 3148 3142 3146 3209 3113 3151 3108 3245 3162 3196 3163 3233 3171 3031 3171 3094 3131 3160 3110 3043 3126 3178 3258 3187 3224 3147 3175 3144 3108 3235 3187 3228 3138 3122 3211 3191 3119 3239 3227 3239 3179 3160 3208 3197 3247 3234 3168 3207 3126 3204 3188 3200 3094 3087 3094 3105 3190 3208 3223 3222 3141 3119 3195 3153 3207 3211 3079 3196 3177 3168 3205 3238 3263 3222 3174 3033 3171 3211 3166 3102 3055 3211 3206 3245 3234 3152 3214 3203 3212 3196 3146 3277 3305 3148 3202 3289 3264 3098 3199 3161 3308 3355 3316 3214 3361 3337 3230 3324 3283 3419 3412 3301 3307 3350 3492 3479 3521 3428 3607 3622 3562 3656 3721 3674 3867 3863 4079 4250 4248 4333 4481 4662 4741 4786 5009 4997 5277 5370 5315 5375 5461 5563 5730 5750 5634 5773 5692 5542 5581 5495 5488 5199 5137 4916 4896 4683 4716 4548 4396 4296 4252 4222 4063 3936 3954 3949 3669 3749 3616 3704 3639 3597 3599 3529 3533 3552 3685 3612 3617 3533 3665 3753 3601 3756 3726 3754 3614 3690 3780 3722 3744 3850 3590 3755 3560 3762 3549 3563 3502 3593 3520 3525 3434 3440 3444 3380 3488 3418 3377 3457 3276 3224 3367 3335 3277 3291 3442 3369 3272 3266 3456 3334 3360 3405 3362 3338 3379 3426 3417 3452 3457 3435 3501 3417 3594 3505 3495 3432 3474 3515 3513 3610 3487 3475 3547 3486 3471 3390 3407 3418 3422 3508 3381 3477 3435 3352 3346 3400 3322 3372 3392 3268 3279 3228 3334 3277 3174 3318 3256 3159 3316 3261 3216 3183 3140 3155 3272 3296 3244 3121 3142 3172 3105 3248 3234 3195 3228 3225 3102 3232 3305 3174 3361 3204 3145 3097 3191 3185 3189 3227 3086 3176 3138 3183 3210 3178 3102 3175 3287 3212 3203 3129 3230 3153 3162 3204 3159 3097 3255 3276 3206 3272 3158 3110 3209 3246 3289 3206 3341 3178 3242 3259 3218 3230 3257 3226 3200 3212 3200 3214 3107 3261 3267 3301 3087 3227 3170 3274 3325 3225 3261 3235 3329 3251 3265 3279 3327 3434 3345 3422 3341 3423 3431 3447 3563 3642 3545 3638 3589 3505 3566 3448 3515 3533 3718 3642 3442 3492 3498 3463 3375 3497 3419 3478 3368 3431 3419 3286 3416 3325 3381 3315 3256 3356 3262 3223 3264 3367 3343 3259 3283 3284 3259 3315 3302 3297 3409 3249 3366 3307 3343 3433 3383 3357 3285 3304 3374 3378 3266 3332 3256 3425 3324 3448 3370 3358 3247 3444 3319 3302 3266 3348 3257 3214 3307 3268 3270 3264 3279 3285 3304 3234 3267 3185 3248 3214 3230 3188 3229 3291 3229 3189 3279 3260 3235 3217 3262 3208 3366 3217 3318 3276 3269 3241 3356 3249 3291 3366 3302 3224 3281 3319 3223 3323 3355 3270 3204 3261 3272 3302 3335 3263 3181 3324 3169 3253 3244 3290 3287 3350 3225 3272 3246 3175 3185 3199 3217 3403 3216 3155 3228 3243 3211 3212 3229 3234 3274 3174 3139 3169 3152 3171 3104 3208 3243 3174 3168 3172 3046 3207 3134 3134 3190 3238 3181 3208 3165 3142 3086 3116 3078 3243 3134 3189 3156 3119 3231 3175 3188 3064 3180 3081 3220 3152 3034 3220 3035 3172 3164 3133 3119 3210 3149 3265 3150 3181 3167 3134 3134 3184 3164 3130 3233 3224 3236 3160 3192 3195 3208 3258 3195 3129 3059 3135 3096 3155 3181 3220 3114 3179 3214 3072 3191 3237 3105 3193 3192 3243 3076 3213 3198 3114 3194 3097 3152 3109 3119 3137 3243 3018 3108 3068 3239 3086 3194 3150 3116 3089 3216 3139 3109 3148 3094 3145 3228 3194 3099 3175 3232 3087 3319 3240 3160 3150 3120 3256 3044 3206 3023 3159 3104 3194 3145 3138 3258 3207 3188 3166 3140 3157 3255 3121 3210 3172 3163 3101 3116 3106 3224 3060 3065 3073 3123 3155 3097 3169 3182 3164 3107 3088 3125 3160 3156 3157 3040 3146 3088 3200 3152 3096 3157 3148 3176 3181 3099 3173 3250 3194 3174 3214 3090 3143 3185 3206 3201 3190 3198 3158 3185 3219 3080 3138 3164 3125 3102 3204 3180 3086 3072 3145 3172 3206 3183 3144 3229 3225 3208 3159 3208 3228 3225 3161 3115 3124 3112 3143 3185 3141 3155 3145 3106 3089 3248 3240 3222 3170 3141 3134 3139 3232 3193 3184 3223 3199 3163 3202 3320 3157 3310 3115 3120 3246 3223 3185 3296 3255 3185 3252 3139 3113 3257 3123 3255 3232 3101 3249 3220 3219 3141 3184 3219 3160 3051 3226 3103 3137 3203 3156 3243 3177 3187 3254 3252 3128 3159 3106 3185 3138 3236 3220 3142 3200 3177 3128 3148 3156 3135 3132 3174 3173 3197 3212 3257 3203 3159 3118 3223 3102 3321 3226 3154 3179 3097 3209 3127 3205 3125 3115 3076 3116 3197 3097 3122 3275 3086 3055 3079 3196 3158 3126 3186 3042 3164 3182 3173 3117 3144 3130 3200 3082 3059 3081 3047 3157 3084 3118 3125 3049 3112 3219 3260 3066 3028 3201 3170 3128 3168 3202 3082 3051 3251 3221 3266 3116 3215 3259 3105 3111 3235 3123 3171 3095 3152 3034 3279 3135 3216 3204 3140 3114 3152 3184 3151 3099 3072 3206 3182 3219 3104 3061 3173 3180 3140 3132 3197 3167 3104 3137 3123 3140 3125 3200 3085 3112 3166 3175 3178 3087 3110 3154 3209 3174 3180 3145 3140 3114 3208 3134 3142 3137 3100 3169 3100 3086 2995 3126 3231 3136 3187 3114 3164 3059 3264 3141 3092 3161 2987 3182 3255 3148 3220 3089 3202 3206 3184 3112 3294 3192 3259 3166 3155 3209 3195 3210 3301 3202 3287 3097 3187 3263 3180 3252 3199 3097 3151 3119 3279 3107 3167 3147 3166 3153 3134 3146 3189 3192 3247 3087 3207 3084 3203 3201 3226 3232 3226 3285 3277 3167 3253 3212 3317 3213 3161 3209 3236 3181 3325 3236 3229 3412 3300 3335 3414 3366 3268 3261 3415 3355 3435 3423 3422 3388 3441 3357 3383 3373 3353 3376 3395 3503 3322 3275 3316 3409 3431 3260 3458 3439 3431 3301 3392 3415 3354 3293 3246 3412 3388 3345 3426 3305 3324 3269 3327 3292 3297 3205 3356 3312 3251 3255 3247 3119 3254 3270 3307 3276 3307 3330 3343 3199 3300 3332 3392 3244 3321 3271 3369 3308 3279 3161 3287 3222 3306 3370 3284 3348 3330 3212 3390 3184 3314 3140 3183 3226 3267 3175 3135 3180 3202 3135 3114 3229 3147 3234 3140 3159 3114 3217 3178 3124 3133 3194 3159 3241 3019 3150 3201 3232 3161 3042 3028 3147 3074 3108 3258 3148 3116 3176 3113 3109 3150 3073 3040 3218 3160 3158 3117 3112 3213 3031 3158 3166 3128 3149 3115 3207 3174 3143 3234 3154 3150 3076 3252 3196 3179 3163 3162 3133 3098 3074 3123 3164 3118 3136 3128 3053 3184 3200 3236 3115 3086 3232 3144 3202 3140 3153 3142 3195 3138 3264 3288 3210 3170 3174 3097 3151 3122 3169 3091 3143 3184 3195 3156 3122 3251 3071 3118 3111 3156 3130 3238 3014 3152 3292 3185 3212 3086 3154 3197 3177 3146 3190 3180 3154 3139 3164 3099 3134 3213 3051 3240 3047 3092 3251 3104 3190 3205 3154 3087 3154 3132 3070 3181 3189 3192 3186 3204 3177 3165 3137 3260 3242 3160 3195 3130 3200 3065 3208 3095 3231 3115 3163 3210 3175 3257 3069 3083 3169 3188 3189 3150 3133 3200 3270 3156 3223 3249 3207 3249 3185 3113 3283 3244 3276 3182 3258 3325 3277 3193 3241 3237 3302 3230 3280 3347 3444 3341 3417 3401 3415 3443 3537 3575 3632 3531 3604 3652 3426 3512 3617 3546 3626 3639 3460 3494 3565 3465 3453 3552 3362 3479 3492 3426 3426 3382 3350 3382 3453 3448 3409 3395 3387 3419 3367 3494 3385 3291 3492 3424 3387 3457 3457 3531 3518 3510 3442 3399 3405 3501 3515 3413 3531 3457 3535 3523 3349 3386 3440 3393 3293 3439 3427 3378 3276 3394 3356 3380 3386 3251 3358 3311 3250 3191 3236 3246 3161 3155 3325 3167 3262 3134 3186 3140 3244 3104 3156 3136 3105 3255 3114 3294 3175 3140 3223 3155 3221 3195 3134 3152 3118 3160 3170 3251 3258 3116 3206 3129 3257 3218 3144 3166 3187 3139 3192 3172 3191 3238 3143 3151 3192 3163 3269 3207 3188 3186 3190 3285 3138 3256 3103 3219 3303 3184 3199 3264 3196 3231 3205 3145 3151 3203 3186 3259 3101 3232 3200 3256 3371 3208 3276 3193 3198 3174 3154 3250 3120 3290 3224 3278 3112 3163 3252 3291 3213 3125 3212 3198 3128 3181 3174 3122 3084 3156 3183 3193 3093 3232 3105 3213 3153 3166 3155 3220 3102 3159 3140 3240 3263 3096 3183 3228 3118 3156 3311 3136 3164 3283 3257 3150 3330 3261 3262 3338 3373 3252 3388 3319 3398 3254 3522 3442 3423 3267 3381 3438 3457 3398 3442 3364 3458 3507 3411 3374 3341 3260 3232 3271 3459 3282 3303 3290 3393 3210 3340 3337 3381 3363 3246 3200 3255 3198 3170 3147 3193 3224 3231 3360 3198 3217 3218 3167 3232 3195 3112 3296 3265 3171 3151 3117 3260 3193 3122 3248 3276 3262 3151 3178 3118 3258 3297 3229 3238 3214 3210 3165 3153 3121 3215 3166 3252 3208 3210 3184 3292 3143 3131 3232 3141 3132 3156 3187 3141 3286 3224 3234 3118 3127 3142 3117 3201 3217 3187 3182 3104 3132 3160 3198 3241 3055 3244 3228 3249 3193 3184 3191 3206 3096 3149 3174 3246 3130 3029 3139 3076 3109 3081 3048 3145 3105 3225 3117 3180 3150 3112 3155 3056 3112 3047 3167 3208 3118 3270 3228 3215 3172 3138 3173 3161 3160 3171 3164 3213 3226 3236 3198 3105 3159 3094 3203 3147 3136 3187 3223 3179 3205 3124 3116 3162 3163 3126 3184 3075 3284 3202 3091 3157 3100 3165 3143 3234 3123 3179 3180 3174 3089 3143 3160 3122 3151 3118 3250 3158 3167 3107 3206 3117 3185 3099 3219 3149 3248 3141 3178 3154 3093 3056 3096 3091 3114 3091 3168 3045 3157 3115 3188 2994 3152 3092 3081 3085 3086 3200 3183 3167 3057 3067 3183 3125 3238 3131 3166 3095 3146 3102 3103 3117 3079 3171 3058 3077 3141 3069 3283 3238 3203 3023 3181 3190 3098 3041 3201 3100 3162 3105 3129 3105 3206 3090 3099 3142 3046 3099 3063 3153 3210 3090 3163 3141 3156 3138 3220 3157 3210 3043 3196 3071 3151 3132 3206 3096 3159 3128 3115 3188 3159 3182 3071 3133 3099 3063 3099 3214 3106 3208 3169 3180 3141 3090 3113 3198 3163 3064 3120 3177 3124 3185 3047 3156 3185 3163 3161 3226 3134 3150 3102 3059 3135 3164 3274 3084 3098 3121 3078 3080 3169 3073 3165 3225 3042 3183 3176 3218 3167 3221 3179 3088 3220 3125 3118 3159 3054 3194 3055 3140 3128 3287 3189 3123 3154 3256 3248 3127 3176 3142 3110 3093 3215 3149 3256 3279 3147 3172 3169 3215 3174 3089 3162 3115 3179 3132 3141 3190 3181 3133 3123 3224 3154 3150 3185 3191 3143 3175 3098 3109 3265 3150 3127 3139 3079 3182 3139 3168 3123 3075 3092 3280 3123 3220 3108 3195 3201 3001 3156 3167 3161 3159 3137 3172 3236 3081 3219 3113 3218 3021 3120 3136 3151 3217 3119 3214 3124 3217 3085 3165 3043 3202 3183 3108 3125 3214 3004 3083 3128 3251 3222 3116 3155 3214 3108 3077 3192 3195 3201 3199 3116 3126 3267 3034 3205 3154 3124 3128 3172 3141 3181 3104 3133 3140 3034 3129 3097 3038 3214 3238 3202 3120 3049 3140 3100 3073 3043 3088 3107 3234 3112 3079 3202 3161 3083 3115 3231 3132 3066 3081 3200 3064 3096 3037 3146 3104 3209 3189 3146 3070 3152 3051 3059 3222 3070 3082 3087 3102 3017 3207 3166 3214 3151 3263 3098 3223 3142 3204 3175 3143 3196 3127 3169 3220 3223 3175 3135 3281 3205 3213 3208 3147 3260 3270 3192 3280 3130 3104 3263 3203 3076 3193 3201 3167 3261 3166 3191 3122 3149 3241 3097 3164 3239 3229 3206 3287 3256 3200 3255 3221 3237 3328 3170 3350 3175 3235 3291 3296 3214 3272 3229 3230 3148 3178 3198 3202 3133 3257 3184 3267 3218 3183 3112 3259 3200 3152 3138 3145 3172 3155 3238 3130 3148 3104 3035 3166 3191 3190 3083 3199 3236 3156 3215 3142 3101 3118 3154 3227 3096 3092 3228 3124 3241 3239 3215 3130 3098 3211 3193 3084 3113 3094 3214 3058 3254 3035 3166 3128 3212 3232 3237 3191 3186 3224 3053 3095 3104 3072 3140 3156 3228 3152 3125 3134 3104 3102 3021 3178 3151 3088 3068 3146 3131 3196 3108 3161 3100 3226 3148 3046 3173 3108 3224 3142 3200 3155 3103 3131 3147 3193 3111 3131 3103 3118 3274 3218 3152 3193 3167 3140 3144 3210 3099 3144 3116 3033 3151 3143 3220 3091 3185 3139 3210 3124 3078 3130 3117 3308 3207 3082 3079 3203 3065 3210 3160 3041 3119 3190 3033 3105 3217 3121 3102 3094 3114 3013 3188 3166 3170 3213 3206 3132 3202 3187 3056 3168 3058 3197 3099 3191 3168 3195 3118 3162 3177 3028 3127 3155 3284 3134 3192 3186 3123 3111 3224 3169 3168 3158 3127 3204 3145 3186 3237 3123 3115 3084 3222 3182 3189 3165 3100 3078 3346 3175 3145 3152 3114 3191 3222 3124 3121 3105 3113 3206 3231 3224 3218 3142 3236 3100 3119 3218 3175 3067 3128 3095 3200 3252 3211 3183 3070 3191 3142 3047 3082 3154 3172 3139 3155 3150 3157 3206 3266 3172 3156 3206 3261 3165 3165 3193 3166 3133 3253 3150 3236 3180 3320 3251 3280 3244 3247 3223 3229 3240 3356 3291 3331 3232 3322 3283 3308 3246 3249 3376 3240 3307 3275 3176 3298 3292 3285 3217 3364 3280 3088 3246 3250 3292 3124 3305 3128 3266 3301 3225 3187 3175 3141 3090 3220 3203 3199 3098 3198 3176 3225 3153 3218 3144 3184 3177 3153 3156 3302 3278 3196 3384 3348 3193 3282 3288 3290 3387 3293 3300 3324 3374 3290 3446 3402 3184 3236 3424 3307 3427 3396 3284 3265 3234 3214 3297 3162 3240 3078 3217 3362 3225 3136 3247 3222 3354 3249 3272 3152 3144 3148 3174 3278 3130 3109 3131 3268 3199 3174 3186 3124 3142 3150 3186 3226 3179 3067 3131 3202 3179 3192 3148 3073 3168 3084 3176 3162 3022 3196 3085 3154 3160 3084 3183 3113 3169 3193 3148 3106 3120 3156 3211 3183 3120 3155 3059 3150 3051 3216 3162 3219 3171 3068 3121 3134 3132 3104 3108 3147 3150 3187 3072 3163 3134 3062 3145 3116 3122 3071 3134 3147 3146 3141 3323 3248 3175 3172 3149 3129 3112 3237 3178 3102 3264 3158 3137 3042 3207 3106 3214 3198 3149 3165 3261 3192 3226 3065 3076 3176 3144 3160 3271 3133 3140 3149 3133 3144 3188 3157 3193 3036 3182 3143 3127 3298 3144 3214 3098 3141 3167 3161 3144 3146 3244 3139 3125 3116 3171 3207 3200 3138 3147 3273 3186 3133 3140 3056 3096 3153 3158 3233 3181 3150 3215 3125 2974 3133 3154 3141 3180 3092 3190 3177 3139 3209 3115 3161 3186 3220 3068 3232 3057 3167 3190 3179 3156 3139 3067 3231 3170 3188 3168 3208 3217 3137 3171 3220 3075 3138 3014 3109 3225 3114 3185 3131 3056 3154 3137 3166 3172 3060 3170 3159 3186 3166 3103 3238 3059 3144 3311 3138 3138 3164 3105 3157 3066 3184 3208 3133 3180 3165 3217 3147 3229 3126 3214 3236 3234 3178 3066 3186 3243 3086 3208 3183 3281 3266 3198 3110 3189 3260 3156 3207 3031 3124 3129 3128 3235 3271 3213 3159 3160 3218 3109 3047 3112 3215 3189 3156 3078 3219 3136 3165 3224 3192 3163 3202 3095 3118 3089 3131 3156 3217 3081 3108 3187 3192 3019 3055 3268 3129 3155 3279 3123 3236 3135 3199 3222 3076 3157 3107 3068 3170 3084 3116 3183 3210 3052 3205 3074 3142 3105 3101 3079 3166 3086 3113 3067 3149 3101 3121 3145 3223 3100 3127 3211 3114 3168 3143 3116 3132 3134 3169 3224 3090 3155 3089 3190 3085 3194 3186 3178 3138 3176 3094 3098 3143 3231 3186 3120 3120 3121 3036 3116 3148 3103 3192 3070 3195 3163 3213 3111 3177 3118 3207 3128 3185 3094 3145 3199 3184 3126 3083 3145 3107 3090 3142 3179 3112 3158 3221 3222 3206 3144 3172 3090 3169 3213 3134 3108 3231 3224 3041 3140 3242 3184 3142 3267 3178 3096 3136 3109 3189 3244 3247 3211 3137 3223 3127 3068 3150 3202 3119 3130 3101 3073 3182 3219 3246 3024 3161 3208 3163 3145 3132 3147 3232 3128 3129 3156 3207 3164 3160 3088 3161 3169 3214 3111 3221 3126 3191 3213 3218 3168 3081 3302 3109 3198 3159 3177 3097 3102 3113 3227 3109 3231 3152 3171 3174 3198 3287 3143 3162 3215 3057 3079 3143 3100 3199 3214 3179 3128 3109 3117 3116 3104 3183 3169 3166 3120 3049 3150 3104 3089 3221 3246 3136 3085 3149 3168 3143 3238 3212 3289 3059 3284 3134 3214 3103 3201 3235 3071 3154 3161 3195 3227 3243 3207 3149 3133 3198 3087 3128 3089 3127 3129 3189 3132 3250 3113 3056 3212 3220 3237 3205 3080 3095 3124 3126 3242 3235 3135 3116 3121 3227 3196 3112 3149 3076 3208 3188 3131 3199 3136 3171 3092 3112 3084 3070 3117 3194 3153 3210 3160 3215 3122 3263 3163 3134 3194 3150 3157 3106 3097 3258 3079 3052 3118 3207 3213 3175 3223 3194 3020 3145 3212 3271 3151 3196 3142 3194 3044 3171 3233 3097 3093 3122 3135 3208 3130 3203 3082 3154 3179 3198 3121 3164 3020 3175 3198 3201 3249 3150 3253 3082 3181 3311 3265 3232 3165 3265 3177 3238 3222 3294 3283 3351 3222 3208 3264 3274 3172 3152 3238 3242 3266 3210 3184 3148 3230 3195 3168 3123 3259 3218 3229 3112 3263 3218 3255 3311 3048 3240 3175 3216 3183 3176 3222 3225 3196 3220 3193 3183 3237 3280 3232 3139 3210 3200 3101 3039 3243 3198 3321 3066 3199 3199 3257 3215 3271 3264 3261 3225 3191 3334 3257 3273 3141 3172 3262 3146 3318 3166 3107 3181 3249 3209 3189 3245 3297 3238 3324 3136 3317 3210 3208 3200 3286 3158 3229 3204 3257 3298 3340 3219 3277 3316 3310 3210 3276 3297 3292 3227 3269 3304 3180 3260 3245 3268 3227 3063 3111 3119 3286 3267 3219 3136 3288 3282 3195 3208 3147 3248 3256 3200 3249 3127 3229 3201 3231 3179 3147 3232 3305 3151 3266 3283 3182 3243 3178 3176 2972 3149 3111 3215 3210 3205 3217 3143 3182 3206 3213 3133 3134 3168 3225 3161 3177 3171 3183 3155 3200 3176 3173 3250 3187 3358 3152 3105 3322 3171 3266 3147 3243 3210 3203 3250 3220 3368 3125 3208 3135 3213 3311 3108 3160 3137 3241 3189 3277 3211 3229 3130 3113 3118 3191 3223 3257 3195 3183 3127 3156 3221 3267 3048 3235 3253 3249 3283 3266 3168 3225 3141 3248 3241 3164 3215 3253 3117 3164 3253 3119 3098 3111 3193 3169 3206 3124 3260 3196 3213 3251 3185 3359 3165 3244 3109 3270 3180 3067 3173 3250 3250 3128 3295 3389 3162 3124 3145 3191 3248 3189 3200 3172 3236 3189 3185 3243 3091 3180 3211 3223 3236 3206 3102 3258 3198 3186 3306 3141 3281 3311 3186 3170 3425 3229 3290 3125 3196 3300 3219 3345 3243 3288 3289 3306 3270 3263 3285 3337 3383 3432 3438 3496 3505 3590 3488 3500 3445 3577 3513 3563 3451 3465 3582 3432 3342 3504 3519 3465 3410 3612 3372 3367 3386 3436 3278 3459 3556 3458 3470 3538 3522 3595 3514 3391 3558 3598 3495 3519 3461 3560 3488 3447 3366 3542 3453 3409 3523 3436 3537 3522 3593 3398 3519 3475 3525 3575 3469 3512 3572 3522 3424 3396 3359 3338 3362 3452 3322 3383 3307 3310 3396 3320 3458 3364 3293 3389 3282 3360 3376 3266 3350 3346 3431 3362 3339 3304 3256 3354 3451 3251 3321 3330 3286 3358 3200 3248 3353 3312 3294 3348 3351 3268 3250 3326 3364 3397 3243 3266 3330 3255 3302 3336 3251 3197 3187 3223 3242 3237 3310 3192 3251 3293 3241 3191 3246 3184 3352 3208 3203 3161 3312 3211 3273 3260 3238 3300 3168 3327 3246 3242 3375 3238 3350 3255 3223 3121 3101 3133 3232 3152 3209 3200 3225 3152 3270 3229 3194 3172 3106 3237 3156 3215 3260 3138 3179 3290 3255 3061 3166 3196 3204 3203 3380 3223 3173 3134 3219 3251 3151 3221 3186 3334 3131 3206 3232 3217 3264 3265 3322 3205 3269 3193 3250 3259 3302 3262 3246 3260 3286 3155 3281 3216 3230 3287 3275 3256 3273 3267 3330 3362 3356 3290 3269 3229 3259 3163 3215 3289 3300 3287 3131 3195 3282 3261 3250 3326 3224 3263 3240 3159 3279 3291 3295 3379 3274 3333 3331 3326 3318 3246 3310 3222 3160 3145 3227 3243 3222 3308 3245 3231 3292 3265 3208 3222 3204 3288 3225 3237 3241 3161 3246 3186 3176 3226 3308 3249 3247 3253 3243 3318 3161 3254 3174 3102 3226 3267 3185 3239 3236 3131 3191 3254 3189 3184 3304 3232 3288 3283 3220 3192 3149 3193 3111 3114 3122 3155 3193 3192 3205 3101 3237 3194 3123 3100 3226 3177 3167 3258 3254 3144 3205 3128 3236 3196 3131 3115 3223 3150 3144 3063 3139 3120 3092 3116 3108 3127 3240 3183 3286 3223 3209 3183 3216 3141 3229 3266 3291 3279 3118 3114 3145 3176 3192 3131 3146 3267 3167 3217 3163 3155 3064 3272 3160 3198 3200 3223 3182 3201 3198 3133 3177 3276 3166 3186 3198 3249 3096 3204 3160 3181 3284 3119 3238 3178 3271 3244 3140 3233 3223 3207 3252 3217 3095 3117 3131 3125 3242 3176 3225 3133 3166 3096 3246 3177 3247 3240 3114 3200 3039 3290 3235 3125 3165 3252 3259 3187 3125 3110 3174 3358 3091 3116 3226 3234 3226 3168 3178 3161 3081 3131 3289 3205 3247 3209 3229 3120 3254 3087 3140 3027 3135 3073 3239 3046 3172 3095 3141 3113 3164 3168 3227 3086 3163 3149 3186 3187 3195 3186 3191 3235 3213 3111 3162 3050 3224 3189 3242 3184 3087 3279 3223 3110 3173 3131 3162 3175 3138 3265 3124 3181 3131 3123 3250 3200 3245 3248 3199 3295 3208 3197 3232 3123 3072 3161 3258 3114 3230 3154 3134 3246 3232 3055 3206 3135 3261 3201 3236 3068 3187 3241 3156 3146 3198 3183 3218 3269 3246 3132 3169 3123 3113 3162 3205 3137 3138 3208 3156 3158 3138 3216 3158 3288 3076 3208 3126 3193 3217 3160 3213 3153 3190 3159 3209 3136 3255 3224 3267 3133 3178 3201 3167 3166 3232 3202 3248 3213 3096 3220 3119 3164 3177 3186 3115 3143 3175 3192 3154 3166 3205 3187 3189 3138 3209 3235 3217 3148 3142 3185 3266 3231 3126 3234 3165 3347 3140 3144 3285 3147 3368 3097 3271 3171 3230 3278 3104 3169 3161 3221 3180 3170 3204 3163 3208 3132 3168 3214 3205 3027 3217 3220 3136 3202 3165 3203 3244 3198 3289 3177 3154 3107 3056 3029 3125 3116 3186 3225 3182 3156 3168 3190 3161 3247 3113 3152 3258 3059 3187 3175 3254 3154 3181 3197 3265 3266 3299 3161 3188 3211 3174 3170 3238 3107 3204 3203 3213 3201 3203 3308 3169 3251 3186 3196 3113 3296 3185 3235 3229 3192 3143 3207 3321 3146 3271 3274 3227 3153 3237 3214 3292 3296 3261 3168 3200 3087 3132 3193 3199 3172 3241 3306 3332 3207 3287 3196 3171 3260 3128 3245 3237 3159 3155 3271 3182 3204 3165 3197 3305 3174 3170 3109 3064 3132 3088 3260 3120 3216 3235 3146 3194 3238 3300 3205 3177 3264 3307 3193 3219 3012 3239 3216 3186 3148 3195 3152 3144 3119 3169 3249 3035 3142 3272 3171 3234 3282 3165 3172 3141 3239 3147 3259 3119 3205 3236 3232 3195 3176 3139 3248 3215 3197 3232 3222 3254 3155 3193 3188 3199 3239 3214 3191 3190 3207 3163 3271 3192 3093 3106 3134 3199 3075 3130 3100 3292 3225 3308 3160 3117 3302 3206 3170 3050 3291 3283 3223 3165 3201 3191 3316 3092 3233 3301 3167 3230 3274 3292 3169 3198 3114 3213 3220 3160 3202 3196 3186 3237 3300 3206 3284 3192 3198 3078 3159 3134 3109 3291 3116 3134 3196 3137 3205 3175 3145 3217 3140 3117 3116 3208 3166 3181 3185 3220 3179 3276 3214 3212 3228 3145 3196 3231 3188 3156 3240 3052 3180 3149 3284 3221 3246 3268 3179 3198 3173 3128 3207 3139 3231 3250 3052 3096 3216 3143 3207 3135 3225 3236 3144 3231 3191 3210 3238 3155 3178 3242 3128 3062 3169 3185 3060 3214 3199 3150 3144 3186 3234 3162 3157 3292 3140 3255 3260 3133 3137 3153 3182 3161 3167 3217 3258 3201 3175 3183 3181 3238 3252 3210 3099 3310 3186 3102 3299 3135 3173 3267 3184 3282 3307 3202 3240 3195 3154 3215 3288 3173 3264 3250 3263 3272 3187 3216 3222 3213 3160 3124 3260 3150 3234 3174 3253 3284 3185 3200 3246 3219 3246 3364 3266 3248 3207 3290 3293 3349 3313 3370 3303 3378 3231 3351 3312 3328 3307 3317 3312 3302 3356 3215 3228 3299 3280 3251 3331 3253 3509 3472 3310 3338 3250 3413 3509 3425 3331 3369 3514 3452 3535 3435 3439 3443 3517 3484 3448 3338 3388 3296 3305 3358 3332 3331 3372 3323 3364 3306 3368 3301 3357 3331 3291 3426 3326 3225 3338 3359 3281 3325 3332 3201 3246 3253 3287 3333 3256 3221 3129 3181 3302 3291 3274 3232 3205 3222 3239 3308 3293 3251 3340 3235 3185 3288 3243 3308 3209 3271 3251 3325 3354 3361 3367 3386 3240 3250 3368 3319 3427 3346 3468 3401 3220 3351 3306 3333 3307 3386 3221 3352 3377 3267 3284 3300 3233 3200 3223 3321 3282 3282 3291 3254 3340 3289 3239 3275 3349 3392 3165 3233 3271 3277 3159 3368 3246 3194 3265 3311 3267 3284 3242 3251 3267 3275 3209 3289 3195 3137 3272 3220 3156 3292 3235 3219 3130 3217 3238 3155 3183 3130 3313 3200 3209 3317 3211 3210 3183 3144 3180 3170 3305 3165 3241 3206 3198 3243 3250 3189 3238 3228 3212 3229 3167 3150 3175 3178 3202 3248 3170 3285 3157 3137 3168 3130 3198 3268 3136 3222 3209 3171 3270 3231 3191 3125 3223 3162 3213 3168 3169 3198 3354 3246 3217 3214 3253 3198 3210 3128 3158 3207 3264 3293 3265 3187 3302 3197 3208 3135 3186 3089 3259 3205 3083 3315 3223 3197 3271 3238 3210 3290 3254 3110 3260 3302 3223 3175 3124 3284 3241 3262 3328 3294 3251 3158 3300 3169 3248 3248 3222 3226 3277 3358 3231 3282 3253 3235 3303 3266 3196 3205 3307 3171 3293 3255 3291 3226 3273 3269 3258 3274 3287 3169 3268 3196 3194 3363 3165 3257 3214 3208 3326 3263 3201 3315 3175 3222 3191 3188 3127 3199 3296 3194 3248 3212 3161 3204 3167 3228 3239 3270 3161 3237 3189 3198 3301 3259 3232 3185 3229 3251 3276 3214 3159 3174 3145 3163 3172 3140 3197 3156 3163 3223 3199 3222 3141 3181 3298 3259 3185 3280 3117 3182 3268 3204 3145 3137 3147 3188 3089 3110 3161 3190 3221 3225 3286 3139 3144 3252 3220 3219 3231 3244 3144 3183 3160 3303 3190 3190 3259 3073 3217 3130 3195 3159 3143 3189 3211 3271 3200 3154 3141 3130 3167 3285 3114 3152 3239 3168 3209 3221 3171 3250 3121 3260 3185 3152 3229 3157 3241 3109 3237 3141 3191 3169 3187 3226 3207 3184 3171 3184 3188 3188 3139 3162 3196 3248 3280 3230 3128 3216 3163 3150 3221 3144 3121 3244 3158 3233 3098 3274 3117 3169 3225 3181 3280 3141 3259 3198 3234 3180 3210 3173 3120 3267 3152 3227 3136 3323 3240 3218 3035 3218 3098 3206 3141 3161 3208 3273 3198 3172 3188 3226 3184 3147 3202 3166 3143 3299 3197 3272 3209 3322 3210 3205 3180 3230 3225 3240 3098 3125 3146 3243 3228 3278 3128 3233 3146 3221 3234 3308 3136 3271 3147 3276 3290 3210 3171 3169 3205</counts>
			</dataPoints>
		</scan>
	</xrdMeasurement>
</xrdMeasurements>
