<?xml version="1.0"?>
<xrdMeasurements xmlns="http://www.xrdml.com/XRDMeasurement/2.3" xmlns:xsi="http://www.w3.org/2001/XMLSchema-instance" xsi:schemaLocation="http://www.xrdml.com/XRDMeasurement/2.3 http://www.xrdml.com/XRDMeasurement/2.3/XRDMeasurement.xsd" status="Completed" recordIdentifier="{0D5DEF0A-BFBE-4711-B3B3-6A5AFDD3EA09}">
	<comment>
		<entry/>
	</comment>
	<sample type="To be analyzed">
		<id>GPSS_Li1p5Mn0p4V0p25Y0p25Mg0p1Cl4_112425_69248ac4f4e53d1f723993c8</id>
		<name></name>
		<preparedBy></preparedBy>
	</sample>
	<xrdMeasurement measurementType="Scan" status="Completed" sampleMode="Reflection">
		<usedWavelength intended="K-Alpha 1">
			<kAlpha1 unit="Angstrom">1.5405980</kAlpha1>
			<kAlpha2 unit="Angstrom">1.5444260</kAlpha2>
			<kBeta unit="Angstrom">1.3922500</kBeta>
			<ratioKAlpha2KAlpha1>0.5000</ratioKAlpha2KAlpha1>
		</usedWavelength>
		<incidentBeamPath>
			<radius unit="mm">145.00</radius>
			<xRayTube id="1010048" name="Empyrean Cu LFF HR (9430 033 7310x)">
				<tension unit="kV">40.0</tension>
				<current unit="mA">15.0</current>
				<anodeMaterial>Cu</anodeMaterial>
				<focus type="Line">
					<length unit="mm">12.0</length>
					<width unit="mm">0.4</width>
					<takeOffAngle unit="deg">6.0</takeOffAngle>
				</focus>
			</xRayTube>
			<sollerSlit id="21010002" name="Soller slits 0.04 rad.">
				<opening unit="rad">0.0400</opening>
			</sollerSlit>
			<mask id="22031000" name="Fixed mask 13 mm">
				<width unit="mm">9.00</width>
			</mask>
			<divergenceSlit id="22120001" name="Divergence slit 1°" xsi:type="fixedDivergenceSlitType">
				<distanceToSample unit="mm">50.00</distanceToSample>
				<height unit="mm">1.52</height>
			</divergenceSlit>
		</incidentBeamPath>
		<sampleMovement xsi:type="spinningSampleMovementType">
			<spinnerRevolutionTime unit="seconds">1.0</spinnerRevolutionTime>
		</sampleMovement>
		<diffractedBeamPath>
			<radius unit="mm">145.00</radius>
			<antiScatterSlit id="22090040" name="AS slit 9 mm (PIXcel)" xsi:type="fixedAntiScatterSlitType">
				<height unit="mm">9.00</height>
			</antiScatterSlit>
			<sollerSlit id="21020003" name="Large Soller slits 0.04 rad.">
				<opening unit="rad">0.0400</opening>
			</sollerSlit>
			<filter id="20030001" name="Large beta-filter Nickel">
				<material>Ni</material>
				<thickness unit="mm">0.020</thickness>
			</filter>
			<detector id="7010019" name="PIXcel1D-Medipix3 detector" xsi:type="rtmsDetectorType">
				<phd unit="keV">
					<lowerLevel>4.02</lowerLevel>
					<upperLevel>11.27</upperLevel>
				</phd>
				<mode>Scanning</mode>
				<activeLength unit="deg">5.542</activeLength>
			</detector>
		</diffractedBeamPath>
		<scan appendNumber="0" mode="Continuous" scanAxis="Gonio" status="Completed">
			<header>
				<startTimeStamp>2025-11-27T08:45:58-08:00</startTimeStamp>
				<endTimeStamp>2025-11-27T08:54:05-08:00</endTimeStamp>
				<author>
					<name>AutomatedUser</name>
				</author>
				<source>
					<applicationSoftware version="1.7b (136)">PANalytical Aeris Instrument Suite</applicationSoftware>
					<instrumentControlSoftware version="3.2.00000000 20240306">AERIS</instrumentControlSoftware>
					<instrumentID>950485</instrumentID>
				</source>
			</header>
			<dataPoints>
				<positions axis="2Theta" unit="deg">
					<startPosition>10.00943322</startPosition>
					<endPosition>99.99442286</endPosition>
				</positions>
				<positions axis="Omega" unit="deg">
					<startPosition>5.00471661</startPosition>
					<endPosition>49.99721143</endPosition>
				</positions>
				<commonCountingTime unit="seconds">12.495</commonCountingTime>
				<counts unit="counts">2995 2943 2780 2861 2848 2900 2926 2909 2905 2859 2969 3012 2874 2998 2887 2847 2891 2884 2940 2938 2869 2994 2873 2963 2947 3072 2854 2881 2922 2931 2919 2958 2886 2891 2909 2974 2957 2957 2866 2889 2872 2969 2946 3032 2923 3035 2999 2941 2943 3055 2923 2916 2876 2908 2964 2954 2926 2992 2933 3015 3033 2952 2948 3064 3034 3030 2953 2936 2938 2946 2926 2918 2997 2919 3013 2945 2950 3018 3089 3058 3068 3107 2985 3018 2997 3015 3031 2958 3088 2982 3027 3024 2867 3030 2890 2926 3013 3085 3101 3089 2976 3057 3153 2981 2988 3041 3022 2991 2990 3097 2998 3032 3025 3042 3046 3008 2984 3043 3103 3099 3002 3079 3042 2931 3120 2994 2975 3002 3111 3013 3030 3061 3196 3087 3199 3083 3040 2973 3084 3091 3097 3083 3021 3026 3125 2994 3022 3046 3005 3045 3083 3033 3086 2998 3051 3054 3069 3101 3139 3037 2984 3031 2922 3085 3044 3053 3034 2991 2989 3035 3080 3061 3010 3046 3014 3039 3094 3004 2993 3037 3074 3064 3066 2954 2952 2935 2959 2927 2984 3052 3029 2978 3125 3056 2999 3069 3032 2937 3000 2978 2923 3008 2969 2946 2987 3038 3027 3009 2848 3002 2888 2917 2882 3045 2905 2906 2983 2929 2821 2921 2927 3035 2933 2908 2937 2877 2811 2945 2944 2939 2952 2880 2884 2906 2893 2850 2976 2893 2816 2921 2901 2874 2957 2842 2853 2874 2905 2848 2955 2860 2883 2826 2888 2829 2823 2921 2859 2807 2887 2859 2796 2941 2867 2783 2787 2886 2906 2946 2861 2900 2895 2913 2906 2882 2866 2916 2953 2866 2947 2852 2899 2867 2863 2873 2928 2858 2840 2814 2907 2882 2914 2847 2909 2930 3032 2932 2948 2945 2937 2847 2881 2906 2865 2963 2983 2883 2950 2964 2851 3009 2950 2898 2978 2930 2976 3051 2957 2989 2902 2968 2971 2938 3043 2950 2880 3021 3027 2963 3032 2980 3020 3066 3120 2988 3077 2997 3107 3004 3160 2986 3077 3084 3074 3184 3161 3045 3200 3134 3147 2971 3098 2980 3102 3193 3109 3063 3084 3158 3165 3114 3130 3172 3134 3173 3177 3136 3223 3200 3277 3193 3231 3239 3287 3309 3229 3170 3342 3274 3320 3178 3301 3306 3264 3305 3319 3270 3309 3383 3213 3321 3392 3381 3301 3366 3309 3302 3403 3424 3290 3425 3446 3343 3410 3431 3496 3516 3529 3620 3695 3690 3738 3773 3597 3790 3882 3875 3839 3971 3960 3875 3759 3867 3788 3877 3813 3826 3781 3768 3788 3789 3783 3840 3723 3900 3881 3723 3762 3746 3674 3818 3845 3615 3645 3756 3676 3619 3596 3568 3401 3488 3440 3425 3427 3496 3353 3339 3314 3346 3346 3263 3395 3346 3403 3273 3385 3282 3267 3274 3313 3361 3368 3301 3227 3211 3254 3207 3141 3356 3383 3360 3246 3158 3231 3259 3218 3162 3286 3292 3157 3209 3165 3263 3326 3185 3275 3075 3257 3142 3115 3059 3087 3169 3128 3122 3092 3078 3238 3123 3146 3131 3118 3103 3125 3152 3186 3233 3251 3317 3241 3245 3253 3239 3361 3193 3235 3336 3265 3322 3312 3233 3288 3340 3343 3143 3288 3191 3161 3211 3159 3176 3137 3237 3222 3110 3191 3124 3178 2985 3102 3109 3039 2964 2969 3005 2871 2996 2904 2924 2952 2879 2939 2841 2831 2915 2842 2889 2885 2882 2808 2805 2957 2734 2878 2805 2847 2763 2827 2790 2837 2872 2768 2830 2809 2727 2837 2823 2762 2746 2807 2815 2768 2823 2838 2798 2836 2757 2747 2893 2667 2688 2750 2743 2697 2767 2747 2688 2797 2752 2894 2761 2795 2680 2710 2761 2825 2655 2749 2676 2741 2804 2756 2681 2782 2767 2630 2724 2768 2818 2676 2786 2653 2626 2694 2694 2560 2681 2642 2648 2663 2743 2704 2778 2771 2672 2698 2711 2914 2802 2801 2719 2759 2857 2776 2874 2853 2963 2935 3007 2929 2943 3100 2978 2977 2954 3022 2998 2966 2964 2984 2944 3023 2922 2992 2915 2873 2899 2880 2946 2857 2998 2915 2936 2894 2932 2829 2874 2855 2846 2784 2803 2819 2767 2757 2723 2665 2635 2625 2695 2773 2598 2618 2567 2628 2560 2619 2717 2501 2702 2567 2598 2615 2584 2527 2600 2615 2569 2569 2595 2556 2602 2590 2562 2540 2567 2564 2567 2607 2552 2644 2631 2642 2595 2494 2538 2604 2473 2584 2525 2557 2599 2552 2575 2584 2506 2535 2533 2582 2525 2565 2572 2565 2546 2503 2468 2586 2500 2598 2494 2552 2585 2547 2530 2616 2482 2417 2600 2546 2624 2568 2437 2521 2482 2499 2478 2539 2562 2397 2465 2469 2557 2454 2590 2506 2446 2468 2558 2523 2483 2564 2400 2433 2518 2384 2476 2440 2454 2477 2517 2559 2488 2477 2501 2430 2501 2421 2471 2580 2457 2520 2488 2465 2447 2381 2481 2395 2507 2509 2512 2433 2553 2432 2481 2433 2466 2473 2434 2347 2378 2416 2445 2358 2442 2402 2333 2395 2386 2341 2560 2402 2361 2389 2341 2418 2384 2467 2381 2323 2307 2400 2385 2317 2445 2392 2291 2362 2430 2401 2406 2401 2467 2345 2298 2443 2267 2398 2402 2351 2417 2400 2370 2351 2291 2347 2331 2324 2374 2407 2328 2354 2354 2488 2277 2319 2315 2341 2334 2431 2334 2313 2378 2348 2301 2268 2332 2241 2289 2311 2348 2272 2275 2316 2260 2207 2215 2298 2257 2244 2317 2333 2291 2282 2302 2173 2345 2247 2179 2262 2257 2262 2265 2347 2304 2241 2318 2303 2228 2387 2241 2276 2220 2228 2349 2301 2399 2301 2227 2211 2274 2244 2246 2260 2176 2257 2249 2211 2232 2251 2221 2181 2204 2218 2210 2271 2327 2223 2246 2251 2212 2257 2193 2186 2266 2241 2216 2215 2248 2186 2176 2183 2227 2187 2246 2256 2198 2148 2255 2233 2263 2198 2171 2253 2247 2240 2242 2174 2178 2217 2235 2152 2212 2207 2265 2235 2103 2268 2190 2156 2186 2155 2226 2155 2296 2255 2210 2244 2150 2191 2336 2259 2303 2157 2224 2221 2188 2181 2239 2196 2299 2224 2251 2283 2187 2263 2174 2180 2174 2231 2112 2210 2180 2244 2234 2159 2222 2219 2250 2237 2183 2250 2129 2190 2172 2177 2231 2258 2242 2157 2173 2188 2266 2322 2260 2229 2243 2219 2228 2225 2216 2340 2260 2249 2207 2242 2299 2323 2224 2228 2256 2242 2323 2222 2295 2246 2311 2189 2226 2275 2336 2227 2235 2253 2259 2217 2171 2220 2297 2154 2236 2212 2313 2177 2174 2276 2259 2183 2157 2195 2300 2127 2225 2216 2112 2205 2269 2130 2203 2169 2159 2202 2034 2112 2206 2256 2159 2229 2263 2069 2059 2161 2139 2002 2195 2085 2155 2170 2093 2120 2098 2117 2146 2058 2201 2145 2122 2146 2109 2093 2055 2074 2132 2133 2089 2068 2101 2052 2103 2053 2018 2157 2122 2087 2108 1993 2104 1950 2108 2089 2043 2014 1992 2036 2031 1963 2024 2009 2045 1950 2044 1969 1982 1841 1951 1971 1944 1977 1931 1953 2013 1946 1947 1938 1951 1953 1898 1857 1861 1912 1889 1949 1970 1863 1810 1980 1857 1905 1911 1810 1862 1893 1892 1875 1902 1932 1927 1836 1904 1819 1820 1804 1812 1850 1791 1820 1894 1813 1822 1803 1848 1889 1757 1794 1780 1771 1860 1769 1802 1838 1873 1826 1807 1856 1840 2006 1890 1967 1838 1946 1879 1880 1910 1854 1889 1774 1837 1830 1820 1785 1761 1795 1799 1822 1739 1802 1727 1744 1734 1678 1697 1720 1774 1656 1735 1668 1684 1658 1704 1747 1673 1614 1678 1613 1666 1621 1690 1677 1575 1587 1621 1589 1696 1572 1544 1627 1624 1599 1603 1639 1644 1551 1618 1592 1510 1598 1582 1622 1534 1573 1612 1621 1603 1566 1631 1610 1520 1502 1573 1555 1518 1485 1571 1597 1528 1581 1518 1535 1534 1511 1536 1515 1553 1506 1528 1521 1558 1537 1538 1608 1484 1507 1515 1494 1531 1503 1504 1557 1547 1478 1494 1502 1550 1486 1493 1466 1497 1474 1484 1570 1458 1488 1405 1565 1515 1605 1464 1537 1476 1428 1454 1456 1568 1506 1498 1484 1517 1517 1484 1452 1471 1451 1482 1502 1550 1469 1484 1467 1449 1449 1497 1493 1468 1487 1448 1499 1431 1497 1471 1630 1534 1521 1428 1484 1521 1510 1456 1463 1552 1453 1486 1488 1525 1529 1466 1471 1439 1428 1486 1493 1444 1586 1492 1510 1479 1500 1533 1482 1513 1519 1518 1454 1492 1579 1525 1553 1499 1443 1445 1526 1480 1519 1437 1482 1501 1542 1449 1528 1498 1502 1599 1406 1482 1515 1482 1518 1425 1520 1492 1535 1500 1482 1481 1481 1493 1520 1539 1528 1547 1500 1481 1450 1509 1506 1425 1507 1478 1536 1577 1452 1559 1480 1516 1580 1537 1472 1498 1545 1527 1507 1473 1463 1531 1514 1542 1527 1537 1515 1458 1460 1419 1460 1520 1455 1452 1467 1567 1463 1549 1480 1501 1524 1464 1477 1481 1403 1490 1475 1499 1482 1495 1418 1564 1463 1389 1435 1427 1507 1394 1489 1419 1438 1385 1427 1427 1409 1472 1482 1475 1388 1453 1456 1459 1398 1430 1392 1401 1377 1447 1387 1376 1445 1348 1447 1401 1346 1362 1369 1382 1423 1364 1379 1418 1378 1342 1352 1329 1382 1361 1335 1339 1369 1366 1321 1365 1325 1295 1319 1377 1403 1365 1350 1396 1287 1326 1366 1305 1388 1270 1304 1289 1318 1291 1273 1282 1330 1246 1280 1310 1290 1278 1229 1333 1260 1362 1230 1222 1284 1252 1331 1231 1231 1225 1267 1201 1230 1292 1194 1223 1230 1208 1209 1193 1172 1229 1215 1198 1258 1184 1258 1207 1229 1207 1234 1139 1194 1203 1195 1223 1214 1167 1160 1155 1205 1182 1192 1086 1210 1182 1159 1161 1161 1203 1138 1221 1157 1183 1187 1168 1168 1169 1157 1132 1165 1172 1188 1162 1163 1260 1267 1200 1212 1211 1229 1295 1239 1263 1272 1328 1304 1322 1354 1319 1363 1344 1344 1293 1281 1325 1264 1237 1334 1224 1253 1272 1271 1263 1250 1276 1306 1243 1247 1250 1291 1288 1244 1244 1185 1205 1195 1176 1194 1213 1180 1123 1134 1189 1121 1112 1142 1122 1145 1103 1065 1041 1120 1105 1082 1052 1073 1066 1045 1017 1025 1058 1033 1068 989 1019 1021 1011 1025 1037 1025 1038 1067 1017 969 1013 1041 1041 976 1035 1017 1057 1015 1039 997 1029 1009 984 984 998 1068 1003 980 1020 1013 970 983 920 991 1048 1012 958 971 997 1002 1030 1022 1038 1019 1024 1037 1022 1060 1066 1043 1126 1153 1159 1160 1255 1185 1340 1285 1357 1353 1395 1431 1454 1513 1475 1482 1496 1501 1478 1391 1369 1410 1272 1241 1258 1308 1309 1204 1235 1226 1224 1232 1167 1189 1144 1135 1140 1201 1152 1140 1115 1095 1063 1145 1039 985 968 1043 918 983 937 973 949 942 912 913 894 912 889 890 841 941 930 884 876 961 920 869 944 871 884 846 874 818 902 913 832 853 859 848 815 906 912 896 883 875 866 890 885 883 879 877 862 847 912 861 795 818 873 889 871 845 827 852 834 851 828 803 855 826 866 846 826 849 873 803 799 797 818 828 880 906 817 810 772 818 856 785 822 841 828 848 830 851 753 800 867 781 841 830 848 797 852 801 810 810 786 831 825 833 819 808 860 826 770 778 781 779 766 819 884 846 844 822 839 837 871 863 894 836 876 872 908 1006 985 1079 1104 1164 1239 1275 1366 1371 1446 1429 1427 1413 1480 1346 1325 1397 1233 1311 1205 1197 1137 1117 1005 1073 1061 996 970 955 1039 981 1013 1070 988 985 965 959 940 868 913 904 887 797 809 823 829 824 767 824 773 713 797 753 830 851 743 752 778 762 774 808 780 793 788 796 797 852 779 723 752 758 765 759 797 799 801 744 723 734 744 740 730 693 750 723 792 778 750 814 734 717 693 732 717 663 714 699 751 685 731 724 677 706 749 710 737 714 647 731 711 685 696 691 649 740 725 705 721 686 709 640 740 738 727 759 730 687 690 715 723 681 777 693 656 729 735 646 663 707 729 746 737 740 724 695 741 724 725 754 693 667 657 712 713 681 740 749 712 664 715 678 721 642 665 762 736 726 716 748 656 774 713 721 725 689 696 713 679 681 685 712 656 709 666 653 689 717 680 724 739 717 677 690 750 687 742 693 716 695 659 718 684 689 724 712 688 719 701 687 702 739 743 700 756 689 670 739 742 730 752 800 763 766 737 849 851 851 829 781 910 828 808 866 855 902 862 837 827 844 787 838 860 855 875 817 867 817 833 839 954 913 908 925 929 941 975 1062 1040 1090 1100 1160 1259 1256 1394 1397 1498 1572 1689 1816 1820 1863 1893 1998 1957 1954 1916 1929 1973 1981 1813 1816 1735 1649 1636 1519 1517 1459 1519 1442 1368 1310 1391 1307 1284 1329 1221 1236 1258 1196 1184 1106 1049 1043 1029 964 972 914 891 859 852 823 795 767 767 764 765 687 710 738 694 680 693 710 693 695 672 712 702 708 683 691 669 714 621 674 647 657 665 674 646 635 658 677 659 658 620 613 657 651 676 631 650 650 628 671 704 635 640 572 689 639 652 669 668 680 678 655 640 707 637 638 629 611 655 642 626 632 605 645 605 637 672 604 688 616 590 594 596 587 656 613 616 644 608 661 608 630 674 614 586 621 639 628 613 649 673 577 628 637 631 619 633 630 604 629 596 617 596 594 643 590 631 604 643 620 617 590 599 557 609 579 659 635 602 620 603 612 614 593 592 602 622 615 578 609 602 571 589 609 649 613 591 622 625 600 607 533 575 597 643 577 602 598 590 693 589 597 608 554 603 581 607 616 611 645 628 630 559 613 622 621 605 639 630 627 657 626 649 633 635 655 646 621 628 628 624 659 629 580 614 623 577 597 585 582 632 610 591 649 577 607 597 588 634 610 591 571 573 589 556 593 540 561 592 571 562 587 601 595 532 553 565 571 560 545 537 583 568 551 560 567 570 580 553 598 592 584 558 550 561 561 544 576 546 519 626 557 544 588 566 509 564 551 587 530 572 547 558 582 562 585 541 539 541 540 542 510 553 610 564 613 559 551 509 542 559 595 532 524 532 513 548 517 551 511 536 564 562 512 573 575 496 554 551 554 584 521 535 539 521 509 500 517 534 547 499 543 496 571 560 554 510 553 513 508 544 551 523 512 498 545 540 503 511 502 542 519 538 492 485 549 497 521 496 538 520 517 533 528 589 506 489 500 517 481 471 532 524 529 455 521 553 500 530 527 518 489 496 539 499 466 495 498 497 465 545 474 510 552 512 523 520 529 498 532 528 500 515 463 486 558 477 542 513 518 487 488 523 468 507 444 518 517 502 486 464 484 497 489 485 492 511 528 498 488 499 500 484 541 508 541 507 490 519 473 540 557 478 515 547 523 506 515 512 458 508 482 512 447 500 456 466 510 479 530 487 491 470 470 478 492 496 536 477 484 480 485 483 486 509 468 508 457 499 477 471 471 550 508 474 456 482 576 505 482 475 464 465 514 482 501 514 471 485 453 468 501 488 439 514 481 495 486 503 461 455 452 524 499 460 479 502 462 517 462 475 467 476 440 482 459 514 490 532 473 524 452 472 467 532 490 519 500 478 478 505 472 511 436 472 433 500 505 504 500 490 488 482 513 518 572 466 520 490 462 448 447 468 488 478 478 493 495 532 457 503 466 501 506 475 496 503 500 485 459 501 476 475 471 522 506 480 497 525 536 488 538 526 529 575 585 607 658 628 663 704 662 728 708 705 689 673 613 638 676 614 652 649 642 610 613 606 596 593 562 546 578 575 526 486 569 565 543 514 503 502 479 551 553 486 454 444 461 515 466 498 479 471 470 489 477 436 482 474 479 440 472 483 430 479 484 450 458 423 454 459 448 456 476 448 391 464 480 487 433 459 465 477 484 459 432 502 456 498 451 479 460 440 452 489 470 449 440 424 475 463 449 456 460 464 479 458 454 478 426 474 462 499 456 448 473 409 466 445 412 424 431 431 446 452 436 467 457 462 490 456 461 436 432 412 480 437 443 478 430 450 474 490 469 450 425 452 455 425 452 488 482 433 453 445 441 448 431 439 437 447 454 459 436 423 433 475 443 457 468 426 469 454 433 482 469 468 492 450 465 471 474 464 470 470 438 432 435 461 450 447 457 469 481 457 432 476 457 449 432 452 475 452 495 481 447 460 430 471 467 451 451 446 431 431 432 428 428 464 441 462 481 416 482 463 438 410 440 443 455 400 468 445 458 490 467 480 478 461 484 449 485 462 459 505 471 449 439 457 443 475 462 434 448 453 417 499 447 426 453 456 447 469 426 465 451 455 422 443 401 445 422 418 432 429 442 456 423 437 443 420 402 417 473 452 447 409 443 407 410 393 474 426 387 446 435 424 407 453 434 385 437 456 462 439 445 507 442 472 426 445 449 429 494 427 440 445 428 453 414 466 457 436 418 421 424 415 427 409 408 420 420 448 426 451 405 455 440 412 446 416 431 448 439 421 446 427 429 437 447 434 432 445 446 439 411 436 431 427 425 406 460 435 451 427 387 468 433 441 424 447 439 463 469 479 476 477 463 481 485 422 484 481 502 465 531 516 544 511 485 504 496 469 470 477 520 466 472 491 463 487 467 448 496 469 499 435 451 448 480 457 448 414 454 447 472 423 498 428 411 448 441 442 437 456 471 392 454 423 414 425 394 434 439 443 423 399 424 403 428 406 424 406 440 410 382 364 380 400 419 403 389 405 454 417 415 457 400 433 439 428 395 398 368 383 364 404 416 404 375 425 385 399 414 421 401 404 408 382 425 397 403 392 413 410 398 387 398 410 356 407 384 380 417 375 427 411 410 431 384 427 374 362 407 369 397 412 401 414 409 397 367 390 426 422 394 414 372 402 429 410 402 414 385 389 394 384 401 364 372 380 435 399 396 407 395 429 394 379 408 421 417 378 373 400 397 411 363 409 385 424 385 404 387 382 421 409 383 372 387 394 368 398 400 426 394 418 372 382 401 402 387 428 375 400 433 349 405 397 414 365 419 399 373 389 391 368 374 393 371 398 392 417 365 419 413 381 436 375 356 406 383 398 348 378 388 398 368 402 370 376 374 393 368 400 400 432 398 375 398 405 416 386 469 382 397 355 376 402 417 383 377 392 370 407 349 347 373 378 369 373 379 380 397 404 415 350 375 359 394 402 355 418 392 432 400 363 361 428 367 388 432 373 396 378 377 409 401 376 370 366 382 382 391 345 391 407 398 430 394 383 395 394 385 380 379 376 380 401 427 389 362 400 397 395 408 384 379 403 399 411 396 408 381 395 401 397 366 394 448 365 364 407 408 405 373 436 408 407 391 438 418 432 421 424 434 391 436 441 452 415 505 457 455 466 492 459 484 541 485 484 494 532 471 474 482 510 508 492 507 496 479 499 558 529 547 572 563 608 558 585 563 621 632 599 601 703 727 716 758 765 777 780 818 833 846 796 756 827 782 800 764 737 738 706 728 698 718 670 701 612 655 671 617 598 623 617 604 570 532 556 551 512 523 540 500 472 510 514 467 469 478 454 443 446 419 416 436 442 415 410 398 378 431 378 373 385 379 387 405 382 417 400 389 362 357 378 371 384 381 358 371 398 381 330 387 387 394 372 383 377 351 365 349 396 358 368 378 369 387 359 365 409 366 375 406 380 390 339 368 381 364 387 371 338 420 385 368 365 341 340 360 372 322 406 378 374 379 375 382 360 366 349 342 345 363 355 360 340 400 377 374 397 349 337 391 360 361 371 356 400 350 376 350 338 358 380 366 339 357 381 408 392 357 352 415 362 352 339 364 401 369 338 322 387 376 342 359 372 353 363 333 321 373 321 379 365 352 342 347 359 346 339 324 353 390 349 337 332 318 361 335 346 349 320 342 342 358 327 349 366 368 372 325 327 352 362 331 346 362 333 332 348 347 364 347 340 330 341 344 335 353 371 355 359 394 317 375 388 382 383 370 407 407 397 354 410 394 401 357 357 386 387 370 373 393 377 410 385 401 388 402 377 422 379 377 348 357 357 399 353 391 340 388 374 390 361 349 346 366 351 354 325 337 326 344 336 341 366 352 352 379 380 365 375 346 320 355 316 346 342 333 297 335 371 323 353 355 348 306 314 362 326 360 337 350 305 319 359 346 317 330 322 333 342 356 322 342 340 338 334 373 362 346 325 334 333 323 316 278 323 341 340 367 379 349 339 337 374 374 334 328 381 379 350 358 377 308 323 350 342 333 317 344 308 358 335 321 328 305 326 291 338 288 328 313 318 330 334 320 354 323 325 333 342 355 306 329 324 345 350 315 318 325 335 337 320 325 304 306 304 344 284 348 332 283 343 313 324 317 352 330 321 337 301 338 306 303 343 329 385 329 329 293 331 353 358 372 309 385 330 380 339 353 360 328 353 314 352 338 326 346 330 344 334 345 355 299 354 318 293 306 323 330 326 325 312 294 303 323 281 310 331 309 364 309 354 315 311 303 333 295 321 306 352 307 318 320 322 274 313 343 305 345 315 329 309 311 307 331 297 300 303 296 309 315 327 345 322 333 328 318 286 306 297 282 305 289 333 310 315 287 306 305 303 346 301 330 295 314 304 289 297 303 291 300 313 309 331 315 315 317 310 293 302 339 310 312 330 323 329 324 315 312 306 283 291 337 309 327 307 276 365 295 322 304 320 287 318 313 324 311 317 350 316 302 286 286 327 322 288 295 296 331 283 274 296 285 299 324 301 309 294 346 316 306 307 289 290 335 296 295 271 292 280 310 278 302 291 268 316 326 289 283 278 310 298 317 290 294 293 284 291 273 271 305 267 319 316 292 344 345 322 321 286 318 282 262 278 274 287 293 296 300 327 297 298 283 291 326 317 292 288 302 294 279 291 317 322 296 300 279 289 282 283 284 303 310 292 322 285 276 284 297 291 293 287 256 277 262 298 300 303 272 291 275 268 315 288 300 297 296 291 297 305 265 296 306 284 315 270 289 275 280 307 283 308 314 283 287 289 303 295 317 292 308 276 279 262 300 283 286 312 302 301 316 295 282 312 263 301 282 278 288 287 267 277 273 293 288 295 269 266 315 289 262 276 286 286 264 300 299 265 287 281 265 279 286 283 276 310 322 310 298 317 290 345 290 292 298 244 321 272 289 277 273 311 281 283 272 282 256 234 269 313 257 278 296 273 295 318 267 295 259 273 305 273 263 288 251 323 284 270 319 278 273 269 269 264 243 286 279 299 316 292 279 290 280 302 266 290 308 270 277 264 278 293 290 292 287 264 256 239 296 287 275 250 283 317 280 303 261 295 294 276 260 309 299 309 295 312 298 275 318 321 287 298 302 298 283 300 293 286 292 275 322 324 332 323 342 319 313 324 312 337 293 329 323 324 300 313 307 334 313 340 311 353 312 318 326 323 305 314 284 269 305 285 321 302 291 309 302 266 337 311 291 306 281 281 282 298 277 279 303 260 270 305 312 300 250 271 262 300 262 289 301 282 308 272 317 295 306 312 300 269 281 277 304 316 304 285 285 271 303 260 292 329 285 277 271 340 285 298 291 294 310 293 290 323 287 308 292 287 279 256 297 242 305 272 287 288 300 276 307 275 301 280 291 274 272 274 264 286 283 260 269 279 273 250 276 263 248 275 275 275 268 279 243 270 266 260 250 293 237 246 299 287 300 257 299 266 277 263 283 260 285 278 304 277 265 307 266 270 313 244 276 272 300 286 281 258 249 269 269 287 262 259 302 239 280 273 301 263 266 280 276 259 277 234 277 277 261 329 268 270 244 270 272 264 261 291 260 258 281 262 266 222 262 256 246 279 269 261 268 270 328 286 298 263 281 290 264 278 257 272 260 242 263 271 269 270 261 292 241 257 277 263 279 267 270 275 278 277 236 238 245 270 298 270 244 270 259 306 267 267 278 277 311 263 284 260 247 242 277 283 271 297 276 277 272 302 296 278 338 298 321 331 315 333 314 303 349 350 271 319 325 325 305 346 316 327 287 340 337 352 314 305 333 329 309 331 296 337 316 272 316 304 307 289 304 317 317 305 333 286 310 284 272 273 278 271 277 281 267 245 238 251 298 248 246 240 257 232 225 270 264 283 242 245 284 295 272 258 246 226 245 246 279 258 230 261 234 298 259 231 259 257 257 276 257 259 267 270 222 280 216 240 237 291 241 267 203 247 271 261 267 277 261 284 239 242 238 234 249 232 280 267 240 271 280 260 259 269 222 243 245 275 266 215 260 245 237 245 264 205 247 271 266 263 256 233 245 265 271 211 268 237 280 293 236 275 261 281 269 269 233 247 243 237 222 256 238 244 229 218 249 235 299 240 278 278 260 237 284 246 261 249 251 278 238 262 248 265 248 233 270 231 237 245 238 274 246 268 235 231 265 237 260 259 267 280 281 268 249 279 260 295 294 233 235 244 268 233 260 235 248 264 234 243 272 232 237 287 223 237 236 241 248 233 261 247 264 226 270 267 257 212 240 257 226 211 222 257 234 223 245 246 262 261 226 261 239 229 223 229 278 240 258 218 247 244 256 242 221 292 247 258 257 234 232 234 236 244 224 222 235 230 242 258 221 225 209 262 234 227 236 260 264 233 220 220 262 236 247 225 231 224 260 257 263 264 199 237 227 247 225 207 241 246 230 235 216 223 219 219 263 249 240 241 249 204 214 237 275 244 239 240 229 261 236 234 233 238 238 233 242 236 258 249 241 237 236 249 231 217 238 207 244 203 237 232 229 240 243 233 244 237 244 226 230 240 266 227 247 237 236 246 236 219 218 241 241 266 241 240 256 248 227 235 239 234 246 230 237 244 229 271 210 256 231 232 217 261 221 262 262 227 229 241 245 231 240 232 249 211 273 242 236 249 260 216 259 236 265 276 256 262 239 251 272 247 221 256 261 220 267 212 220 222 244 242 223 209 229 247 230 228 256 245 223 228 218 230 236 239 241 241 249 245 267 234 259 265 244 227 205 227 229 215 238 218 181 256 220 214 196 237 208 222 228 271 223 193 224 225 207 226 218 239 241 218 210 244 248 216 233 233 267 246 235 212 241 209 205 198 246 234 215 223 217 258 233 188 234 242 234 222 218 224 225 228 232 238 235 226 243 206 208 219 224 230 250 243 245 237 230 237 249 231 230 217 215 219 232 212 256 232 242 237 218 236 250 250 231 243 219 227 228 263 224 243 237 219 257 233 202 247 220 216 239 261 220 258 230 223 246 209 227 210 236 264 237 199 239 208 241 241 210 201 226 220 234 250 224 241 207 228 239 211 213 221 224 217 240 246 230 264 218 256 214 203 249 210 222 262 228 244 246 236 204 270 209 240 219 248 225 233 219 245 238 208 237 227 233 209 242 231 247 220 239 201 239 262 246 199 238 235 231 226 218 213 224 242 239 204 226 216 207 247 232 203 229 214 249 232 241 188 243 225 207 220 238 211 235 267 221 239 219 212 212 224 217 241 220 243 232 225 230 198 248 205 214 204 216 217 224 211 241 193 243 234 241 237 226 220 223 243 228 220 212 202 220 229 248 241 219 211 221 229 230 218 234 230 231 229 231 232 221 224 232 272 222 229 219 250 232 213 261 265 224 202 235 234 224 237 182 212 217 246 222 238 227 232 221 257 223 234 241 213 202 222 204 223 264 248 236 224 230 236 226 213 241 232 228 213 228 225 213 220 206 259 266 197 222 223 236 227 225 223 233 222 241 217 261 226 237 239 238 214 236 200 249 229 217 241 217 231 207 220 177 226 229 248 212 246 209 234 206 232 231 200 242 200 234 221 237 218 236 209 223 218 227 219 231 256 245 195 219 237 235 217 214 236 196 223 225 230 209 198 212 225 236 211 212 217 234 212 208 215 229 215 249 247 200 228 223 229 231 231 231 217 208 258 229 231 237 222 206 217 213 218 226 212 224 223 220 225 259 220 213 204 194 223 195 220 240 212 216 219 218 235 202 229 223 230 219 239 271 242 204 220 230 216 206 241 203 221 218 227 216 201 221 219 222 219 223 227 228 202 229 204 216 231 222 199 212 230 232 202 221 221 259 219 223 221 239 226 220 224 246 187 226 220 235 214 203 203 205 257 200 219 231 208 191 223 238 244 262 239 240 237 222 228 214 230 208 233 205 235 224 232 213 230 232 217 267 222 240 224 224 228 206 224 231 213 228 226 230 214 190 201 267 222 267 256 274 271 240 243 258 233 250 242 267 218 227 280 243 261 271 231 228 245 272 289 234 228 236 241 262 281 227 240 223 234 224 239 236 258 236 247 229 242 198 218 248 229 281 273 247 263 240 231 237 242 189 260 243 216 230 232 289 247 232 245 225 193 221 241 227 221 194 228 207 228 225 215 211 224 215 235 228 225 206 201 216 240 231 211 227 241 244 237 241 243 234 232 237 227 193 199 232 238 194 237 219 225 220 228 219 233 212 200 203 220 213 264 203 225 204 226 192 220 233 241 240 198 216 224 219 199 223 241 215 236 221 257 214 264 235 226 232 236 185 210 179 215 214 214 249 215 215 211 237 224 234 238 230 221 221 210 234 224 212 213 237 231 267 212 212 230 215 222 234 220 224 207 222 219 228 221 224 212 232 212 221 231 236 206 230 206 219 213 209 268 211 193 217 222 226 183 212 239 222 193 219 222 242 214 245 219 231 225 217 238 236 226 218 228 216 223 223 228 231 215 221 230 268 221 211 191 211 225 212 232 227 234 248 228 218 233 240 221 226 244 234 213 218 222 235 237 210 219 219 231 227 240 244 231 213 210 232 226 238 244 229 216 245 237 218 246 229 215 250 216 228 200 233 206 218 215 219 215 239 248 197 236 214 262 223 240 241 206 232 230 229 233 239 218 240 215 238 199 248 246 229 225 229 218 206 228 233 235 229 224 237 241 231 257 215 223 247 258 219 265 244 227 215 237 261 216 232 231 225 215 228 249 226 257 251 223 247 256 248 221 232 235 240 249 225 241 216 207 197 222 216 249 236 230 275 231 237 218 233 266 233 232 215 223 247 209 211 215 212 216 223 221 235 263 217 214 248 207 241 234 242 229 231 214 282 226 225 222 238 223 235 206 234 236 216 241 222 229 222 221 217 231 215 220 217 219 218 239 217 220 229 249 223 272 226 228 243 240 241 232 230 228 205 244 224 235 223 245 258 238 229 228 205 237 245 245 250 228 230 209 218 216 235 210 234 227 225 213 239 228 208 225 217 233 231 235 236 245 235 210 248 215 227 247 259 228 233 212 264 210 234 256 225 238 241 225 242 271 199 258 219 222 229 240 224 230 219 221 242 233 221 218 239 232 226 223 223 210 235 234 233 260 233 237 236 249 247 260 235 220 224 240 222 267 223 236 220 246 228 226 227 221 221 204 201 234 230 245 288 270 231 233 244 235 232 257 218 269 259 225 232 234 230 239 235 228 219 226 219 233 263 239 238 235 217 257 233 220 238 220 242 223 248 244 204 224 225 240 215 249 217 212 207 231 225 270 249 260 230 261 210 227 222 229 240 247 230 234 263 267 278 246 241 204 239 256 209 236 237 234 233 233 246 250 222 240 248 221 209 221 248 245 237 217 246 205 241 214 234 239 260 243 223 211 222 243 237 228 266 245 258 248 243 279 219 244 240 274 241 226 225 232 241 241 224 248 249 229 206 256 242 234 288 258 222 249 235 224 249 259 271 271 246 260 239 241 239 241 231 238 237 245 275 238 235 230 218 247 247 243 239 259 229 236 234 248 241 256 218 219 245 248 271 264 241 267 207 270 231 249 242 242 232 206 220 232 225 232 241 277 249 242 245 235 248 233 238 277 229 235 272 244 241 228 245 241 278 238 250 264 222 232 248 227 256 281 248 238 242 249 288 250 263 271 257 278 266 244 273 267 271 238 241 249 240 230 256 267 230 237 261 229 270 260 260 232 262 223 272 275 232 249 257 230 245 234 265 234 241 256 246 258 228 231 238 232 256 260 239 266 256 258 240 215 234 231 244 217 247 282 262 268 234 257 242 267 259 264 247 243 219 266 244 272 256 230 232 257 223 237 237 215 259 239 242 243 273 239 259 221 261 268 240 231 243 266 244 231 271 240 247 236 250 235 261 246 246 211 247 225 265 246 237 279 269 239 228 261 238 266 247 235 236 220 230 233 264 283 267 261 232 268 271 268 242 232 299 278 267 230 290 235 250 248 265 236 239 208 242 270 274 256 275 262 267 259 235 228 268 283 240 239 246 277 243 272 245 232 246 264 248 288 278 289 276 238 272 285 257 272 283 264 267 235 249 277 291 277 266 245 226 281 270 259 244 283 278 306 298 289 281 292 312 299 275 278 318 289 317 294 306 301 292 295 283 293 315 289 278 312 297 301 328 297 287 297 299 279 290 288 289 282 267 274 279 270 275 283 283 249 289 272 279 281 274 293 259 246 234 233 257 245 235 247 232 271 244 239 271 263 219 249 244 260 258 267 272 293 280 226 226 243 236 232 257 245 288 244 240 246 233 223 237 244 309 268 231 264 271 241 282 241 225 250 241 207 259 259 263 248 239 228 244 230 238 226 214 237 227 217 227 246 223 276 269 233 259 264 211 222 232 232 289 258 269 256 271 231 237 249 230 221 276 230 248 249 221 235 219 218 230 229 272 248 273 227 274 267 243 257 242 234 270 269 231 259 217 264 241 209 234 242 273 235 265 227 270 241 231 239 247 239 247 231 258 270 241 222 234 237 237 248 226 219 234 235 235 270 220 257 250 266 246 226 217 238 236 234 246 243 226 263 239 271 233 250 260 275 236 218 219 221 227 231 232 226 240 257 230 218 236 223 237 240 220 265 272 266 256 214 235 247 204 222 208 242 244 211 223 219 217 240 230 225 236 233 256 225 231 232 243 229 232 219 247 245 211 227 228 239 226 221 238 258 270 261 248 245 244 246 259 223 248 230 229 227 229 233 245 208 227 263 231 251 210 202 210 240 221 209 217 247 233 236 224 226 228 237 251 238 224 218 216 245 221 245 229 225 229 238 258 241 263 243 236 234 270 238 228 228 238 237 232 229 240 226 273 232 238 240 245 232 233 235 219 242 221 257 232 239 267 218 241 238 220 230 263 235 228 219 240 244 210 205 241 221 236 232 246 220 217 228 241 212 245 234 215 232 233 221 234 266 223 238 223 237 218 197 237 216 235 230 191 213 206 218 205 212 237 195 230 212 198 229 230 194 233 199 226 245 200 198 205 210 200 231 245 206 243 237 234 202 219 191 248 228 204 234 207 205 226 210 202 198 231 229 225 223 216 242 220 220 213 210 234 207 231 242 198 215 233 190 229 260 200 207 211 221 241 222 215 221 222 205 216 226 236 267 218 214 217 204 230 233 230 224 220 206 209 222 220 218 204 233 201 222 230 211 215 224 224 228 221 220 208 236 199 231 205 209 230 214 221 240 234 198 218 189 189 236 225 212 205 214 226 216 207 211 206 195 211 217 214 209 219 237 214 229 220 222 245 198 220 236 204 241 209 200 219 188 246 216 217 181 189 180 209 194 206 218 208 215 226 241 223 235 227 225 223 239 233 234 222 237 205 180 220 222 203 200 239 235 181 208 215 211 197 218 221 197 194 208 180 239 205 222 228 210 177 203 209 237 196 219 216 224 211 209 211 198 230 216 217 212 215 211 198 211 233 198 226 235 210 208 213 211 189 184 201 228 196 211 229 202 219 231 219 187 220 228 221 216 209 228 213 215 195 227 183 212 225 192 206 196 207 224 207 220 215 226 215 209 198 221 186 197 211 217 222 231 219 222 217 222 214 216 190 221 234 262 199 213 188 195 184 200 210 212 222 226 237 199 204 203 227 209 222 193 226 217 210 217 228 241 229 202 224 217 199 220 209 201 225 218 224 176 205 222 229 210 222 198 209 234 245 231 249 201 220 186 223 203 169 233 227 219 203 235 198 189 195 218 206 203 221 224 215 210 226 213 199 227 209 209 211 213 199 176 226 190 191 202 241 220 226 224 244 222 233 210 214 190 219 201 203 208 226 237 202 207 222 234 216 224 225 207 220 245 214 198 206 189 227 234 201 241 209 212 206 208 210 230 259 207 178 214 210 208 194 214 185 209 219 248 193 213 229 201 189 176 222 227 219 184 209 198 250 202 225 187 200 189 214 216 195 219 199 198 204 263 237 197 199 198 202 234 199 218 186 247 218 229 228 211 217 204 233 188 201 209 203 203 191 208 217 206 214 238 212 197 204 212 189 214 205 205 205 259 215 228 233 239 203 192 206 209 230 219 231 212 231 207 234 184 193 179 224 213 189 195 212 221 213 198 238 196 223 214 216 230 209 195 210 211 213 261 232 212 232 224 201 213 226 213 224 221 245 204 238 207 220 262 205 240 215 238 202 227 222 226 229 202 233 250 225 215 233 203 274 234 246 232 228 211 239 224 248 217 225 227 238 221 224 233 224 227 218 231 222 222 243 217 225 202 217 203 221 213 256 229 219 206 214 199 234 219 216 208 192 197 200 214 215 220 213 212 222 226 203 224 204 194 214 207 220 188 233 231 192 212 200 222 213 233 240 203 221 191 225 181 213 196 224 221 204 173 176 209 214 217 205 239 210 188 203 208 197 210 209 196 199 194 191 207 225 201 205 231 191 203 217 167 204 201 242 213 213 207 235 195 230 214 216 230 217 202 198 203 212 212 197 202 220 204 229 195 211 186 206 201 191 189 234 180 212 188 203 214 211 193 209 186 186 208 206 201 194 187 222 226 217 224 222 224 209 195 222 212 194 194 205 222 193 216 193 194 204 210 205 217 236 214 202 198 212 217 262 226 236 215 200 197 234 195 186 243 176 198 200 194 242 202 187 207 195 193 208 207 221 212 196 202 217 200 211 201 204 219 220 200 162 198 207 180 198 199 188 223 208 170 184 214 194 191 170 212 201 211 212 192 202 199 221 188 215 171 219 183 210 198 188 190 209 211 191 215 210 197 201 206 204 208 190 233 202 213 182 188 213 182 206 206 214 202 214 206 171 216 238 215 200 214 201 215 221 195 214 212 191 199 182 208 196 220 208 185 202 226 195 206 197 205 218 215 183 193 213 190 222 223 202 190 206 228 223 204 186 219 200 196 193 215 195 206 208 212 172 211 195 201 208 198 194 192 199 185 191 205 183 194 193 177 197 169 208 191 179 207 184 194 212 209 231 209 212 173 222 196 210 204 194 199 205 205 190 202 215 224 216 197 199 181 190 212 201 199 204 203 220 204 205 209 186 191 221 184 207 196 196 201 193 198 213 206 211 204 209 183 205 212 211 184 205 192 232 176 193 202 201 193 171 204 218 207 215 214 225 186 204 216 195 198 218 188 230 230 186 205 211 197 202 205 204 213 227 185 197 163 225 209 204 193 200 201 196 197 206 183 182 190 209 183 210 208 207 197 209 194 202 202 201 187 213 160 205 175 200 210 219 195 211 191 186 203 190 220 170 182 191 203 189 207 179 204 214 199 213 212 222 182 195 195 198 241 200 195 214 200 196 196 223 213 202 187 177 205 210 240 194 193 213 207 191 190 173 211 178 182 203 211 193 212 218 201 195 171 202 191 203 205 193 185 207 223 181 204 210 188 205 206 205 193 198 201 201 197 200 202 178 179 213 223 184 185 182 206 171 216 200 210 209 189 196 201 196 210 218 183 165 215 190 194 182 190 201 192 211 220 207 213 196 208 201 209 176 229 184 202 191 198 232 191 201 184 207 193 191 193 202 189 194 206 184 235 192 205 196 214 169 179 234 204 200 220 207 178 212 199 192 221 185 180 170 202 211 187 182 222 207 204 190 229 182 190 202 184 207 224 212 235 184 216 194 207 196 228 216 207 179 221 187 214 215 215 224 203 188 228 184 222 201 204 219 244 217 212 198 212 169 232 189 200 207 177 196 206 201 192 186 224 220 214 195 207 179 189 192 197 208 188 208 209 194 213 196 180 196 188 221 194 199 171 195 226 213 200 195 218 208 200 220 228 219 218 199 195 198 209 229 182 199 187 190 198</counts>
			</dataPoints>
		</scan>
	</xrdMeasurement>
</xrdMeasurements>
