<?xml version="1.0"?>
<xrdMeasurements xmlns="http://www.xrdml.com/XRDMeasurement/2.3" xmlns:xsi="http://www.w3.org/2001/XMLSchema-instance" xsi:schemaLocation="http://www.xrdml.com/XRDMeasurement/2.3 http://www.xrdml.com/XRDMeasurement/2.3/XRDMeasurement.xsd" status="Completed" recordIdentifier="{66B6AB8F-C6BC-418B-A75F-C7D5E3463C83}">
	<comment>
		<entry/>
	</comment>
	<sample type="To be analyzed">
		<id>GPSS_Li1p5Mn0p5V0p5Cl4_111725_691b7e20f3837ac4a0a99384</id>
		<name></name>
		<preparedBy></preparedBy>
	</sample>
	<xrdMeasurement measurementType="Scan" status="Completed" sampleMode="Reflection">
		<usedWavelength intended="K-Alpha 1">
			<kAlpha1 unit="Angstrom">1.5405980</kAlpha1>
			<kAlpha2 unit="Angstrom">1.5444260</kAlpha2>
			<kBeta unit="Angstrom">1.3922500</kBeta>
			<ratioKAlpha2KAlpha1>0.5000</ratioKAlpha2KAlpha1>
		</usedWavelength>
		<incidentBeamPath>
			<radius unit="mm">145.00</radius>
			<xRayTube id="1010048" name="Empyrean Cu LFF HR (9430 033 7310x)">
				<tension unit="kV">40.0</tension>
				<current unit="mA">15.0</current>
				<anodeMaterial>Cu</anodeMaterial>
				<focus type="Line">
					<length unit="mm">12.0</length>
					<width unit="mm">0.4</width>
					<takeOffAngle unit="deg">6.0</takeOffAngle>
				</focus>
			</xRayTube>
			<sollerSlit id="21010002" name="Soller slits 0.04 rad.">
				<opening unit="rad">0.0400</opening>
			</sollerSlit>
			<mask id="22031000" name="Fixed mask 13 mm">
				<width unit="mm">9.00</width>
			</mask>
			<divergenceSlit id="22120001" name="Divergence slit 1°" xsi:type="fixedDivergenceSlitType">
				<distanceToSample unit="mm">50.00</distanceToSample>
				<height unit="mm">1.52</height>
			</divergenceSlit>
		</incidentBeamPath>
		<sampleMovement xsi:type="spinningSampleMovementType">
			<spinnerRevolutionTime unit="seconds">1.0</spinnerRevolutionTime>
		</sampleMovement>
		<diffractedBeamPath>
			<radius unit="mm">145.00</radius>
			<antiScatterSlit id="22090040" name="AS slit 9 mm (PIXcel)" xsi:type="fixedAntiScatterSlitType">
				<height unit="mm">9.00</height>
			</antiScatterSlit>
			<sollerSlit id="21020003" name="Large Soller slits 0.04 rad.">
				<opening unit="rad">0.0400</opening>
			</sollerSlit>
			<filter id="20030001" name="Large beta-filter Nickel">
				<material>Ni</material>
				<thickness unit="mm">0.020</thickness>
			</filter>
			<detector id="7010019" name="PIXcel1D-Medipix3 detector" xsi:type="rtmsDetectorType">
				<phd unit="keV">
					<lowerLevel>4.02</lowerLevel>
					<upperLevel>11.27</upperLevel>
				</phd>
				<mode>Scanning</mode>
				<activeLength unit="deg">5.542</activeLength>
			</detector>
		</diffractedBeamPath>
		<scan appendNumber="0" mode="Continuous" scanAxis="Gonio" status="Completed">
			<header>
				<startTimeStamp>2025-11-19T11:14:44-08:00</startTimeStamp>
				<endTimeStamp>2025-11-19T11:22:52-08:00</endTimeStamp>
				<author>
					<name>AutomatedUser</name>
				</author>
				<source>
					<applicationSoftware version="1.7b (136)">PANalytical Aeris Instrument Suite</applicationSoftware>
					<instrumentControlSoftware version="3.2.00000000 20240306">AERIS</instrumentControlSoftware>
					<instrumentID>950485</instrumentID>
				</source>
			</header>
			<dataPoints>
				<positions axis="2Theta" unit="deg">
					<startPosition>10.00943322</startPosition>
					<endPosition>99.99442286</endPosition>
				</positions>
				<positions axis="Omega" unit="deg">
					<startPosition>5.00471661</startPosition>
					<endPosition>49.99721143</endPosition>
				</positions>
				<commonCountingTime unit="seconds">12.495</commonCountingTime>
				<counts unit="counts">3230 3163 3141 3255 3217 3267 3184 3167 3232 3269 3306 3120 3286 3300 3153 3262 3226 3185 3120 3198 3304 3155 3218 3250 3236 3234 3156 3253 3228 3258 3233 3207 3255 3144 3213 3169 3318 3287 3284 3252 3199 3160 3173 3171 3239 3218 3136 3235 3252 3295 3306 3187 3165 3248 3320 3247 3207 3295 3235 3292 3294 3340 3241 3242 3385 3263 3136 3310 3387 3268 3351 3358 3305 3332 3395 3299 3184 3313 3251 3303 3323 3352 3358 3313 3312 3299 3384 3290 3292 3353 3384 3373 3335 3321 3253 3332 3424 3425 3297 3282 3326 3407 3362 3384 3287 3232 3396 3450 3305 3376 3403 3438 3394 3402 3472 3350 3344 3406 3387 3455 3405 3398 3373 3306 3316 3285 3423 3410 3323 3473 3366 3389 3272 3237 3207 3372 3387 3320 3448 3408 3368 3433 3283 3433 3249 3323 3406 3353 3375 3402 3287 3310 3289 3352 3342 3240 3397 3322 3187 3312 3350 3307 3298 3264 3302 3317 3245 3275 3436 3254 3344 3345 3222 3219 3283 3306 3295 3249 3230 3238 3281 3371 3306 3269 3311 3216 3205 3311 3331 3307 3365 3247 3242 3169 3272 3321 3271 3262 3143 3193 3263 3338 3164 3398 3282 3223 3223 3103 3262 3281 3158 3153 3169 3319 3286 3171 3289 3144 3200 3291 3233 3169 3097 3186 3193 3170 3219 3222 3204 3188 3149 3281 3203 3219 3258 3236 3216 3281 3165 3166 3229 3143 3118 3222 3125 3098 3119 3204 3117 3112 3146 3067 3159 3240 3126 3236 3191 3237 3140 3058 3187 3042 3240 3116 3230 3122 3199 3177 3267 3063 3137 3099 3156 3174 3094 3179 3171 3198 3141 3138 3218 3115 3183 3177 3243 3099 3075 3088 3224 3178 3174 3092 3195 3125 3213 3188 3229 3162 3259 3214 3140 3212 3207 3155 3193 3216 3192 3217 3172 3256 3153 3210 3283 3209 3272 3222 3226 3314 3245 3382 3229 3325 3366 3403 3302 3259 3317 3363 3286 3348 3304 3313 3288 3316 3288 3351 3308 3414 3263 3346 3285 3342 3392 3358 3362 3441 3347 3364 3239 3355 3313 3490 3393 3338 3382 3412 3383 3370 3486 3532 3401 3405 3303 3460 3287 3448 3444 3506 3442 3516 3456 3467 3411 3463 3593 3470 3502 3632 3462 3612 3550 3524 3600 3545 3515 3493 3512 3511 3579 3647 3551 3727 3646 3612 3637 3591 3549 3678 3641 3443 3700 3796 3826 3658 3697 3805 3730 3876 3731 3788 3853 3815 3818 3928 3943 3920 3945 4011 4155 4148 4186 4210 4294 4175 4282 4557 4498 4633 4674 4772 4755 4962 4896 4912 5058 5039 5122 5151 5119 5220 5171 5137 5020 5100 5012 5206 5099 5022 4978 4932 4912 4942 4758 4612 4586 4556 4521 4351 4436 4501 4369 4549 4412 4404 4389 4423 4399 4411 4474 4436 4378 4311 4353 4234 4393 4448 4274 4244 4260 4224 4276 4257 4150 4135 4137 3928 4076 3852 3869 3898 3799 3735 3739 3734 3656 3611 3622 3641 3566 3491 3517 3429 3432 3421 3422 3374 3408 3325 3433 3247 3359 3351 3429 3396 3228 3391 3340 3410 3308 3207 3224 3207 3303 3438 3356 3302 3274 3239 3286 3319 3370 3215 3338 3306 3317 3278 3273 3233 3179 3222 3333 3235 3230 3196 3295 3131 3250 3112 3219 3106 3169 3291 3144 3202 3204 3087 3083 3196 3159 3232 3128 3133 3130 3202 3125 3111 3194 3219 3196 3102 3213 3096 3114 3067 3098 3139 3148 3089 3054 3213 3156 3085 3189 3049 3120 3158 3119 3188 3126 3091 3062 3104 3171 3034 3056 3014 2987 2944 3061 3047 3090 3031 3019 3063 3089 3083 2947 2985 2945 3011 2989 3000 3046 2975 3023 3026 2870 2989 2981 3075 2906 3001 2880 2995 2992 2888 2972 2985 3070 3034 3017 3037 3006 3002 2996 2995 3076 3003 2984 2818 2968 2997 2945 2988 2988 3044 3026 3060 3118 3057 2910 2983 2987 2865 2937 2954 3070 2986 2971 2996 2909 3049 2909 2982 3063 3056 2957 2991 2993 2927 2989 2945 2953 3028 2888 2967 2936 2984 2876 2888 2966 2974 2995 2814 2901 2933 2951 2954 2773 2945 2883 2799 2901 2953 2802 2905 2933 2867 2883 2924 2850 2808 2814 2845 2785 2917 2918 2918 2939 2883 2831 2936 2901 2833 2804 2843 2859 2835 2834 2830 2877 2895 2997 2873 2785 2874 2894 2847 2800 2804 2869 2870 2812 2901 2744 2865 2722 2806 2858 2829 2845 2892 2857 2971 2927 2777 2795 2740 2752 2812 2822 2813 2787 2801 2868 2843 2861 2822 2820 2715 2883 2824 2835 2790 2861 2798 2791 2739 2736 2775 2692 2662 2838 2814 2769 2802 2804 2745 2683 2872 2760 2866 2793 2813 2830 2809 2817 2818 2675 2721 2799 2802 2800 2774 2778 2773 2660 2743 2696 2754 2682 2734 2779 2764 2671 2747 2753 2769 2637 2862 2780 2789 2691 2771 2741 2748 2734 2721 2825 2738 2705 2720 2790 2703 2754 2685 2598 2820 2720 2667 2719 2650 2642 2738 2744 2694 2669 2596 2649 2654 2640 2723 2678 2683 2608 2761 2650 2767 2710 2630 2614 2620 2764 2649 2638 2627 2724 2627 2728 2654 2684 2615 2705 2627 2756 2622 2609 2660 2699 2641 2639 2689 2563 2667 2554 2570 2521 2614 2525 2620 2574 2611 2599 2664 2597 2606 2557 2542 2739 2538 2566 2640 2640 2592 2613 2615 2592 2708 2627 2657 2591 2585 2517 2588 2601 2678 2547 2611 2566 2574 2618 2584 2599 2573 2574 2573 2537 2536 2477 2598 2611 2556 2514 2605 2482 2525 2560 2556 2595 2478 2418 2513 2546 2466 2515 2575 2497 2613 2528 2560 2543 2435 2461 2475 2510 2502 2542 2481 2474 2496 2548 2512 2457 2527 2571 2612 2547 2459 2504 2477 2578 2508 2587 2540 2467 2573 2475 2458 2563 2515 2483 2448 2438 2396 2529 2508 2485 2518 2534 2522 2476 2456 2512 2489 2415 2500 2496 2412 2392 2370 2588 2484 2527 2503 2423 2474 2513 2450 2519 2495 2434 2419 2621 2523 2481 2514 2370 2567 2521 2431 2486 2499 2532 2483 2630 2403 2481 2439 2466 2440 2472 2533 2403 2462 2526 2436 2549 2392 2551 2473 2548 2492 2499 2541 2523 2517 2412 2497 2486 2589 2541 2551 2564 2460 2600 2435 2534 2481 2460 2507 2527 2591 2581 2397 2602 2515 2495 2542 2529 2406 2478 2539 2405 2526 2489 2520 2449 2499 2520 2421 2448 2436 2565 2483 2500 2469 2481 2640 2436 2490 2531 2489 2534 2491 2430 2432 2445 2462 2521 2488 2440 2464 2510 2513 2512 2434 2506 2485 2436 2567 2535 2515 2413 2504 2574 2445 2496 2410 2412 2478 2465 2388 2495 2483 2485 2428 2637 2444 2435 2448 2492 2448 2416 2500 2282 2414 2424 2460 2355 2359 2371 2392 2338 2420 2401 2398 2345 2335 2507 2399 2385 2477 2350 2401 2450 2408 2332 2387 2339 2334 2345 2408 2373 2417 2336 2347 2304 2337 2368 2257 2348 2255 2314 2317 2296 2311 2326 2323 2282 2271 2299 2226 2313 2337 2324 2276 2244 2170 2263 2200 2274 2177 2275 2236 2189 2161 2303 2172 2202 2177 2106 2199 2221 2265 2250 2262 2143 2196 2127 2157 2134 2124 2174 2179 2140 2129 2247 2120 2218 2068 2082 2172 2119 2119 2124 2084 2180 2134 2070 2061 2054 2101 2077 2090 2056 2055 2160 2228 2031 2077 2051 1973 1979 2026 2020 2055 2015 1962 2100 2012 2024 2084 2010 2044 2047 1943 1941 1990 1974 2023 1982 2035 1939 2007 1940 2007 1938 1954 2008 1970 2042 1994 1990 1884 1963 1980 1981 2022 1999 1891 1919 1910 1982 1833 1921 1885 1894 1918 1877 1915 1883 2019 1834 1915 1899 1837 1986 1887 1878 1875 1893 1913 1872 1880 1791 1866 1863 1902 1929 1863 1889 1904 1882 1867 1856 1810 1891 1823 1819 1887 1913 1910 1921 1838 1874 1894 1881 1850 1854 1818 1963 1837 1907 1826 1827 1913 1858 1871 1816 1860 1830 1899 1836 1861 1806 1847 1841 1858 1833 1916 1849 1814 1798 1828 1873 1822 1866 1901 1784 1892 1921 1892 1760 1882 1868 1822 1776 1798 1810 1823 1827 1830 1771 1793 1806 1819 1773 1784 1773 1776 1720 1838 1791 1864 1811 1808 1817 1816 1832 1723 1772 1798 1757 1825 1776 1829 1791 1833 1841 1792 1843 1758 1778 1788 1837 1824 1843 1766 1826 1752 1812 1780 1834 1869 1886 1803 1796 1773 1784 1791 1766 1859 1792 1824 1823 1823 1798 1802 1850 1827 1940 1831 1781 1738 1778 1869 1810 1811 1806 1834 1866 1848 1865 1794 1819 1799 1825 1862 1822 1751 1690 1754 1839 1800 1854 1832 1850 1819 1780 1845 1869 1731 1813 1827 1768 1844 1851 1760 1881 1826 1854 1895 1858 1845 1865 1885 1823 1799 1936 1885 1750 1783 1832 1876 1782 1776 1829 1805 1801 1761 1825 1861 1810 1777 1753 1799 1818 1735 1787 1836 1828 1845 1806 1810 1842 1785 1805 1763 1812 1791 1763 1819 1786 1752 1798 1777 1841 1768 1770 1799 1808 1786 1784 1758 1865 1721 1717 1794 1750 1732 1745 1762 1817 1776 1788 1731 1742 1648 1711 1721 1779 1775 1748 1710 1736 1753 1725 1771 1676 1694 1672 1669 1708 1718 1624 1693 1773 1778 1733 1716 1685 1723 1707 1669 1711 1733 1630 1642 1757 1701 1620 1721 1674 1742 1713 1736 1687 1617 1617 1624 1704 1656 1658 1641 1626 1645 1612 1652 1584 1634 1616 1671 1637 1581 1565 1512 1635 1550 1485 1611 1606 1637 1571 1571 1580 1575 1530 1688 1597 1572 1574 1485 1603 1639 1478 1564 1509 1576 1512 1555 1506 1621 1567 1550 1604 1542 1518 1535 1544 1519 1537 1528 1460 1556 1527 1485 1601 1469 1475 1561 1551 1506 1560 1511 1496 1574 1480 1550 1515 1541 1431 1455 1509 1481 1519 1486 1461 1503 1493 1437 1532 1536 1482 1596 1492 1413 1417 1494 1486 1521 1514 1542 1548 1538 1570 1586 1619 1664 1547 1668 1586 1643 1675 1757 1789 1717 1804 1856 1851 1790 1896 1997 2014 2050 1993 2094 2077 2141 2098 2195 2218 2263 2266 2318 2359 2353 2364 2398 2266 2291 2268 2176 2192 2253 2243 2174 2077 2056 2078 2005 1927 1953 1899 1937 1842 1769 1768 1797 1673 1665 1643 1716 1625 1720 1563 1582 1588 1555 1517 1553 1502 1496 1506 1502 1407 1485 1475 1466 1439 1462 1423 1455 1414 1379 1408 1486 1418 1371 1374 1308 1479 1431 1330 1371 1381 1412 1377 1376 1399 1371 1330 1336 1429 1321 1438 1281 1335 1329 1310 1370 1368 1393 1464 1356 1432 1438 1416 1433 1417 1437 1510 1473 1510 1592 1604 1556 1642 1662 1746 1765 1769 1789 1886 1974 1948 2096 2008 2132 2058 2193 2213 2344 2373 2407 2433 2517 2524 2708 2723 2896 2917 3038 3087 3060 3223 3226 3193 3283 3202 3302 3248 3252 3153 3071 2999 2974 2985 2894 2798 2780 2624 2761 2824 2677 2580 2641 2586 2567 2725 2665 2659 2678 2586 2647 2583 2536 2524 2430 2431 2431 2258 2149 2112 2029 2008 1914 1840 1776 1724 1755 1619 1594 1597 1452 1459 1474 1406 1482 1404 1432 1365 1396 1331 1323 1314 1329 1377 1321 1315 1333 1267 1347 1264 1345 1272 1255 1323 1308 1313 1316 1305 1300 1300 1239 1297 1386 1222 1343 1253 1302 1286 1263 1344 1252 1253 1156 1274 1206 1233 1256 1227 1218 1220 1295 1247 1192 1228 1236 1250 1233 1244 1227 1213 1168 1181 1232 1184 1111 1168 1200 1150 1160 1131 1198 1176 1136 1181 1207 1108 1185 1221 1198 1139 1150 1174 1179 1179 1124 1126 1150 1209 1157 1095 1141 1170 1214 1185 1163 1158 1176 1103 1112 1122 1137 1165 1191 1144 1079 1169 1158 1151 1049 1144 1132 1117 1080 1157 1180 1055 1123 1159 1123 1101 1101 1090 1094 1090 1173 1162 1157 1139 1126 1106 1149 1131 1170 1193 1113 1097 1098 1085 1189 1146 1154 1097 1130 1136 1130 1101 1086 1147 1063 1120 1064 1121 1104 1132 1143 1163 1149 1090 1106 1153 1097 1120 1103 1143 1108 1068 1153 1101 1095 1099 1051 1104 1109 1151 1098 1123 1113 1163 1120 1112 1145 1129 1139 1153 1224 1131 1132 1057 1134 1128 1038 1187 1088 1190 1172 1206 1102 1193 1130 1127 1160 1102 1143 1138 1082 1200 1089 1223 1141 1168 1172 1174 1103 1108 1103 1155 1093 1164 1146 1122 1114 1055 1168 1158 1106 1141 1123 1138 1101 1208 1120 1162 1149 1142 1170 1182 1149 1143 1093 1143 1213 1183 1170 1177 1102 1059 1137 1097 1192 1140 1164 1187 1182 1164 1156 1180 1180 1170 1197 1160 1262 1182 1192 1182 1184 1175 1208 1262 1210 1248 1192 1171 1203 1247 1307 1241 1291 1251 1276 1276 1308 1256 1270 1189 1303 1350 1263 1221 1270 1267 1292 1256 1245 1270 1312 1215 1251 1327 1280 1303 1225 1230 1283 1278 1235 1293 1229 1190 1268 1265 1297 1255 1223 1151 1319 1226 1237 1321 1265 1272 1260 1318 1317 1284 1327 1295 1284 1218 1287 1283 1306 1366 1365 1405 1386 1368 1348 1311 1384 1455 1442 1483 1520 1631 1597 1579 1630 1672 1764 1777 1830 2038 2029 2130 2182 2265 2345 2482 2556 2599 2775 2875 2947 3072 3234 3201 3306 3372 3430 3596 3666 3879 3940 4089 4294 4406 4527 4617 4739 5033 5121 5528 5675 5921 6151 6460 6442 6458 6580 6898 6897 6764 6565 6469 6494 6222 6105 6078 5841 5593 5567 5327 5133 5015 4819 4708 4611 4380 4083 4167 3952 4026 3900 3858 3796 3697 3546 3574 3469 3424 3366 3266 3249 3232 3033 3041 2927 2897 2770 2630 2747 2512 2536 2366 2379 2274 2227 2194 2110 2156 2026 1952 1938 1955 1904 1793 1831 1756 1796 1676 1707 1616 1666 1575 1589 1497 1488 1446 1432 1413 1344 1333 1302 1320 1365 1357 1345 1314 1342 1252 1277 1253 1209 1137 1155 1187 1159 1123 1208 1150 1194 1118 1163 1148 1127 1129 1086 1126 1161 1127 1063 1063 1094 1130 1066 1066 1098 1083 1169 1123 1132 1081 1088 1061 1072 1058 1031 1068 1084 1042 1041 1071 1103 1078 1084 1058 1039 996 1024 1043 1005 1037 1056 1075 1091 1059 1056 1014 1026 959 1037 973 1033 987 1013 1044 1029 1009 1001 1068 1086 1004 994 1081 1033 1024 1017 954 1048 1032 1007 972 1019 996 986 997 1005 990 1041 953 1012 1003 968 1000 1024 1017 974 1085 994 960 959 970 1030 943 967 1021 931 1064 942 989 972 989 1007 1019 985 1003 980 970 985 1001 1020 947 960 927 967 995 993 989 962 964 1008 979 1031 976 956 962 1004 1018 1006 932 993 944 1017 942 1005 988 976 1001 1011 931 978 998 967 944 930 986 951 987 981 995 987 956 969 954 1005 949 999 890 985 951 969 1003 997 970 977 929 925 977 960 977 953 931 951 966 981 969 908 933 953 987 971 954 963 920 1032 1016 941 1012 938 1008 1003 962 964 1063 1039 996 963 990 1050 1006 1018 992 1055 966 986 1020 991 976 1023 1020 974 987 948 984 971 978 1010 1034 967 976 938 1014 983 991 969 937 958 1014 995 930 1002 976 964 1019 1024 964 950 990 1023 1013 1033 994 917 944 925 981 996 950 950 1016 934 957 977 930 898 963 942 924 947 1031 870 941 950 960 960 861 915 894 958 914 922 892 907 957 876 939 953 935 896 907 942 958 874 883 964 981 888 882 902 900 901 976 967 916 888 902 936 884 921 877 940 849 890 855 895 885 878 858 875 893 891 954 927 944 926 973 905 932 899 910 919 921 912 913 909 915 936 918 911 926 968 863 910 867 913 890 889 833 872 911 905 910 890 887 888 887 885 917 904 910 905 882 884 838 870 872 840 896 896 926 854 916 908 957 862 856 884 908 839 827 864 878 870 875 826 876 850 917 854 865 869 851 891 832 869 837 889 898 874 868 858 873 899 865 847 865 815 883 934 825 862 829 853 845 883 838 861 846 898 869 894 864 832 844 892 891 850 900 862 876 830 887 874 835 861 865 811 809 901 861 914 832 884 828 803 908 830 875 895 872 862 850 897 800 920 885 836 842 889 863 876 918 838 859 865 865 842 813 880 851 824 883 823 846 867 914 875 955 881 819 848 860 931 876 897 884 843 880 881 872 845 913 860 877 876 904 857 926 821 886 898 804 892 875 829 877 878 879 869 860 861 857 817 840 842 836 894 877 806 851 806 891 815 867 869 829 854 854 850 892 873 832 876 892 883 866 864 842 886 847 872 829 877 806 862 851 929 893 856 868 828 859 806 865 820 834 850 818 891 858 879 839 862 839 857 852 814 881 887 905 832 843 858 864 895 849 890 864 872 821 889 854 887 847 843 819 901 856 862 886 832 849 887 895 882 804 820 880 892 892 887 893 885 871 852 872 824 858 894 882 908 853 818 889 890 891 825 833 870 883 819 917 817 863 793 836 880 837 840 908 880 860 835 866 864 842 828 917 839 867 898 855 872 880 935 888 860 868 866 848 852 865 920 938 863 889 848 827 845 889 830 847 867 835 922 829 863 801 873 834 875 823 880 864 900 933 903 888 858 882 893 853 929 895 849 880 876 852 866 842 889 906 889 885 880 852 897 840 865 900 884 850 837 901 819 891 868 841 871 855 885 851 863 905 945 865 951 895 839 857 852 906 865 887 934 889 873 868 893 916 841 873 836 828 856 945 832 831 886 879 842 843 810 869 871 899 837 871 864 875 866 853 851 885 854 850 853 864 863 811 838 879 852 805 826 809 840 880 860 876 872 865 864 843 878 823 821 852 848 780 884 867 847 835 851 833 799 851 823 809 844 839 776 859 829 831 813 806 878 869 810 841 813 817 846 805 811 838 831 822 874 887 862 840 781 842 834 888 873 882 816 818 820 885 839 798 815 811 811 838 797 857 823 871 860 834 832 801 798 851 874 829 880 858 803 850 881 827 854 832 869 853 861 845 858 901 856 863 865 847 806 869 830 917 911 884 956 941 881 935 900 912 1003 925 898 896 938 934 941 960 1055 983 988 1016 1001 990 1020 1014 1026 1018 1020 1080 1061 1057 1094 1016 1082 1067 1156 1079 1065 1151 1160 1187 1206 1140 1262 1263 1322 1292 1300 1278 1381 1253 1329 1266 1321 1350 1320 1371 1306 1257 1232 1175 1182 1145 1073 1184 1201 1168 1059 1108 1082 975 1041 966 974 1027 976 981 914 897 1000 887 952 925 903 935 892 958 886 905 906 974 992 928 944 953 903 922 957 1002 923 944 928 950 899 982 954 949 961 943 954 928 896 962 901 901 862 939 924 872 902 929 914 911 884 865 874 884 868 890 902 930 841 803 910 901 895 824 898 829 867 789 845 835 810 831 802 883 827 847 825 850 819 787 777 799 806 822 820 801 828 820 845 846 796 852 775 858 826 833 840 819 868 800 806 851 844 841 867 822 804 822 783 852 808 778 856 838 827 761 787 785 808 813 825 799 885 765 812 759 762 800 739 794 780 763 818 839 758 841 808 767 801 770 801 832 819 793 809 769 829 795 767 763 766 792 829 793 794 825 800 812 792 836 787 821 762 787 809 829 801 846 780 837 759 808 763 811 782 804 847 847 770 787 816 828 825 779 826 773 784 758 799 761 780 803 796 730 819 770 871 810 801 800 837 835 841 790 862 796 825 869 823 842 816 781 835 840 819 847 791 730 820 846 765 783 816 853 789 810 802 800 813 851 768 812 785 842 781 813 813 775 828 800 795 815 873 797 840 760 787 816 799 814 790 883 791 774 772 832 781 785 854 853 789 810 867 831 838 904 814 835 778 836 794 855 785 827 866 801 769 814 824 813 798 781 855 811 851 817 889 842 830 860 847 891 885 875 833 836 818 877 882 875 841 832 817 863 872 864 908 956 925 949 905 938 956 986 1001 995 1071 1031 1111 1138 1115 1192 1244 1226 1275 1345 1303 1339 1390 1374 1439 1440 1448 1572 1523 1520 1645 1615 1710 1738 1675 1664 1786 1736 1815 1872 1865 1845 1949 1920 2059 2127 2127 2178 2354 2228 2287 2506 2475 2688 2744 2732 2839 2940 2900 3095 3156 3235 3303 3391 3345 3480 3370 3550 3370 3288 3295 3180 3111 2973 3024 2980 2830 2665 2646 2539 2403 2336 2225 2181 2108 2026 1904 1883 1801 1691 1654 1647 1650 1667 1569 1579 1583 1553 1523 1520 1540 1520 1624 1561 1595 1564 1584 1525 1599 1575 1672 1621 1525 1560 1601 1596 1517 1536 1588 1487 1564 1438 1406 1357 1356 1391 1340 1313 1312 1253 1329 1234 1294 1230 1229 1269 1216 1248 1162 1137 1096 1121 1128 1212 1015 1092 1124 1069 1089 1014 1063 1067 1028 981 1080 1044 986 998 1025 982 998 1016 946 932 922 1003 926 951 934 872 898 890 860 879 924 920 885 854 892 946 837 868 819 841 859 845 816 847 837 850 821 865 827 840 826 856 902 780 786 838 762 795 804 827 818 889 813 809 795 801 757 806 776 767 745 790 816 792 778 794 798 783 767 828 806 827 809 795 789 756 773 811 823 841 811 848 864 826 778 814 809 850 808 810 837 829 803 814 833 865 862 864 847 842 877 863 905 869 842 819 914 873 922 910 902 923 966 937 912 973 954 936 946 1022 1009 1056 1025 969 995 1050 974 1040 1085 1055 1080 1119 1139 1108 1109 1130 1117 1102 1104 1081 1120 1153 1187 1086 1068 1140 1058 1119 1093 1126 1092 1083 1108 1149 1130 1139 1122 1014 1059 1096 1063 1039 1027 1051 1046 1062 1029 989 957 977 1037 907 982 931 906 884 915 839 836 787 880 841 828 839 856 814 802 847 795 767 837 794 798 804 811 829 803 757 773 818 770 774 801 751 770 779 782 764 744 788 735 775 747 765 735 746 772 727 813 756 781 804 786 724 715 745 744 718 751 749 754 721 794 788 702 758 730 745 759 733 749 765 713 743 744 765 787 774 792 754 726 727 733 751 712 721 750 708 773 799 729 748 706 746 690 680 711 712 765 693 730 712 702 737 757 754 768 707 762 714 698 701 711 712 713 753 721 724 713 790 709 766 735 724 737 749 739 730 722 727 702 753 714 712 734 727 715 720 719 702 716 685 694 719 726 775 714 751 673 739 687 726 744 736 753 710 699 709 728 702 698 703 769 700 750 757 752 737 757 713 724 730 700 683 736 736 673 727 737 751 712 708 756 716 727 697 709 685 731 726 656 750 755 757 698 768 709 707 717 741 756 763 733 708 732 691 759 765 737 726 766 704 724 760 713 739 777 730 756 752 729 755 779 721 741 714 729 769 757 748 768 677 749 728 708 725 762 720 657 756 694 771 684 750 696 664 702 720 689 690 703 672 686 717 698 664 720 668 654 710 720 734 686 720 701 692 727 715 731 739 745 693 705 704 659 749 676 702 675 711 685 729 709 696 672 681 704 695 757 675 704 723 679 673 724 708 736 727 694 701 741 736 688 745 768 704 667 692 640 722 702 734 743 699 705 717 674 682 681 662 714 739 688 720 719 692 671 691 707 701 712 730 732 742 686 710 744 688 694 695 700 688 674 681 721 730 740 737 707 693 733 713 710 719 689 676 688 681 700 703 730 659 698 713 727 724 689 734 680 727 697 731 663 740 715 717 679 710 713 706 699 710 748 650 672 683 710 669 662 669 697 695 689 714 768 662 695 741 684 742 709 686 659 682 672 683 657 664 722 693 664 668 698 681 762 716 695 698 721 753 690 697 739 732 633 676 698 689 716 685 681 712 695 651 671 719 675 724 680 700 680 693 641 724 698 689 682 716 694 683 642 695 668 691 696 668 719 661 721 702 694 657 728 693 754 724 661 675 684 678 650 723 732 687 700 694 630 717 637 648 658 696 723 699 713 667 656 734 727 709 738 668 745 717 694 730 695 723 720 713 737 752 719 722 697 701 745 695 725 747 768 698 794 704 711 667 756 777 737 776 747 695 709 728 756 722 739 769 753 750 768 759 752 701 819 760 762 736 756 828 777 798 791 776 779 755 836 747 706 724 776 782 766 849 766 816 789 778 774 762 796 765 800 830 791 850 782 767 786 865 812 851 840 823 818 760 860 819 857 837 850 856 860 885 940 892 875 894 888 876 860 964 921 909 972 944 964 1034 909 997 934 977 990 1011 992 1007 955 947 959 901 899 862 904 924 868 840 814 826 866 823 810 906 825 830 830 799 808 829 764 803 775 780 763 807 807 773 763 815 805 793 788 784 819 762 799 797 842 867 862 826 863 876 925 859 929 864 869 880 925 936 880 912 925 844 885 910 944 933 897 875 880 922 899 851 845 824 805 769 810 749 726 788 811 802 768 761 739 729 687 746 680 756 735 686 754 732 732 696 722 711 710 680 703 695 706 710 737 680 722 676 659 698 682 701 732 719 725 692 655 728 694 734 724 705 635 758 657 689 672 693 645 666 664 662 674 656 694 715 686 701 651 702 671 672 686 668 665 669 695 651 662 713 646 647 745 644 671 697 725 681 669 665 707 680 683 667 656 673 649 697 683 673 703 642 717 613 714 697 674 654 669 698 651 672 682 632 689 678 720 628 690 621 698 696 682 738 697 703 695 688 707 734 760 768 801 788 778 789 773 821 813 764 809 768 803 793 845 827 829 853 881 856 871 884 854 893 880 879 855 882 899 917 927 904 907 900 904 915 984 953 920 942 947 987 986 1004 990 983 995 1045 1110 1023 1067 1105 1052 1170 1125 1190 1177 1189 1271 1239 1250 1262 1242 1240 1293 1337 1226 1295 1298 1313 1229 1192 1162 1202 1173 1197 1116 1124 1116 1122 1068 1080 1090 1032 1020 961 944 909 990 961 856 934 896 888 852 793 831 877 801 820 764 796 808 768 796 784 848 821 874 826 844 811 830 799 835 854 838 850 862 867 804 856 847 885 835 871 903 864 853 865 803 826 826 841 787 842 817 739 731 739 795 756 756 773 770 725 756 761 753 712 712 774 734 722 710 740 691 719 685 688 704 721 687 709 676 731 742 683 665 678 660 711 693 662 706 699 718 735 697 714 652 720 676 705 677 683 754 692 680 706 656 727 718 694 746 674 748 732 715 755 706 762 738 726 794 773 787 738 748 733 695 716 727 717 739 746 802 704 725 748 753 712 701 742 738 733 745 751 764 724 719 791 713 720 711 810 765 863 780 784 759 797 782 812 808 830 798 819 842 764 824 803 854 775 817 811 823 860 801 809 826 782 807 763 898 786 803 822 814 762 765 764 772 757 737 790 791 730 732 801 791 773 721 732 739 711 752 678 677 742 710 688 710 731 702 698 713 688 662 647 744 703 729 720 717 727 726 711 697 733 732 677 689 736 695 718 724 681 723 674 687 699 684 678 690 689 640 620 676 691 668 677 654 629 633 678 693 678 620 685 628 686 693 639 661 649 693 621 705 644 681 676 681 659 666 685 698 641 641 702 672 643 638 677 662 679 671 610 667 661 670 732 675 682 657 672 681 656 671 673 617 658 677 668 670 655 666 625 623 655 657 642 651 648 631 637 639 650 638 693 673 648 653 701 654 651 649 602 639 642 641 647 637 643 650 655 615 660 647 636 656 643 658 668 632 591 689 619 663 590 692 605 670 639 663 629 669 664 612 657 610 681 574 622 663 576 652 607 608 629 611 661 608 693 617 639 629 624 632 647 632 608 600 636 624 614 592 621 637 626 627 616 636 594 638 631 607 604 631 611 648 618 626 644 657 571 632 622 664 608 641 659 596 628 610 663 653 653 604 690 625 633 661 620 636 630 610 610 634 608 600 599 597 642 602 620 625 597 580 632 610 635 644 646 649 626 625 676 637 620 594 622 674 635 596 641 602 653 602 667 583 605 620 604 601 596 649 569 623 649 645 616 638 623 626 626 625 629 665 662 630 660 681 608 619 663 674 663 615 609 559 636 616 645 592 614 589 611 602 596 626 590 594 640 602 666 670 622 603 693 652 599 655 613 629 637 617 641 650 576 625 591 636 603 630 628 617 607 636 661 642 626 596 580 603 605 657 621 623 596 594 622 574 610 622 629 614 619 641 642 638 641 656 678 590 649 663 633 639 628 646 685 593 605 620 609 573 618 663 647 645 616 596 657 654 566 657 648 615 629 663 615 636 602 641 645 612 605 663 608 645 596 622 671 627 610 632 607 620 598 626 666 605 646 595 649 612 628 648 657 616 681 622 621 615 612 656 632 641 686 650 663 656 648 647 590 633 583 672 597 642 675 629 605 681 673 681 680 620 648 638 615 618 583 672 612 608 647 635 643 654 643 614 622 625 630 679 657 673 663 644 692 653 643 688 633 682 630 621 642 698 620 616 688 715 657 699 724 652 709 724 709 696 721 710 690 686 676 683 678 694 703 659 684 686 623 694 640 707 686 694 666 664 702 670 617 678 690 650 695 677 607 670 706 653 698 650 607 630 658 683 634 652 650 662 631 669 636 674 657 655 659 640 621 640 644 599 689 614 648 668 621 657 664 670 668 626 634 662 683 681 657 671 602 657 636 653 684 601 651 634 656 675 647 656 670 605 617 656 611 643 661 571 602 631 670 633 654 647 597 655 590 621 612 639 633 659 600 602 612 613 581 617 565 637 597 618 619 620 596 637 619 590 596 629 634 564 623 637 614 615 655 585 607 592 647 567 569 632 619 634 640 572 584 580 618 618 682 636 652 586 663 615 626 606 588 626 600 618 626 592 578 671 612 596 596 574 599 622 650 602 644 652 662 607 578 593 613 592 585 612 631 569 667 607 612 607 603 553 626 606 606 564 634 645 629 648 671 616 627 604 574 623 613 602 623 600 576 648 652 626 634 632 621 603 613 600 633 626 652 611 592 683 649 619 692 577 651 657 622 632 653 633 677 697 713 683 647 652 629 665 685 731 663 647 637 647 656 704 715 695 710 660 686 725 693 669 699 660 708 645 712 679 706 700 735 732 681 644 718 667 707 699 701 653 661 717 682 690 710 671 721 750 698 689 746 705 707 742 707 756 768 686 711 737 769 745 764 771 821 794 780 827 803 779 787 815 787 785 803 819 792 805 828 835 839 769 828 758 788 739 808 764 722 789 746 770 764 742 718 765 717 747 762 707 666 737 720 752 663 716 677 684 673 678 692 669 664 690 684 643 668 627 621 673 628 658 676 618 667 685 669 689 672 680 661 704 672 716 706 678 681 646 641 651 682 664 687 717 723 626 662 649 697 665 671 626 686 702 601 658 653 632 671 633 682 644 675 626 666 631 660 661 644 620 609 609 632 635 674 580 633 630 646 612 634 620 630 659 700 622 630 608 609 585 644 674 610 614 598 591 627 658 658 594 595 646 650 572 650 611 576 585 617 577 608 645 680 643 711 656 573 624 647 610 607 626 631 630 608 625 624 624 680 579 597 626 629 583 662 616 608 609 613 604 603 633 617 607 669 595 635 595 653 621 629 593 628 618 586 593 588 586 606 652 598 661 572 623 566 627 634 584 590 602 638 598 621 572 595 582 618 583 615 531 607 605 590 554 594 649 603 589 568 629 616 602 606 601 627 614 607 595 617 585 591 623 602 637 654 646 615 610 647 610 580 588 609 626 576 592 601 619 603 571 567 597 607 617 609 637 590 586 599 623 573 631 560 586 601 621 588 608 583 620 557 571 557 579 596 624 605 587 624 613 632 593 583 635 578 562 586 625 604 602 613 592 619 551 610 616 648 620 625 587 620 604 636 591 601 594 602 582 604 615 592 634 589 609 632 617 623 588 627 587 566 641 562 552 603 608 629 595 642 569 566 562 646 618 634 632 566 537 598 646 564 552 625 645 628 580 597 581 617 606 578 585 599 586 580 605 611 634 582 567 586 584 597 564 611 581 556 590 591 575 620 622 618 602 644 555 564 595 634 616 594 608 646 628 597 610 589 577 530 602 629 618 628 606 611 601 604 646 553 608 615 628 567 623 576 582 584 599 632 611 600 591 588 601 600 569 618 641 640 648 619 645 552 617 613 595 594 568 608 610 618 586 569 549 589 594 603 558 640 612 576 584 624 561 635 592 648 580 578 609 624 575 558 583 610 611 649 598 577 580 615 609 594 604 611 619 622 573 581 592 565 638 579 574 574 621 580 615 545 625 595 574 577 589 583 555 642 545 594 580 630 609 588 606 613 637 591 607 611 588 619 640 601 605 568 611 610 540 614 595 599 619 630 545 601 602 640 556 564 593 602 613 582 585 630 626 619 632 664 636 611 585 582 604 561 563 552 591 593 604 599 601 588 596 594 617 611 631 596 586 581 610 589 566 601 620 604 581 591 615 601 616 568 565 653 594 581 595 543 622 611 625 637 617 605 642 572 626 607 643 604 599 600 618 620 603 646 597 642 636 641 631 673 588 578 593 582 679 638 615 604 589 664 605 612 581 642 590 649 613 607 605 634 612 642 636 667 651 626 634 611 645 620 652 670 657 649 654 654 642 669 635 687 622 619 642 642 668 676 681 675 651 643 674 662 701 638 676 643 685 677 694 653 653 638 664 703 678 674 632 664 665 627 658 674 709 672 682 701 672 638 685 658 687 651 669 678 662 690 652 637 647 686 674 647 690 674 650 687 713 698 672 688 682 679 644 648 683 617 614 692 657 651 673 679 670 690 683 708 668 684 708 679 738 674 640 704 727 694 669 715 692 704 704 689 689 718 705 683 700 672 649 669 691 649 678 634 672 708 668 673 682 715 648 639 667 651 589 622 652 642 638 664 626 629 657 677 635 675 680 662 647 625 669 661 601 659 627 649 618 611 658 651 638 676 644 616 644 649 617 683 645 665 679 652 627 650 637 639 632 650 670 619 712 696 686 648 677 690 664 647 682 679 641 620 697 652 704 714 676 635 669 663 646 675 652 685 663 663 651 638 663 628 716 624 643 699 613 651 712 671 658 685 644 667 700 702 672 682 703 687 638 631 664 640 600 673 633 680 632 676 652 657 657 677 687 692 701 688 665 697 637 662 683 663 726 675 680 725 714 744 765 729 741 696 681 754 756 760 710 693 735 686 752 758 760 705 751 717 699 759 767 718 741 746 827 765 816 749 741 777 727 751 724 769 778 724 833 718 734 747 799 812 830 772 825 776 808 819 780 835 842 807 826 856 794 855 813 880 861 841 865 859 799 876 859 849 916 913 908 888 892 929 955 959 970 1017 955 963 974 989 1019 1018 1000 961 940 965 1015 975 956 1007 998 978 960 992 990 918 919 958 905 867 918 868 904 886 852 844 894 892 844 838 845 867 859 844 798 796 839 797 740 788 776 762 729 722 809 741 727 710 727 706 680 735 721 743 727 689 672 713 674 648 689 643 682 728 665 695 694 681 734 694 736 698 728 711 741 681 719 676 720 733 725 704 762 730 748 693 776 704 760 714 707 791 749 762 753 775 740 700 744 789 772 773 744 663 794 717 806 759 782 791 745 741 727 729 711 708 664 698 738 708 757 775 760 763 688 738 700 779 709 729 745 716 703 739 720 700 661 667 721 675 733 677 701 710 704 729 706 684 670 640 681 692 631 692 679 702 704 704 664 676 713 707 670 683 698 638 699 723 698 667 681 652 665 719 676 681 674 659 677 669 677 661 716 662 639 659 710 653 688 688 671 630 669 649 638 629 701 619 628 667 657 621 674 641 637 619 625 663 647 637 629 642 669 672 680 623 655 632 602 645 663 676 591 608 568 681 661 576 649 644 614 670 650 635 662 602 588 650 635 589 595 638 613 631 586 595 643 635 630 622 634 631 651 623 591 647 618 625 610 643 688 621 635 601 607 630 598 612 630 618 628 590 649 632 645 647 606 586 586 538 670 640 624 666 602 647 625 618 631 632 580 647 610 609 680 612 620 595 625 623 593 616 573 603 632 641 651 648 601 630 628 620 594 634 631 623 572 592 680 646 599 654 672 612 627 651 664 630 636 553 579 656 609 684 630 647 624 651 678 619 653 620 664 669 682 658 612 639 619 607 628 657 618 616 649 623 671 659 620 671 622 632 694 651 639 666 624 635 667 668 676 675 677 604 660 623 674 613 591 620 666 628 647 620 646 599 613 599 668 629 618 638 639 641 613 598 620 653 643 573 666 612 600 607 592 657 629 611 620 560 661 600 601 614 664 620 601 671 579 556 600 611 607 580 601 619 621 577 606 628 667 645 563 634 556 637 568 605 620 580 565 589 592 597 589 593 624 639 598 619 587 611 617 612 590 549 573 617 588 600 655 588 610 606 673 613 626 611 566 613 634 571 595 638 620 599 574 617 553 583 626 584 588 580 626 591 576 589 613 629 613 580 572 593 586 578 614 588 598 566 570 627 560 572 626 593 626 653 606 592 592 636 601 621 627 625 544 548 591 611 608 627 604 660 559 614 547 652 582 596 648 587 615 565 638 655 590 603 665 623 639 596 618 598 612 591 585 611 620 602 597 605 653 679 622 634 614 584 626 622 583 619 575 569 631 612 620 596 599 595 645 626 562 601 625 664 632 627 575 623 597 626 669 660 635 576 630 588 605 621 591 602 581 600 638 617 590 644 590 643 603 606 638 622 646 598 620 616 620 626 628 595 659 677 649 625 668 606 652 632 667 639 632 607 646 675 634 670 612 665 634 632 671 728 595 672 588 648 629 638 602 691 635 644 691 619 639 636 661 654 650 633 699 686 675 682 665 659 589 621 656 634 689 653 634 634 603 619 611 661 619 701 679 616 676 642 613 659 596 607 668 634 631 647 627 636 634 574 599 633 584 597 639 613 653 613 642 647 603 624 614 623 588 618 630 633 599 632 616 639 590 600 638 583 591 610 589 579 638 609 646 575 631 585 625 599 616 622 616 623 576 594 592 600 616 637 597 634 589 608 603 614 619 643 640 614 616 602 630 611 630 679 628 569 648 624 599 619 632 576 619 658 626 619 556 663 568 570 618 564 607 589 603 565 643 603 593 630 600 611 574 662 634 593 620 635 612 583 580 625 603 618 637 591 590 586 603 627 627 624 600 577 653 650 621 630 576 643 586 639 580 594 629 675 614 665 582 631 608 658 651 623 619 658 672 650 646 670 657 661 627 651 663 720 633 654 672 663 656 646 633 641 618 646 622 622 678 695 714 675 661 683 660 701 700 676 641 646 662 728 651 667 727 668 713 649 726 757 700 742 770 699 690 676 708 737 685 705 769 729 713 734 711 689 732 754 730 712 755 741 687 723 745 740 714 729 788 769 759 771 741 750 744 775 809 764 755 691 761 738 740 747 788 810 769 821 786 782 801 827 780 829 785 857 809 837 824 829 800 825 867 805 795 868 854 839 821 872 815 862 842 820 838 795 852 799 823 784 726 760 793 793 820 788 768 739 748 774 780 792 751 781 764 764 737 744 730 732 697 712 680 752 738 718 659 700 715 721 699 702 692 709 699 741 696 670 705 690 641 620 702 702 665 659 657 658 663 691 646 645 667 618 687 628 668 652 678 667 653 692 684 649 663 698 666 736 652 667 677 683 725 684 722 679 662 668 646 665 664 683 649 677 693 651 673 683 645 677 681 684 644 688 637 703 678 668 630 667 663 680 647 672 698 679 665 684 636 673 653 632 641 647 628 660 622 693 664 624 698 660 590 658 626 641 646 658 632 604 653 616 681 655 660 642 665 664 694 653 651 686 673 686 610 618 615 662 659 629 662 605 650 655 627 638 650 636 601 718 593 636 613 638 645 615 590 636 629 666 640 623 635 567 594 597 703 646 609 627 629 627 632 580 619 631 612 623 589 623 601 619 657 573 618 586 681 596 623 605 619 556 639 624 586 620 595 592 644 630 665 612 678 588 647 600 593 612 611 601 552 616 573 639 645 636 651 639 633 593 629 628 595 565 590 582 608 630 564 599 612 624 590 595 580 621 601 600 567 615 574 591 576 595 644 539 592 595 631 633 597 609 593 636 587 565 599 601 595 597 583 569 616 595 633 569 575 614 621 611 582 663 612 617 604 610 579 644 618 602 600 594 592 595 613 635 592 594 550 603 584 614 650 614 616 613 615 616 615 582 540 630 615 610 569 571 608 535 601 591 591 608 634 584 603 569 571 635 603 599 645 604 602 607 603 603 602 549 601 616 646 584 623 555 581 578 554 582 598 607 612 610 599 582 569 556 594 565 526 617 584 590 595 559 629 577 593 607 567 616 546 596 592 585 567 653 629 586 561 618 558 598 625 574 579 560 622 621 602 552 597 601 592 633 558 604 593 587 611 595 604 534 551 590 601 540 595 575 573 569 607 583 577 585 564 556 594 586 578 540 559 601 532 592 541 589 559 593 596 600 584 642 592 582 588 567 574 594 582 566 574 602 570 594 600 601 559 552 582 592 586 585 614 582 581 644 553 612 579 588 619 593 585 609 600 633 622 591 586 600 582 573 602 611 612 559 581 603 603 604 571 608 625 590 589 584 608 587 559 612 589 552 548 603 604 602 568 591 603 603 558 578 607 631 568 589 619 642 574 630 624 634 590 625 608 643 644 556 634 597 598 629 604 601 619 632 602 574 625 604 588 602 622 634 658 617 570 600 622 594 609 634 612 648 620 661 638 596 593 592 628 613 659 651 597 625 632 626 592 627 646 623 637 621 633 643 607 658 631 602 657 657 631 670 600 640 629 679 570 626 647 654 633 647 606 651 655 596 603 676 610 639 653 618 642 656 609 678 634 639 609 635 670 614 563 645 606 669 696 641 622 665 652 668 663 652 635</counts>
			</dataPoints>
		</scan>
	</xrdMeasurement>
</xrdMeasurements>
