<?xml version="1.0"?>
<xrdMeasurements xmlns="http://www.xrdml.com/XRDMeasurement/2.3" xmlns:xsi="http://www.w3.org/2001/XMLSchema-instance" xsi:schemaLocation="http://www.xrdml.com/XRDMeasurement/2.3 http://www.xrdml.com/XRDMeasurement/2.3/XRDMeasurement.xsd" status="Completed" recordIdentifier="{649B9AF5-F9DB-40FA-ACCD-86560E28FE39}">
	<comment>
		<entry/>
	</comment>
	<sample type="To be analyzed">
		<id>GPSS_Li1p4Fe0p2Mg0p6Ta0p2Cl4_102025_68f72594028f64128e25d0cf</id>
		<name></name>
		<preparedBy></preparedBy>
	</sample>
	<xrdMeasurement measurementType="Scan" status="Completed" sampleMode="Reflection">
		<usedWavelength intended="K-Alpha 1">
			<kAlpha1 unit="Angstrom">1.5405980</kAlpha1>
			<kAlpha2 unit="Angstrom">1.5444260</kAlpha2>
			<kBeta unit="Angstrom">1.3922500</kBeta>
			<ratioKAlpha2KAlpha1>0.5000</ratioKAlpha2KAlpha1>
		</usedWavelength>
		<incidentBeamPath>
			<radius unit="mm">145.00</radius>
			<xRayTube id="1010048" name="Empyrean Cu LFF HR (9430 033 7310x)">
				<tension unit="kV">40.0</tension>
				<current unit="mA">15.0</current>
				<anodeMaterial>Cu</anodeMaterial>
				<focus type="Line">
					<length unit="mm">12.0</length>
					<width unit="mm">0.4</width>
					<takeOffAngle unit="deg">6.0</takeOffAngle>
				</focus>
			</xRayTube>
			<sollerSlit id="21010002" name="Soller slits 0.04 rad.">
				<opening unit="rad">0.0400</opening>
			</sollerSlit>
			<mask id="22031000" name="Fixed mask 13 mm">
				<width unit="mm">9.00</width>
			</mask>
			<divergenceSlit id="22120001" name="Divergence slit 1°" xsi:type="fixedDivergenceSlitType">
				<distanceToSample unit="mm">50.00</distanceToSample>
				<height unit="mm">1.52</height>
			</divergenceSlit>
		</incidentBeamPath>
		<sampleMovement xsi:type="spinningSampleMovementType">
			<spinnerRevolutionTime unit="seconds">1.0</spinnerRevolutionTime>
		</sampleMovement>
		<diffractedBeamPath>
			<radius unit="mm">145.00</radius>
			<antiScatterSlit id="22090040" name="AS slit 9 mm (PIXcel)" xsi:type="fixedAntiScatterSlitType">
				<height unit="mm">9.00</height>
			</antiScatterSlit>
			<sollerSlit id="21020003" name="Large Soller slits 0.04 rad.">
				<opening unit="rad">0.0400</opening>
			</sollerSlit>
			<filter id="20030001" name="Large beta-filter Nickel">
				<material>Ni</material>
				<thickness unit="mm">0.020</thickness>
			</filter>
			<detector id="7010019" name="PIXcel1D-Medipix3 detector" xsi:type="rtmsDetectorType">
				<phd unit="keV">
					<lowerLevel>4.02</lowerLevel>
					<upperLevel>11.27</upperLevel>
				</phd>
				<mode>Scanning</mode>
				<activeLength unit="deg">5.542</activeLength>
			</detector>
		</diffractedBeamPath>
		<scan appendNumber="0" mode="Continuous" scanAxis="Gonio" status="Completed">
			<header>
				<startTimeStamp>2025-10-26T16:02:14-07:00</startTimeStamp>
				<endTimeStamp>2025-10-26T16:10:21-07:00</endTimeStamp>
				<author>
					<name>AutomatedUser</name>
				</author>
				<source>
					<applicationSoftware version="1.7b (136)">PANalytical Aeris Instrument Suite</applicationSoftware>
					<instrumentControlSoftware version="3.2.00000000 20240306">AERIS</instrumentControlSoftware>
					<instrumentID>950485</instrumentID>
				</source>
			</header>
			<dataPoints>
				<positions axis="2Theta" unit="deg">
					<startPosition>10.00943322</startPosition>
					<endPosition>99.99442286</endPosition>
				</positions>
				<positions axis="Omega" unit="deg">
					<startPosition>5.00471661</startPosition>
					<endPosition>49.99721143</endPosition>
				</positions>
				<commonCountingTime unit="seconds">12.495</commonCountingTime>
				<counts unit="counts">2839 2831 2802 2827 2827 2774 2875 2814 2919 2840 2923 2791 2741 2850 2811 2802 2806 2862 2852 2787 2852 2839 2846 2813 2858 2800 2775 2877 2816 2740 2773 2773 2875 2744 2877 2783 2845 2904 2886 2888 2832 2826 2855 2851 2840 2806 2825 2881 2824 2865 2913 2726 2869 2747 2938 2816 2824 2831 2867 2851 2875 2822 2958 2888 2907 2817 2803 2923 2844 2871 2920 2894 2797 2820 2898 2885 2971 2889 2914 2940 2922 2956 2939 2847 2826 2808 2780 2951 2977 2890 2923 2931 2903 2986 2858 2863 2921 2948 2942 2907 2942 3008 2866 2914 2777 3053 2942 2914 2991 2875 2978 2755 2913 2982 2882 2822 2959 2980 2908 2927 2950 2911 2960 3000 2817 2924 2850 2924 2900 2951 2991 2836 2929 2949 2851 2989 2968 3042 2987 2955 2867 2878 3020 3017 2971 2857 2888 2985 2876 2986 2921 2949 2936 2945 2916 2986 2931 2905 2859 2918 2853 2952 2954 2995 3034 3012 2997 2906 3008 2939 2927 2991 3025 2934 2951 2898 2916 2873 2981 2976 3011 2880 2995 3000 2946 2897 2935 2921 2925 2886 2886 2911 2807 2845 2958 2938 3035 2891 2876 2979 2949 2972 2970 2829 2855 2928 2907 2923 2905 2930 3001 2939 2987 2948 2806 2948 2926 2924 2879 2910 2823 2849 2925 2864 2818 2933 2794 2886 2842 2979 2981 2858 2922 2912 2937 2776 2849 2773 2898 2934 2878 2877 2896 2857 2863 2807 2923 2782 2897 2912 2867 2877 2842 2800 2832 2798 2831 2864 2812 2928 2771 2797 2803 2838 2870 2892 2859 2804 2854 2857 2892 2832 3005 2894 2856 2926 2958 2877 2945 2869 2820 2938 2903 2813 2906 2837 2836 2833 2897 2909 2944 2821 2891 2955 2820 2869 2888 2906 2805 2831 2927 2823 2800 2932 2973 2866 3037 3005 2827 2911 2804 2798 2957 2928 2884 2946 3016 2890 2867 2954 2992 2960 3072 2939 3020 3039 2988 2933 3036 2967 3136 2988 3051 2989 3060 3046 3121 2965 2950 3015 3053 2986 3051 2886 3079 3119 3115 3103 3192 3051 3032 3074 3097 3103 3054 3179 3075 3207 3158 3137 3121 3253 3146 3097 3235 3138 3133 3014 3178 3106 3132 3165 3212 3225 3184 3214 3180 3341 3204 3243 3277 3264 3308 3337 3268 3249 3405 3342 3340 3181 3288 3267 3375 3209 3358 3286 3306 3279 3391 3484 3276 3350 3354 3366 3336 3434 3414 3366 3451 3402 3388 3433 3546 3456 3496 3530 3603 3451 3502 3562 3535 3622 3698 3724 3718 3802 3781 3818 3963 3934 3935 3939 3958 3936 3973 4058 4118 4151 4106 4032 3904 4129 3907 4048 3894 3797 3834 3941 3913 3816 3758 3781 3869 3772 3755 3721 3810 3901 3811 3766 3724 3648 3812 3764 3801 3675 3669 3676 3607 3730 3654 3560 3705 3581 3557 3576 3579 3443 3494 3439 3446 3510 3436 3483 3397 3376 3388 3252 3421 3266 3356 3329 3377 3325 3269 3212 3237 3340 3306 3257 3109 3280 3289 3230 3336 3210 3185 3299 3252 3189 3144 3133 3240 3152 3183 3244 3102 3060 3155 3206 3160 3114 3072 3097 3120 3103 3186 3135 3109 3107 3111 3163 3057 3120 3104 3063 3001 3015 3037 3029 3066 3043 2896 3120 3038 3109 3017 2967 3077 3060 2991 3036 2895 3040 2997 3006 3106 2966 2963 2980 3028 3032 2933 2952 2901 2954 2839 2955 2917 3014 3086 2972 2910 2938 2912 2916 2906 2912 3009 2981 2946 2897 3030 2868 2915 2791 2961 2978 2865 2973 2896 2795 2864 2864 2953 2732 2951 2847 2859 2924 2894 2834 2889 2900 2875 2846 2838 2852 2798 2826 2812 2836 2808 2821 2868 2710 2953 2766 2887 2810 2798 2777 2877 2794 2715 2766 2708 2738 2812 2948 2848 2757 2790 2821 2756 2835 2797 2853 2700 2816 2720 2764 2750 2746 2784 2844 2772 2820 2753 2903 2746 2749 2723 2818 2814 2832 2794 2691 2832 2685 2759 2746 2770 2741 2755 2677 2724 2852 2717 2768 2737 2754 2730 2769 2762 2753 2682 2697 2689 2697 2779 2697 2805 2670 2663 2685 2691 2719 2779 2836 2692 2648 2659 2725 2673 2728 2730 2666 2746 2625 2683 2700 2761 2634 2649 2687 2587 2592 2699 2731 2806 2721 2687 2764 2629 2727 2637 2634 2682 2712 2636 2642 2669 2749 2579 2679 2721 2724 2759 2759 2655 2624 2651 2612 2674 2655 2667 2638 2560 2689 2598 2613 2759 2754 2591 2785 2614 2752 2574 2722 2612 2645 2698 2727 2650 2664 2679 2624 2694 2603 2627 2584 2597 2539 2691 2574 2692 2681 2589 2613 2655 2756 2631 2649 2620 2754 2627 2633 2602 2657 2605 2658 2594 2714 2650 2600 2646 2593 2620 2537 2614 2572 2649 2603 2618 2687 2613 2627 2656 2536 2610 2600 2610 2550 2577 2526 2597 2541 2508 2551 2635 2565 2585 2571 2612 2546 2612 2573 2723 2657 2693 2637 2517 2573 2641 2629 2361 2589 2524 2628 2620 2610 2473 2509 2578 2629 2592 2463 2501 2542 2589 2508 2564 2510 2591 2534 2550 2493 2424 2570 2538 2548 2583 2394 2552 2582 2503 2569 2552 2575 2587 2495 2526 2459 2597 2535 2595 2534 2497 2467 2515 2515 2501 2481 2470 2523 2385 2510 2530 2427 2475 2567 2486 2488 2454 2521 2504 2487 2564 2508 2506 2450 2537 2464 2404 2466 2397 2476 2454 2435 2508 2468 2584 2513 2506 2506 2417 2505 2426 2446 2527 2494 2355 2477 2448 2412 2467 2398 2401 2412 2399 2340 2457 2430 2447 2490 2376 2452 2465 2393 2467 2395 2357 2362 2434 2395 2453 2491 2318 2372 2456 2413 2321 2389 2412 2324 2381 2432 2370 2409 2352 2410 2445 2388 2456 2448 2423 2428 2322 2378 2352 2452 2471 2356 2288 2452 2436 2354 2387 2415 2447 2448 2420 2332 2351 2364 2371 2424 2437 2342 2460 2383 2297 2362 2363 2414 2388 2411 2374 2345 2297 2363 2323 2379 2433 2334 2375 2354 2305 2465 2440 2320 2393 2354 2348 2350 2364 2415 2403 2372 2364 2406 2451 2412 2354 2339 2431 2450 2374 2459 2429 2405 2373 2388 2347 2428 2371 2440 2413 2419 2450 2372 2401 2417 2306 2386 2392 2340 2398 2395 2484 2315 2391 2366 2387 2449 2458 2359 2496 2379 2394 2378 2469 2362 2576 2410 2505 2436 2396 2356 2339 2430 2343 2436 2398 2452 2407 2473 2403 2424 2361 2420 2458 2327 2408 2443 2387 2418 2371 2428 2426 2378 2444 2404 2440 2454 2439 2421 2321 2408 2428 2399 2528 2378 2483 2417 2367 2444 2533 2422 2495 2364 2420 2382 2419 2486 2415 2456 2371 2334 2457 2331 2427 2545 2367 2372 2496 2333 2481 2405 2501 2428 2429 2381 2487 2392 2374 2335 2307 2352 2382 2320 2397 2349 2418 2457 2402 2345 2396 2361 2346 2412 2424 2421 2294 2389 2461 2373 2398 2219 2395 2418 2347 2398 2435 2356 2419 2308 2337 2396 2358 2386 2334 2411 2418 2357 2326 2383 2282 2319 2346 2463 2401 2391 2358 2383 2309 2416 2370 2308 2337 2393 2386 2367 2385 2319 2340 2332 2436 2273 2302 2397 2337 2356 2299 2320 2378 2294 2315 2303 2358 2321 2286 2310 2266 2241 2265 2204 2215 2407 2248 2211 2150 2177 2232 2273 2289 2268 2248 2198 2185 2221 2202 2230 2284 2205 2148 2263 2154 2227 2163 2128 2143 2159 2078 2103 2143 2142 2063 2138 2102 2045 2109 2100 2096 2137 2033 2016 1935 2154 2081 2031 2068 2035 1948 2094 2022 2025 1939 2050 1929 1990 2004 2028 2052 1966 1942 1909 2039 1904 2003 1908 2012 1982 1876 1942 1985 1948 1929 2046 1955 1974 1934 1931 1881 1942 2004 1922 2009 1917 1961 1924 1924 1798 1936 1880 1914 1944 1868 1886 1899 1842 1896 1918 1887 2002 1904 1769 1937 1867 1814 1823 1898 1858 1926 1779 1804 1870 1848 1789 1908 1911 1827 1784 1837 1820 1913 1900 1903 1824 1844 1832 1889 1856 1893 1844 1811 1888 1834 1775 1806 1786 1792 1822 1809 1781 1691 1778 1804 1733 1866 1810 1836 1786 1826 1787 1800 1750 1815 1817 1813 1790 1754 1779 1757 1786 1806 1840 1767 1788 1766 1799 1699 1785 1695 1723 1798 1739 1802 1708 1768 1752 1796 1856 1791 1787 1718 1775 1729 1790 1805 1815 1799 1754 1770 1722 1738 1756 1840 1787 1756 1749 1782 1820 1823 1762 1782 1817 1840 1741 1783 1775 1734 1748 1774 1767 1739 1815 1754 1865 1838 1813 1749 1754 1784 1781 1771 1792 1792 1772 1845 1812 1723 1729 1813 1787 1801 1888 1752 1741 1775 1768 1808 1738 1780 1847 1774 1852 1767 1854 1802 1800 1773 1806 1832 1743 1766 1778 1828 1806 1781 1828 1797 1840 1825 1800 1806 1819 1770 1791 1786 1739 1782 1813 1721 1821 1781 1753 1814 1844 1760 1761 1791 1819 1795 1814 1868 1828 1807 1813 1885 1724 1824 1797 1752 1857 1824 1804 1790 1877 1801 1751 1799 1745 1824 1822 1833 1756 1838 1778 1762 1846 1764 1802 1851 1825 1706 1803 1748 1756 1723 1741 1796 1819 1705 1692 1851 1759 1766 1677 1705 1751 1822 1808 1805 1805 1781 1761 1731 1795 1791 1825 1766 1692 1785 1780 1729 1715 1758 1746 1816 1721 1704 1791 1755 1741 1693 1760 1695 1747 1701 1636 1718 1745 1768 1606 1780 1692 1643 1659 1710 1706 1703 1697 1638 1638 1691 1651 1658 1627 1685 1701 1679 1695 1614 1707 1642 1744 1601 1621 1627 1575 1638 1592 1630 1689 1646 1589 1615 1565 1699 1595 1613 1606 1615 1606 1708 1575 1576 1555 1622 1544 1622 1492 1575 1527 1509 1634 1593 1665 1500 1574 1588 1539 1528 1647 1581 1573 1544 1584 1535 1582 1605 1619 1566 1534 1549 1583 1520 1583 1543 1537 1548 1512 1589 1586 1546 1573 1560 1627 1551 1595 1503 1494 1553 1599 1546 1523 1575 1598 1591 1532 1536 1621 1606 1615 1517 1580 1614 1558 1595 1523 1650 1668 1565 1652 1624 1710 1746 1723 1707 1863 1889 1914 1983 1998 2010 2066 2054 2135 2195 2153 2215 2224 2315 2243 2229 2225 2290 2268 2221 2286 2178 2309 2184 2108 2122 2163 2136 2152 2052 2080 2028 2056 2074 2120 2083 2032 1889 2004 1975 1995 1934 1924 1974 1886 1909 1894 1929 1839 1871 1833 1818 1816 1837 1756 1816 1661 1771 1714 1763 1740 1666 1656 1677 1702 1666 1619 1627 1556 1640 1639 1555 1578 1524 1513 1547 1588 1523 1526 1617 1531 1563 1492 1577 1527 1434 1555 1517 1446 1523 1507 1461 1521 1581 1498 1452 1527 1508 1549 1545 1587 1542 1619 1539 1676 1623 1718 1659 1688 1804 1786 1822 1948 2057 2132 2336 2446 2547 2842 3010 3217 3632 3890 4132 4424 4635 4906 5160 5181 5310 5571 5530 5673 5535 5474 5350 5223 5007 4884 4634 4517 4318 4131 3974 3895 3728 3675 3497 3539 3349 3288 3227 3219 3183 3119 3027 3115 3089 3087 3110 3113 3052 3097 2957 3068 2895 2835 2779 2838 2806 2672 2612 2522 2371 2317 2225 2187 2014 2086 1942 1891 1820 1860 1685 1715 1664 1650 1611 1631 1537 1436 1439 1396 1413 1384 1319 1412 1348 1289 1408 1347 1343 1351 1329 1368 1360 1401 1317 1299 1315 1350 1278 1320 1348 1295 1233 1235 1285 1215 1193 1262 1213 1243 1273 1233 1241 1229 1214 1233 1291 1204 1204 1238 1261 1239 1219 1173 1270 1172 1242 1229 1167 1213 1261 1233 1213 1250 1216 1198 1232 1306 1243 1233 1167 1298 1252 1195 1215 1251 1221 1195 1174 1199 1181 1198 1147 1219 1206 1176 1201 1204 1155 1155 1175 1149 1188 1197 1184 1233 1162 1159 1128 1227 1212 1214 1166 1253 1142 1082 1199 1208 1149 1171 1182 1134 1136 1147 1174 1187 1121 1154 1172 1168 1113 1192 1198 1189 1187 1254 1098 1112 1124 1149 1141 1198 1171 1129 1105 1136 1146 1148 1177 1185 1120 1124 1105 1204 1117 1170 1142 1125 1112 1132 1174 1088 1159 1119 1156 1171 1099 1129 1166 1146 1185 1157 1160 1095 1130 1104 1178 1090 1164 1149 1087 1111 1107 1151 1122 1147 1108 1152 1119 1158 1117 1170 1130 1154 1146 1136 1177 1110 1134 1166 1058 1117 1117 1198 1199 1096 1124 1232 1122 1147 1181 1124 1123 1127 1051 1072 1037 1089 1151 1088 1109 1066 1132 1100 1099 1128 1127 1079 1128 1138 1047 1097 1092 1056 1075 1105 1150 1183 1205 1095 1146 1058 1109 1138 1106 1051 1132 1110 1129 1183 1046 1115 1107 1119 1169 1093 1077 1148 1140 1172 1191 1090 1106 1116 1118 1143 1106 1100 1093 1136 1089 1118 1102 1108 1136 1075 1087 1093 1072 1050 1116 1090 1106 1092 1078 1110 1173 1104 1106 1046 1108 1111 1105 1115 1133 1090 1069 1147 1169 1109 1163 1117 1120 1148 1156 1132 1111 1148 1148 1116 1179 1076 1166 1099 1111 1145 1097 1156 1141 1085 1102 1213 1144 1166 1180 1125 1142 1059 1179 1167 1158 1114 1147 1248 1188 1136 1184 1195 1107 1114 1164 1215 1155 1174 1217 1192 1198 1214 1192 1194 1228 1230 1259 1198 1314 1287 1317 1284 1329 1336 1378 1308 1371 1334 1399 1439 1449 1583 1527 1625 1710 1732 1728 1890 2022 2152 2296 2528 2559 2835 3170 3547 3842 4198 4654 4869 5379 5602 6032 6409 6676 6864 7093 7156 7127 7249 7285 7287 7031 6978 6943 6567 6060 5925 5641 5458 5209 4963 4773 4539 4205 4057 4002 3817 3775 3477 3440 3322 3328 3340 3399 3236 3207 3183 3146 3057 3114 3087 3060 2955 2869 2798 2666 2752 2641 2532 2544 2523 2327 2239 2230 2126 2077 1912 1819 1746 1838 1672 1570 1471 1519 1430 1570 1416 1414 1423 1462 1341 1349 1309 1334 1304 1279 1300 1349 1252 1272 1195 1254 1182 1246 1184 1159 1196 1199 1195 1179 1158 1230 1232 1183 1181 1205 1111 1126 1130 1201 1128 1078 1191 1182 1064 1112 1152 1135 1094 1084 1240 1081 1111 1139 1041 1157 1101 1113 1090 1095 1075 1067 1108 1108 1035 1055 1087 1061 1033 1078 1066 1119 1132 1031 1026 1083 1070 1051 1106 1106 1104 1122 1053 1074 1033 1120 1113 1132 1114 1011 1076 1093 1108 1037 1045 1058 1146 1106 1108 1106 1103 1066 1055 1044 1075 1047 1055 1055 1078 994 1090 1072 1099 1093 1073 1117 988 1036 1091 1040 1066 1053 1096 1081 1030 1100 1091 990 1100 1064 1100 1073 1095 1076 1094 1169 1111 1144 1153 1192 1168 1086 1143 1093 1122 1111 1169 1144 1104 1153 1089 1074 1072 1187 1075 1139 1147 1172 1156 1100 1153 1183 1120 1172 1122 1154 1196 1106 1119 1141 1104 1110 1173 1125 1134 1163 1175 1136 1193 1139 1134 1158 1140 1162 1184 1121 1189 1239 1186 1157 1127 1202 1094 1114 1138 1085 1142 1125 1116 1175 1130 1127 1117 1177 1107 1132 1090 1094 1077 1095 1111 1106 1096 1052 1042 1127 1045 1123 1111 1090 1087 1043 1065 1116 1098 1066 1096 1054 1077 1106 1091 1042 1078 1071 1065 1116 1107 1068 1040 1045 1031 1080 1024 1047 1052 1051 1015 1024 1039 1093 1022 1053 1048 1034 1036 1062 1022 989 1034 1024 1040 1011 1031 1039 1130 1041 1064 1049 1055 995 1046 1001 1029 1029 994 990 1073 981 1007 1003 1008 977 1000 987 974 1048 1027 980 1004 1021 1005 1005 945 1015 996 995 1072 992 991 1036 961 930 1030 1048 925 1031 995 994 979 1036 1000 1006 1003 943 992 994 995 1058 948 968 917 935 999 952 950 1019 960 1008 979 1007 973 1027 935 962 956 961 933 948 972 992 980 958 923 930 976 964 940 867 941 922 962 995 962 950 977 974 944 939 944 983 984 982 960 975 982 958 960 925 977 956 963 1008 960 987 914 945 972 962 911 1010 941 980 1012 907 904 916 962 941 903 967 926 881 954 920 917 932 910 966 957 935 940 987 888 948 988 897 932 927 958 917 925 909 926 921 998 922 970 869 893 953 947 943 930 889 870 972 911 975 901 928 924 951 923 923 939 884 913 908 867 893 854 944 895 939 882 921 899 882 899 920 900 894 943 933 939 864 943 885 922 943 964 921 922 940 917 916 887 961 954 939 896 937 908 946 918 994 937 852 911 1006 886 919 872 901 883 941 912 874 899 873 903 921 882 934 894 932 901 870 950 888 881 904 895 885 938 910 932 953 954 889 857 930 859 900 953 920 928 863 912 908 920 851 917 899 920 896 928 929 960 953 886 888 862 930 894 940 918 923 868 910 871 859 918 915 897 881 925 902 904 940 941 849 981 901 942 896 888 923 883 912 876 851 915 959 883 943 855 964 900 955 950 914 861 894 903 890 854 879 912 933 886 934 916 891 862 894 938 905 852 891 852 879 903 886 962 884 904 859 885 922 933 863 899 940 863 892 886 852 862 935 906 959 930 848 909 864 866 853 866 885 879 887 841 854 917 856 897 847 948 907 913 872 853 899 895 855 909 911 902 865 896 853 863 867 891 852 932 916 871 918 871 895 919 871 905 843 849 902 880 963 834 890 881 857 917 910 866 891 895 927 936 868 873 875 900 918 930 858 962 868 839 929 925 890 879 885 842 934 806 855 923 934 815 886 848 858 850 873 913 891 868 881 911 946 867 855 887 952 870 958 913 901 860 878 884 838 892 830 895 839 897 876 879 868 855 848 887 850 854 879 890 913 880 926 852 864 865 908 916 893 884 872 912 895 846 889 858 852 862 818 818 873 843 863 870 957 866 866 886 880 835 812 904 830 866 851 869 916 892 865 868 841 845 876 862 915 871 867 863 893 906 903 878 931 851 926 809 893 880 846 904 878 842 898 839 868 897 920 903 832 903 855 882 953 835 895 878 853 912 830 867 871 895 858 837 875 847 899 839 855 830 817 906 877 923 889 896 871 862 860 902 914 887 876 864 828 857 882 836 881 876 836 896 871 829 845 833 871 860 880 844 912 833 923 825 903 864 920 936 888 884 860 878 887 886 868 894 899 900 848 910 900 850 905 867 847 793 875 900 924 910 901 850 904 851 856 941 912 898 912 900 844 928 869 824 887 925 887 969 909 884 888 906 924 923 866 932 879 881 871 911 913 871 943 902 946 935 954 934 988 957 967 1016 1075 1009 1103 1084 1134 1170 1211 1294 1274 1288 1415 1441 1393 1518 1380 1491 1534 1515 1513 1560 1514 1566 1514 1521 1478 1526 1463 1475 1375 1357 1368 1426 1336 1276 1299 1188 1219 1169 1152 1145 1162 1150 1131 1035 1138 1111 1053 1102 1034 995 1020 1032 1011 1034 998 917 951 988 886 976 954 982 941 937 911 915 947 985 893 913 915 951 885 905 883 857 900 891 908 865 924 849 884 861 816 855 896 882 917 895 877 920 825 933 877 883 915 889 836 864 894 851 903 836 916 922 871 864 912 866 825 953 809 898 919 895 889 872 881 877 910 838 876 900 882 914 887 850 861 870 873 895 911 852 876 877 813 877 880 914 837 834 888 887 871 871 875 817 854 900 866 842 856 852 892 902 879 941 857 887 889 875 885 844 879 913 873 906 936 948 914 909 900 924 918 928 839 882 926 778 878 890 854 872 858 852 831 840 855 943 886 836 847 830 847 895 932 873 914 862 882 864 874 865 863 847 831 849 896 881 881 881 884 813 923 882 903 845 850 887 834 864 844 815 894 852 873 854 827 895 912 850 811 837 831 873 872 879 811 844 850 871 868 831 865 855 905 819 858 901 864 831 858 879 860 876 873 818 807 876 838 888 858 887 843 871 917 849 884 866 840 916 859 874 861 832 878 883 949 896 861 882 894 888 847 940 864 905 878 876 818 868 868 846 875 880 840 934 801 875 867 867 850 933 872 871 912 881 886 872 873 864 910 877 882 909 863 881 911 855 949 906 869 907 869 896 823 889 929 931 857 942 920 890 890 883 823 904 952 924 863 908 898 887 886 891 847 924 879 871 862 902 897 942 926 894 941 967 1001 925 892 945 924 921 946 944 963 982 1022 1015 1015 966 1011 1020 994 977 1087 1059 1032 1013 1055 1102 1125 1134 1244 1190 1286 1313 1355 1377 1492 1581 1654 1711 1804 2049 2263 2455 2774 2958 3148 3339 3621 4016 4101 4394 4595 4707 4804 4936 4856 4872 4872 4955 4809 4830 4734 4603 4596 4531 4324 4150 4142 3843 3690 3557 3338 3152 3054 2878 2876 2672 2610 2435 2265 2300 2229 2017 2049 1949 1980 1843 1823 1792 1761 1690 1706 1589 1592 1635 1480 1555 1487 1469 1412 1413 1433 1412 1382 1386 1318 1330 1400 1382 1403 1344 1301 1402 1335 1340 1308 1351 1268 1289 1241 1226 1168 1219 1131 1196 1166 1094 1210 1066 1130 1104 1151 1130 1058 1123 1060 987 1085 969 1040 1084 1038 965 1063 1041 1028 979 994 932 963 979 964 998 1031 982 1010 990 1001 1000 988 979 997 989 938 1017 1063 980 965 972 909 985 950 971 918 925 917 931 914 940 945 928 933 936 893 947 982 954 967 924 910 927 906 845 890 921 884 910 888 829 846 922 930 895 899 824 927 936 860 953 895 875 911 847 892 894 845 920 832 863 864 893 915 831 843 864 830 873 836 843 843 851 861 833 824 901 859 865 862 831 899 907 854 854 852 871 840 841 867 850 906 865 838 864 884 830 825 823 875 847 869 953 834 928 922 965 910 950 935 1006 993 1018 1007 1049 1027 1034 970 1084 1055 1098 1163 1096 1135 1115 1076 1163 1113 1131 1045 1118 1115 1028 1094 1056 1056 1000 1044 977 1042 1014 966 977 927 963 905 915 896 868 933 899 847 911 875 878 907 902 843 863 883 911 837 873 950 875 832 839 869 887 828 879 852 916 868 863 846 879 861 841 862 821 849 850 865 820 868 826 795 783 840 870 890 842 880 839 804 847 823 859 845 827 862 798 862 813 843 825 766 809 863 825 824 796 752 808 810 841 802 809 849 833 813 875 850 789 839 783 820 835 778 832 827 794 798 818 823 819 791 784 796 812 784 788 750 881 760 844 822 813 814 883 820 804 823 828 828 856 822 849 851 841 758 770 813 792 725 798 817 859 771 830 852 817 801 885 785 814 782 802 756 841 761 835 804 829 793 813 777 747 828 815 836 833 763 780 806 839 838 845 821 828 823 805 800 763 816 814 802 784 762 796 750 796 801 766 787 798 752 785 867 836 817 790 813 821 803 788 778 790 844 745 808 826 780 773 825 808 752 812 827 786 798 781 819 787 831 782 789 833 793 849 793 800 785 838 774 771 809 805 830 794 759 804 773 827 792 768 814 824 826 740 835 780 771 779 803 781 857 782 841 784 841 831 842 836 873 757 807 800 829 804 843 717 767 837 819 785 804 897 845 813 843 796 818 806 830 779 815 820 837 845 804 825 812 793 858 827 789 806 820 820 840 846 824 783 866 809 837 865 863 856 824 818 869 828 793 790 826 830 820 857 822 842 779 838 807 871 880 842 858 879 878 834 868 871 848 821 896 827 846 835 873 909 885 907 904 848 856 916 861 872 834 842 853 864 872 869 817 864 861 870 821 897 900 882 851 873 892 876 878 917 889 822 886 833 935 816 875 874 826 872 900 868 895 914 910 898 869 869 891 885 916 866 864 882 904 890 894 798 932 875 864 840 832 843 892 893 880 810 897 864 870 882 900 871 856 894 844 857 885 839 800 875 880 856 860 843 775 863 814 847 826 792 826 845 828 811 821 866 847 758 832 860 861 824 800 828 826 793 756 801 827 773 795 783 824 766 843 782 846 759 779 838 783 811 832 776 761 793 785 808 792 780 811 856 833 879 776 786 805 826 804 807 807 764 799 805 781 827 722 804 794 776 832 844 794 821 787 769 792 761 805 825 786 855 774 819 838 727 838 834 853 782 801 770 818 816 787 786 813 758 824 806 780 772 775 794 806 723 771 845 761 822 853 765 822 789 765 781 822 785 807 807 805 759 789 814 802 787 819 842 833 814 758 795 786 872 830 824 796 806 838 833 864 819 808 815 832 812 831 811 899 837 834 826 799 824 901 896 837 821 807 826 796 858 807 831 848 870 832 803 812 809 862 795 781 834 842 858 813 813 839 891 897 848 880 864 908 941 849 932 918 1000 985 976 1039 1032 1081 1109 1169 1208 1306 1218 1320 1428 1563 1478 1536 1629 1691 1692 1761 1733 1779 1699 1745 1709 1727 1719 1718 1719 1761 1642 1704 1660 1620 1658 1611 1559 1539 1509 1453 1412 1342 1352 1296 1168 1261 1247 1160 1162 1129 1132 1137 1094 1083 1038 1071 1086 1004 914 971 953 938 930 994 900 951 906 938 912 900 924 922 858 880 906 925 920 919 953 870 926 914 831 875 978 906 921 939 897 905 953 896 883 855 965 956 864 908 906 824 904 901 876 840 887 836 836 875 865 829 808 827 860 773 822 851 851 795 844 778 828 795 784 812 812 758 820 821 734 783 792 793 761 788 784 763 763 755 761 830 776 804 767 811 759 744 774 772 837 723 730 805 789 737 749 837 775 761 752 762 822 746 771 793 784 742 777 727 767 766 781 743 721 782 738 750 701 770 746 769 786 760 740 738 811 722 809 828 755 805 861 748 773 812 767 775 781 769 741 812 770 740 795 788 771 778 769 778 759 771 773 760 698 723 765 714 793 713 708 734 735 819 735 820 770 747 774 785 761 762 753 785 834 721 817 781 791 754 768 830 766 821 810 824 795 797 826 826 819 848 774 795 799 779 832 842 794 852 830 811 837 823 771 857 787 827 881 905 879 929 1030 994 1001 1080 1147 1260 1219 1328 1360 1492 1515 1564 1613 1627 1641 1725 1760 1699 1664 1702 1681 1733 1651 1648 1665 1604 1645 1567 1614 1456 1596 1463 1463 1543 1389 1349 1328 1381 1290 1167 1334 1221 1154 1089 1090 1094 1051 1035 969 995 1039 989 970 944 931 871 919 916 879 936 818 880 817 818 868 810 874 829 850 820 807 778 858 875 859 882 780 781 855 810 858 855 837 822 847 790 809 808 795 798 805 821 869 792 768 795 901 790 809 829 787 762 748 832 811 839 790 801 840 751 773 748 717 763 802 890 795 813 782 746 785 813 746 769 775 747 741 775 754 787 805 758 748 766 746 779 774 756 731 810 739 781 816 785 818 750 729 784 751 676 712 769 792 746 723 712 795 728 784 735 734 737 714 759 778 779 761 788 756 746 708 750 688 784 725 806 785 774 757 798 790 788 781 728 709 743 772 765 762 785 849 775 784 791 773 804 793 781 760 834 856 907 850 867 895 926 872 929 941 951 973 944 969 986 920 1009 964 998 958 934 929 947 882 900 919 919 890 939 888 882 913 897 910 901 870 844 867 810 799 836 818 803 815 808 793 781 805 844 787 783 800 783 794 781 748 813 785 752 777 759 763 727 798 783 789 780 761 765 772 723 733 754 727 746 723 808 734 769 764 711 730 710 744 776 741 744 706 743 755 767 735 726 716 740 717 717 697 751 742 757 741 696 747 784 725 767 738 761 762 792 778 752 739 769 736 785 757 720 778 720 749 770 738 761 770 779 749 754 674 778 755 768 735 806 736 767 814 777 690 777 757 725 770 722 704 724 707 738 696 768 741 778 757 760 751 757 698 737 730 716 755 667 744 728 674 752 731 698 721 700 704 722 722 703 734 737 711 731 704 758 737 730 722 743 737 750 761 758 715 747 700 726 712 714 713 713 689 692 726 675 743 679 696 779 678 693 728 738 711 704 723 761 690 722 709 749 743 751 686 718 675 710 718 655 766 718 715 729 694 716 724 682 749 716 693 673 696 705 679 714 696 743 671 683 723 751 728 737 686 724 742 731 723 731 715 709 701 773 737 717 666 676 719 725 699 678 744 759 686 767 702 773 681 703 687 745 735 660 723 682 708 690 685 719 740 729 693 694 710 701 693 736 700 738 729 722 730 717 687 701 738 761 731 665 674 722 712 732 721 748 692 732 722 720 679 709 739 743 701 703 680 692 698 711 720 708 647 742 722 743 680 740 701 707 707 745 737 733 723 706 697 698 699 667 763 759 766 744 680 726 739 704 696 688 700 769 694 697 670 718 678 703 700 733 692 694 705 686 694 698 764 736 760 673 666 741 702 732 769 726 665 647 719 728 660 701 714 666 696 713 719 669 680 755 723 742 748 670 720 722 691 675 725 670 745 682 709 707 704 685 711 720 708 704 718 707 703 712 697 695 702 710 712 690 710 742 699 739 723 652 731 706 697 713 728 708 697 700 704 721 689 766 686 683 719 697 688 694 707 694 721 717 681 661 732 682 658 709 721 677 719 698 743 686 717 743 719 723 756 701 725 703 675 707 650 728 700 664 691 681 678 725 738 744 742 710 706 668 696 737 693 696 702 709 723 732 732 733 733 794 719 818 777 760 776 733 726 766 729 799 833 821 821 811 795 806 842 894 773 792 844 847 863 829 810 782 802 805 782 820 822 831 754 818 793 764 796 774 736 758 783 742 741 726 755 722 752 765 689 734 716 751 709 709 710 675 734 719 702 740 696 715 741 705 657 707 729 735 704 663 702 707 672 674 707 687 680 705 721 668 726 671 711 678 722 715 694 660 659 706 719 718 705 745 738 721 688 704 665 675 694 735 677 707 669 763 722 673 653 712 681 680 680 694 678 710 716 681 650 723 701 741 668 743 709 705 702 698 680 720 678 661 638 693 730 693 672 736 668 744 712 716 712 723 704 715 701 740 716 660 659 705 741 734 656 727 721 702 784 718 722 698 702 727 680 755 724 746 720 706 772 706 759 702 733 742 718 752 678 758 686 757 724 694 684 720 756 771 739 704 691 747 702 731 719 739 714 645 722 683 719 712 783 732 698 704 734 707 704 788 755 684 701 727 700 691 728 659 713 758 745 782 711 726 682 714 679 723 697 753 702 725 765 702 726 673 710 724 723 754 720 668 698 714 738 678 735 695 667 706 748 712 774 735 657 677 686 687 667 673 712 743 691 716 699 718 714 694 769 712 699 695 719 729 663 761 715 748 752 780 733 752 702 731 761 728 732 738 754 741 772 785 710 763 731 773 798 795 736 757 727 776 746 779 783 800 799 856 859 855 889 899 913 923 955 988 1044 1004 996 1051 967 1045 1014 1022 1076 1061 1029 1007 1017 1009 1065 1015 1038 1000 1034 991 979 1045 971 1021 919 994 951 930 978 949 910 923 920 898 872 887 873 836 846 803 828 829 826 784 740 776 803 804 794 741 795 745 780 741 781 765 728 707 711 743 742 714 721 705 741 714 741 706 696 813 728 759 715 734 753 711 767 670 722 754 747 706 722 707 717 709 755 693 720 737 754 750 727 725 689 710 727 773 700 692 694 728 706 665 718 786 729 727 684 762 692 725 664 685 687 743 730 694 684 749 692 718 691 736 700 660 676 668 676 658 685 735 656 686 675 652 685 708 742 763 718 676 706 672 630 691 722 685 709 689 706 704 696 652 744 695 697 711 710 683 638 636 673 659 649 707 702 644 727 673 687 661 687 656 663 703 695 710 723 726 678 675 739 692 742 709 691 696 684 773 718 745 702 666 737 780 689 747 700 723 734 709 688 740 689 727 702 685 716 664 669 706 698 699 679 717 680 741 709 662 736 678 669 669 665 675 709 693 705 695 710 669 691 631 689 649 685 715 696 693 725 658 621 709 617 678 633 723 682 712 669 701 704 725 713 701 664 685 647 688 711 673 680 677 714 716 701 643 664 644 670 669 709 673 672 722 641 675 700 727 727 658 635 668 669 666 645 673 714 711 691 658 731 654 685 676 655 678 680 706 720 696 652 666 658 690 668 695 668 725 672 695 693 675 703 687 678 683 753 684 714 707 663 683 722 636 649 706 641 727 681 641 692 678 637 720 608 702 643 674 683 731 708 689 672 698 687 688 681 709 708 714 709 713 706 693 699 695 665 664 662 625 617 656 655 633 642 723 645 683 711 655 725 683 726 680 680 686 712 683 669 678 691 711 702 686 688 664 673 630 676 665 688 686 714 711 695 731 669 648 644 690 695 675 693 681 666 659 669 707 716 663 672 655 712 694 702 696 678 695 678 722 666 690 735 727 725 690 736 759 682 673 724 713 728 657 681 718 694 736 665 736 698 712 707 691 706 704 744 702 713 653 707 710 645 669 687 679 717 672 703 665 600 721 755 730 683 673 665 731 679 711 683 710 704 664 724 677 726 716 698 679 677 665 671 697 704 700 706 672 648 687 673 650 680 665 696 699 679 684 710 751 655 699 712 717 721 696 724 695 655 671 725 726 703 757 705 703 692 714 725 729 709 737 713 725 706 720 718 665 696 723 730 689 645 706 686 704 723 708 685 713 709 760 669 716 680 676 692 721 680 707 729 688 659 687 728 735 719 719 670 708 689 694 703 700 711 691 696 735 693 676 724 698 688 709 716 664 707 688 712 649 673 733 736 702 673 731 654 667 703 720 729 697 673 717 733 692 675 735 686 658 697 695 694 692 709 698 735 705 700 682 720 727 723 725 743 745 712 698 673 721 737 800 757 655 717 687 754 668 735 686 747 726 732 679 724 713 717 699 683 749 731 719 726 731 706 725 770 759 783 740 747 732 763 749 791 758 757 734 750 793 820 805 729 793 767 766 797 760 806 824 785 780 766 725 800 764 769 778 761 828 766 766 785 691 765 767 734 747 817 767 740 751 723 792 749 822 808 739 812 775 830 816 825 825 771 855 829 879 926 889 953 903 943 959 896 1009 997 977 965 1033 999 1013 965 982 923 999 967 905 966 944 981 902 910 881 930 907 954 935 890 909 835 883 907 846 901 831 873 863 826 824 816 752 828 751 822 805 764 814 743 772 715 766 734 730 762 732 762 718 723 765 763 754 672 712 751 724 734 757 740 742 755 741 692 793 725 704 721 726 749 711 744 718 636 716 683 731 722 770 735 697 701 743 724 730 786 763 738 727 766 734 725 755 737 790 714 714 721 776 765 715 779 774 714 757 700 726 717 766 789 785 754 721 749 769 721 780 743 681 712 724 810 805 741 735 783 767 830 751 743 722 771 697 742 712 722 761 710 758 755 740 760 709 741 722 709 715 734 748 727 676 727 739 736 717 755 709 725 743 766 707 723 767 693 779 692 744 741 735 719 714 755 717 699 743 788 710 742 760 688 782 723 727 825 780 757 725 722 768 784 789 766 786 721 802 807 797 789 746 800 822 815 791 829 842 796 797 800 840 767 862 855 848 929 919 940 904 987 1066 1093 1063 1177 1180 1173 1215 1307 1307 1306 1377 1375 1484 1433 1442 1366 1459 1449 1448 1443 1433 1442 1456 1369 1388 1385 1331 1325 1258 1324 1312 1305 1269 1313 1285 1249 1280 1199 1189 1204 1232 1173 1142 1227 1123 1175 1073 1092 1058 1037 965 947 961 953 932 875 895 942 857 841 847 843 814 817 767 809 765 801 776 823 764 811 748 802 742 752 743 751 768 729 758 734 747 718 710 776 722 735 752 693 734 744 725 765 706 789 761 731 783 746 747 740 749 760 743 768 694 760 755 717 751 775 689 730 748 761 752 769 771 765 802 753 749 747 794 745 708 729 750 768 744 726 784 791 698 793 746 812 741 775 788 814 737 778 724 741 696 750 704 770 732 786 761 757 690 734 763 711 752 731 775 716 714 720 725 721 726 743 714 789 704 674 688 701 777 746 762 776 711 773 778 740 774 769 779 796 784 753 776 729 771 776 746 720 780 762 760 741 778 709 738 745 762 728 751 717 686 729 744 747 758 732 760 741 705 778 721 739 742 771 712 760 727 738 767 693 724 672 738 730 718 711 758 741 699 658 771 643 760 735 722 714 750 717 733 751 721 698 729 744 702 685 715 734 681 690 720 689 754 657 716 699 694 626 725 677 689 734 678 735 671 701 669 690 746 717 710 640 724 695 669 707 668 709 704 735 710 730 669 677 696 589 712 718 678 732 711 677 669 661 656 678 672 655 726 706 674 711 691 690 699 694 674 632 671 672 648 686 734 714 704 726 680 695 742 682 698 695 675 647 689 687 679 719 687 678 729 687 714 700 685 688 711 695 664 719 677 689 661 674 742 676 670 659 704 686 696 691 705 651 695 654 670 677 733 646 686 699 695 684 671 733 744 689 639 722 707 673 683 672 698 642 625 691 715 670 697 692 677 685 655 715 685 714 702 691 710 695 739 655 679 750 660 669 711 690 744 656 702 670 647 701 686 658 694 660 676 705 721 693 658 678 696 638 616 659 669 678 677 653 706 709 694 673 699 726 678 682 660 673 717 658 708 669 687 660 679 721 689 696 696 695 736 696 672 638 661 671 675 708 705 668 666 747 688 688 712 682 652 682 667 710 683 688 687 655 643 674 673 690 643 688 671 670 680 658 693 658 689 624 666 630 709 689 693 672 705 645 716 735 680 715 707 645 662 701 697 671 697 662 671 681 681 657 676 657 696 660 695 677 649 662 671 643 699 658 656 699 664 722 641 639 673 710 667 705 670 658 684 676 646 708 647 652 643 672 647 663 665 640 662 665 707 669 704 666 681 724 642 687 699 666 668 706 677 735 708 688 648 687 691 742 690 708 635 681 667 704 632 728 708 710 710 686 685 643 685 665 713 696 685 688 653 701 676 689 697 670 686 660 643 657 658 671 720 668 694 691 686 649 694 671 700 635 649 679 696 672 663 689 692 675 714 716 671 678 686 733 740 715 706 697 736 673 667 687 704 753 717 719 711 736 722 734 753 740 757 773 727 726 654 727 751 737 746 777 760 722 744 725 717 769 675 761 759 750 784 683 728 737 687 717 723 745 726 751 721 690 686 748 665 678 699 644 710 731 700 732 661 790 755 696 726 696 701 710 659 723 703 705 703 738 712 745 736 671 671 726 678 653 692 678 696 648 681 658 681 693 666 702 693 691 677 678 672 692 677 671 687 662 729 693 643 673 695 648 696 719 635 648 700 684 670 720 699 686 662 652 674 678 660 638 657 631 659 703 674 713 718 701 708 659 708 709 649 735 657 599 681 631 670 666 628 663 695 708 691 668 684 640 669 704 724 656 703 681 687 688 675 702 652 661 724 665 674 701 693 687 650 638 691 652 697 636 675 686 656 651 747 710 708 671 678 684 684 709 718 665 660 634 746 641 682 668 744 714 644 684 672 679 712 673 676 666 703 702 688 689 680 718 707 662 677 699 679 736 649 674 634 711 673 666 663 666 674 692 679 692 721 688 691 692 665 712 687 646 734 680 700 671 694 745 683 682 663 703 687 710 658 734 683 691 683 682 696 715 727 738 712 724 750 724 689 734 713 681 720 717 737 732 728 713 682 753 691 782 736 753 718 763 774 756 795 754 788 810 782 761 832 837 814 849 846 912 880 867 971 1027 995 1003 977 971 1019 1050 1084 1144 1141 1168 1155 1217 1193 1209 1181 1249 1229 1174 1168 1175 1131 1227 1157 1141 1150 1148 1143 1074 1050 1087 1032 1057 1040 1066 1115 1005 1048 1006 1040 1107 1043 1080 999 1016 964 1032 1063 1016 988 983 959 924 915 893 906 884 887 828 812 869 779 862 766 771 787 800 748 706 738 771 765 759 727 722 682 734 705 718 750 726 727 724 745 765 708 684 732 725 729 765 696 721 711 698 722 697 761 733 706 666 702 731 739 668 691 706 708 732 733 679 695 668 694 725 758 774 674 723 724 728 737 660 756 713 692 761 698 707 737 714 742 707 739 738 690 701 799 782 701 770 710 716 729 717 771 717 747 752 694 706 733 754 741 736 749 740 729 727 737 727 745 735 698 694 697 687 709 722 717 748 749 756 730 740 723 740 731 718 690 719 729 732 700 750 803 727 777 706 696 727 744 716 693 694 712 736 719 717 742 747 709 742 747 716 712 712 721 738 724 755 659 684 738 686 708 733 738 682 748 691 659 708 731 696 718 691 732 696 677 697 704 694 691 676 686 735 730 662 702 724 714 690 714 675 659 668 675 732 682 681 669 704 651 709 660 693 649 719 679 652 699 614 743 667 703 691 726 701 651 704 727 675 696 676 675 671 663 662 672 692 692 680 727 676 653 716 667 695 671 698 701 696 662 710 674 713 659 731 649 738 638 656 729 678 655 696 704 685 678 706 662 657 694 689 700 692 682 693 691 707 697 699 674 705 651 654 702 664 708 698 691 687 702 663 675 680 685 644 673 714 722 659 707 693 699 681 686 698 699 691 692 698 727 712 711 731 680 663 701 697 721 654 706 688 691 669 734 679 662 701 694 653 668 711 674 662 687 677 719 684 675 731 673 732 638 656 654 703 670 700 660 681 683 658 667 693 705 636 662 677 709 713 680 740 692 651 684 651 679 739 685 663 692 680 671 674 720 685 672 711 681 675 693 713 686 697 649 643 662 676 729 674 710 688 674 674 683 697 687 718 671 693 658 686 681 666 748 732 700 637 627 680 684 659 722 652 682 622 694 753 725 664 701 716 736 697 680 710 656 701 665 648 677 713 656 740 709 663 697 704 686 694 705 661 645 694 665 642 678 703 695 712 680 686 718 676 712 716 677 722 695 662 693 694 722 682 686 672 662 719 695 658 660 694 712 685 685 679 692 684 705 674 719 672 710 651 662 712 661 749 673 711 743 679 719 741 659 689 755 693 675 691 670 693 634 690 701 693 705 676 682 662 684 707 662 656 680 662 650 689 649 677 696 654 713 661 690 677 679 651 712 685 682 693 680 682 660 690 672 693 716 710 721 691 692 667 701 701 687 663 686 684 692 673 656 697 662 678 731 676 712 664 695 715 686 697 709 725 651 665 697 701 671 731 694 764 673 718 737 732 716 742 688 731 694 731 699 781 716 714 700 768 731 717 657 753 745 752 715 803 787 772 776 804 791 806 811 827 785 771 840 767 788 807 764 839 876 854 816 832</counts>
			</dataPoints>
		</scan>
	</xrdMeasurement>
</xrdMeasurements>
