<?xml version="1.0"?>
<xrdMeasurements xmlns="http://www.xrdml.com/XRDMeasurement/2.3" xmlns:xsi="http://www.w3.org/2001/XMLSchema-instance" xsi:schemaLocation="http://www.xrdml.com/XRDMeasurement/2.3 http://www.xrdml.com/XRDMeasurement/2.3/XRDMeasurement.xsd" status="Completed" recordIdentifier="{CD8CA2DD-F5D2-41E5-A67F-95B55F3ABDFD}">
	<comment>
		<entry/>
	</comment>
	<sample type="To be analyzed">
		<id>GPSS_Li1p4Fe0p8Mn0p3Zr0p1Cl4_121825_6943d914f4d05ae3d69790b0</id>
		<name></name>
		<preparedBy></preparedBy>
	</sample>
	<xrdMeasurement measurementType="Scan" status="Completed" sampleMode="Reflection">
		<usedWavelength intended="K-Alpha 1">
			<kAlpha1 unit="Angstrom">1.5405980</kAlpha1>
			<kAlpha2 unit="Angstrom">1.5444260</kAlpha2>
			<kBeta unit="Angstrom">1.3922500</kBeta>
			<ratioKAlpha2KAlpha1>0.5000</ratioKAlpha2KAlpha1>
		</usedWavelength>
		<incidentBeamPath>
			<radius unit="mm">145.00</radius>
			<xRayTube id="1010048" name="Empyrean Cu LFF HR (9430 033 7310x)">
				<tension unit="kV">40.0</tension>
				<current unit="mA">15.0</current>
				<anodeMaterial>Cu</anodeMaterial>
				<focus type="Line">
					<length unit="mm">12.0</length>
					<width unit="mm">0.4</width>
					<takeOffAngle unit="deg">6.0</takeOffAngle>
				</focus>
			</xRayTube>
			<sollerSlit id="21010002" name="Soller slits 0.04 rad.">
				<opening unit="rad">0.0400</opening>
			</sollerSlit>
			<mask id="22031000" name="Fixed mask 13 mm">
				<width unit="mm">9.00</width>
			</mask>
			<divergenceSlit id="22120001" name="Divergence slit 1°" xsi:type="fixedDivergenceSlitType">
				<distanceToSample unit="mm">50.00</distanceToSample>
				<height unit="mm">1.52</height>
			</divergenceSlit>
		</incidentBeamPath>
		<sampleMovement xsi:type="spinningSampleMovementType">
			<spinnerRevolutionTime unit="seconds">1.0</spinnerRevolutionTime>
		</sampleMovement>
		<diffractedBeamPath>
			<radius unit="mm">145.00</radius>
			<antiScatterSlit id="22090040" name="AS slit 9 mm (PIXcel)" xsi:type="fixedAntiScatterSlitType">
				<height unit="mm">9.00</height>
			</antiScatterSlit>
			<sollerSlit id="21020003" name="Large Soller slits 0.04 rad.">
				<opening unit="rad">0.0400</opening>
			</sollerSlit>
			<filter id="20030001" name="Large beta-filter Nickel">
				<material>Ni</material>
				<thickness unit="mm">0.020</thickness>
			</filter>
			<detector id="7010019" name="PIXcel1D-Medipix3 detector" xsi:type="rtmsDetectorType">
				<phd unit="keV">
					<lowerLevel>4.02</lowerLevel>
					<upperLevel>11.27</upperLevel>
				</phd>
				<mode>Scanning</mode>
				<activeLength unit="deg">5.542</activeLength>
			</detector>
		</diffractedBeamPath>
		<scan appendNumber="0" mode="Continuous" scanAxis="Gonio" status="Completed">
			<header>
				<startTimeStamp>2025-12-22T14:14:08-08:00</startTimeStamp>
				<endTimeStamp>2025-12-22T14:22:15-08:00</endTimeStamp>
				<author>
					<name>AutomatedUser</name>
				</author>
				<source>
					<applicationSoftware version="1.7b (136)">PANalytical Aeris Instrument Suite</applicationSoftware>
					<instrumentControlSoftware version="3.2.00000000 20240306">AERIS</instrumentControlSoftware>
					<instrumentID>950485</instrumentID>
				</source>
			</header>
			<dataPoints>
				<positions axis="2Theta" unit="deg">
					<startPosition>10.00943322</startPosition>
					<endPosition>99.99442286</endPosition>
				</positions>
				<positions axis="Omega" unit="deg">
					<startPosition>5.00471661</startPosition>
					<endPosition>49.99721143</endPosition>
				</positions>
				<commonCountingTime unit="seconds">12.495</commonCountingTime>
				<counts unit="counts">2678 2886 2702 2802 2772 2715 2823 2759 2729 2903 2714 2779 2764 2793 2718 2761 2840 2836 2729 2750 2727 2694 2730 2752 2836 2812 2735 2788 2735 2790 2804 2770 2701 2784 2852 2696 2833 2790 2724 2738 2727 2719 2702 2696 2811 2642 2740 2645 2794 2644 2766 2649 2723 2767 2711 2723 2754 2666 2675 2755 2873 2729 2800 2714 2800 2795 2812 2726 2720 2755 2741 2783 2649 2772 2802 2755 2667 2718 2790 2835 2706 2742 2800 2757 2810 2756 2703 2711 2739 2777 2740 2788 2701 2760 2803 2639 2741 2668 2762 2755 2651 2654 2730 2794 2761 2714 2742 2794 2753 2577 2758 2688 2780 2698 2778 2668 2783 2720 2746 2599 2734 2691 2695 2582 2695 2725 2703 2775 2787 2639 2715 2727 2762 2771 2783 2743 2861 2638 2723 2621 2613 2705 2703 2725 2670 2669 2687 2690 2627 2685 2720 2698 2636 2688 2682 2705 2725 2613 2657 2652 2656 2643 2624 2644 2651 2688 2608 2753 2729 2696 2704 2649 2619 2661 2671 2693 2642 2606 2637 2650 2625 2624 2762 2634 2745 2675 2630 2563 2621 2695 2575 2635 2596 2729 2686 2744 2633 2633 2674 2594 2634 2539 2583 2625 2705 2536 2677 2639 2631 2720 2680 2650 2583 2589 2651 2691 2611 2644 2575 2718 2680 2667 2584 2613 2614 2733 2647 2623 2582 2703 2627 2650 2607 2588 2673 2650 2592 2595 2684 2605 2615 2678 2605 2660 2605 2619 2563 2711 2692 2697 2603 2651 2577 2626 2605 2614 2627 2578 2637 2587 2655 2580 2576 2592 2564 2515 2630 2552 2703 2641 2672 2549 2684 2634 2628 2693 2649 2652 2636 2620 2597 2700 2657 2638 2778 2605 2623 2557 2620 2647 2628 2674 2644 2661 2710 2671 2577 2598 2723 2660 2653 2676 2618 2609 2691 2774 2705 2705 2637 2675 2674 2610 2712 2581 2651 2715 2654 2803 2700 2611 2755 2718 2659 2697 2668 2715 2623 2783 2790 2817 2724 2733 2780 2661 2674 2804 2746 2833 2810 2798 2810 2717 2795 2750 2839 2815 2817 2798 2899 2784 2869 2841 2870 2961 3018 2818 2829 2992 2822 2972 2880 2912 2819 2861 2956 2926 2966 3054 2997 2975 2865 2967 2947 2930 2927 2828 2937 2891 2923 2971 3021 3011 3006 3028 3019 3113 3052 3001 2971 3067 3090 3104 3074 3011 3131 3165 3126 3118 3244 3166 3178 3035 3070 3186 3134 3099 3139 3198 3154 3124 3189 3173 3344 3215 3158 3288 3225 3225 3269 3342 3385 3571 3353 3480 3478 3526 3561 3539 3496 3531 3616 3632 3607 3735 3613 3633 3685 3671 3752 3702 3698 3737 3793 3735 3837 3699 3754 3735 3753 3819 3779 3763 3804 3886 3930 3981 3934 3917 4039 4016 4002 4096 3921 4072 3950 4036 4087 4067 4015 4050 4075 4182 4028 4076 4126 4044 4100 4051 4102 4045 4077 3943 3956 4019 4004 3842 3935 3782 3855 3775 3714 3812 3610 3644 3768 3607 3689 3643 3556 3561 3572 3642 3539 3506 3454 3513 3357 3368 3487 3420 3498 3427 3358 3272 3320 3378 3366 3395 3375 3315 3437 3349 3277 3231 3249 3335 3387 3226 3276 3216 3232 3224 3115 3206 3215 3158 3124 3228 3183 3084 3155 3172 3161 3135 3125 3025 3205 3160 3177 3123 3108 3187 3200 3061 3149 3080 3118 3059 2984 3095 3038 3092 3040 3082 3222 3097 3083 3050 2993 3085 3066 3019 3064 3048 3045 3024 3019 3105 3108 3051 3043 2975 2965 3091 3027 2999 3045 3046 2976 2914 2968 2949 2934 2930 3076 2910 3000 2953 3024 3031 2939 2971 2969 3008 3090 2980 3004 2963 3036 3025 2907 3022 3023 2981 2916 2980 2996 2956 3009 2993 2922 2976 2892 2943 2938 3015 3010 2902 2978 2971 3046 2913 2904 2891 2895 3018 2946 3059 2942 2976 2874 2892 2989 2864 3043 3054 2874 3014 2955 2993 2967 3000 2882 2958 2866 2812 2836 2927 2983 2976 2973 3011 2898 2945 2888 2906 2900 2924 2823 2933 2975 2836 2974 2880 2958 2976 2938 2961 2978 2895 3003 2897 2927 2926 2992 2974 2976 3090 2947 2943 2923 2968 2850 2826 2987 2884 3007 2875 2991 2926 2888 2865 2895 2870 2927 2833 2934 2931 3008 2981 2994 2971 2980 2889 2905 2860 2915 2885 2927 2863 2822 2973 2887 2941 3024 2911 2872 2881 2951 2923 2881 2911 2985 2835 2851 2886 2956 2863 2843 2898 2891 2884 2800 2904 2948 2880 2880 2993 2918 2804 2868 2836 3001 2952 2939 2898 2920 2883 2914 2930 2984 2973 2874 2851 2827 2878 2907 3010 2902 2996 2936 2961 2972 2815 2840 2917 2924 2903 2865 2840 2942 3015 2896 2921 2888 2851 2905 2880 2796 2930 2908 2912 2888 2970 2936 2900 2913 2803 2871 2811 2801 2840 2856 2906 2994 2970 2798 2849 2814 2891 2852 2818 2814 2917 2883 2897 2814 2921 2771 2894 2855 2869 2819 2932 2793 2837 2744 2820 2850 2905 2796 2842 2777 2870 2784 2765 2883 2796 2795 2951 2857 2895 2842 2854 2825 2899 2776 2940 2795 2921 2812 2791 2852 2839 2737 2822 2827 2817 2828 2852 2970 2877 2862 2759 2822 2800 2814 2826 2801 2686 2916 2852 2821 2776 2884 2830 2743 2857 2923 2894 2732 2854 2889 2839 2856 2883 2883 2803 2833 2913 2812 2818 2832 2695 2828 2842 2833 2725 2908 2829 2866 2915 2720 2846 2868 2791 2726 2796 2733 2801 2807 2833 2713 2768 2823 2848 2819 2836 2753 2818 2775 2840 2703 2750 2850 2703 2785 2758 2780 2710 2788 2744 2710 2725 2855 2769 2720 2796 2818 2833 2801 2708 2675 2854 2762 2745 2654 2784 2699 2711 2754 2765 2709 2864 2646 2745 2787 2671 2743 2824 2827 2756 2767 2749 2881 2605 2763 2812 2769 2763 2698 2798 2791 2811 2805 2746 2691 2777 2766 2736 2811 2817 2709 2778 2858 2804 2799 2678 2703 2579 2761 2724 2762 2724 2617 2743 2725 2742 2740 2679 2748 2807 2685 2804 2721 2738 2782 2664 2680 2628 2761 2720 2644 2735 2701 2728 2723 2741 2730 2770 2709 2674 2761 2669 2789 2711 2732 2783 2761 2719 2710 2664 2796 2692 2794 2688 2822 2678 2704 2639 2764 2726 2736 2787 2834 2769 2706 2723 2828 2717 2719 2730 2786 2720 2896 2774 2776 2758 2761 2733 2783 2856 2768 2725 2690 2780 2716 2803 2739 2638 2741 2836 2823 2733 2801 2729 2777 2746 2720 2747 2754 2777 2640 2803 2734 2825 2713 2769 2721 2741 2735 2783 2777 2818 2767 2750 2652 2748 2807 2835 2726 2722 2708 2847 2730 2794 2671 2734 2782 2833 2757 2800 2737 2721 2607 2852 2701 2742 2699 2756 2755 2832 2759 2729 2846 2715 2807 2660 2737 2684 2767 2744 2711 2623 2812 2715 2694 2709 2649 2677 2776 2683 2711 2696 2780 2668 2755 2696 2667 2679 2763 2619 2686 2703 2682 2720 2696 2723 2702 2752 2744 2662 2644 2673 2682 2786 2684 2681 2662 2680 2693 2702 2731 2729 2564 2608 2661 2631 2561 2645 2595 2636 2590 2549 2683 2627 2726 2582 2599 2581 2631 2606 2524 2533 2503 2487 2621 2578 2533 2533 2610 2460 2634 2633 2619 2583 2605 2497 2630 2587 2434 2538 2521 2597 2481 2524 2528 2574 2472 2416 2536 2514 2576 2534 2480 2513 2524 2452 2405 2442 2439 2442 2401 2453 2508 2499 2426 2510 2467 2424 2484 2443 2509 2517 2448 2381 2409 2505 2436 2503 2367 2411 2372 2398 2406 2519 2379 2367 2475 2384 2468 2355 2429 2424 2334 2348 2347 2349 2316 2317 2324 2419 2379 2320 2297 2334 2401 2273 2353 2327 2354 2327 2356 2297 2423 2376 2351 2286 2384 2241 2376 2408 2296 2481 2297 2357 2294 2277 2360 2319 2303 2404 2320 2240 2379 2250 2327 2333 2288 2282 2347 2366 2314 2285 2298 2285 2335 2302 2293 2159 2211 2121 2276 2326 2247 2203 2220 2240 2210 2243 2270 2319 2320 2335 2303 2323 2176 2217 2349 2332 2265 2260 2229 2288 2373 2287 2287 2337 2324 2172 2273 2177 2202 2215 2200 2358 2199 2150 2218 2245 2223 2207 2225 2189 2228 2226 2218 2242 2192 2192 2225 2245 2240 2249 2300 2160 2199 2177 2283 2258 2187 2316 2163 2295 2201 2288 2209 2260 2245 2210 2150 2199 2223 2150 2233 2261 2218 2191 2329 2195 2186 2245 2154 2175 2123 2159 2230 2138 2238 2186 2176 2206 2199 2261 2254 2259 2223 2211 2279 2269 2235 2244 2146 2233 2207 2162 2217 2231 2223 2177 2235 2299 2357 2196 2243 2225 2196 2283 2150 2076 2268 2267 2243 2273 2262 2228 2253 2237 2219 2209 2212 2205 2239 2284 2264 2199 2229 2267 2266 2256 2277 2255 2226 2176 2202 2250 2220 2248 2216 2220 2289 2245 2336 2211 2338 2219 2276 2264 2185 2259 2233 2223 2295 2232 2233 2346 2221 2232 2316 2263 2288 2252 2203 2279 2224 2173 2268 2219 2237 2216 2214 2225 2247 2156 2291 2216 2221 2234 2204 2188 2170 2230 2156 2232 2191 2227 2221 2257 2262 2198 2238 2256 2239 2308 2222 2265 2223 2217 2244 2187 2232 2157 2175 2209 2145 2196 2244 2251 2282 2233 2157 2195 2316 2256 2219 2185 2238 2197 2184 2228 2237 2270 2252 2200 2268 2128 2214 2213 2141 2206 2119 2150 2247 2122 2162 2202 2258 2199 2176 2199 2102 2071 2145 2039 2115 2019 2169 2115 2048 2207 2077 2153 2148 2110 2093 2171 2062 2147 2127 2052 2135 2138 2051 2103 2128 2137 2135 2044 2097 2131 2118 2158 2017 2150 2119 2103 2112 2004 2002 2089 2001 2040 2129 2077 2112 2069 2096 2050 2125 2018 2031 2071 2044 2143 2044 1966 2111 2073 2108 2084 2062 2037 2096 1966 2101 2014 2040 2087 2013 2008 1977 2011 2071 2093 2047 2012 2077 2026 1953 2049 2088 1957 2031 1976 1992 1955 1950 2040 2045 2013 2003 2015 2091 2026 2011 2027 2015 2011 1982 1998 2023 1940 1999 2005 1997 2016 2016 2054 1992 1982 2005 2072 2033 2147 2173 2133 2123 2136 2223 2139 2192 2207 2221 2259 2285 2234 2342 2232 2296 2273 2272 2276 2224 2245 2280 2146 2256 2199 2112 2314 2308 2217 2329 2156 2249 2295 2246 2381 2298 2287 2356 2307 2421 2412 2424 2430 2404 2369 2414 2405 2358 2346 2282 2311 2364 2348 2420 2312 2306 2363 2323 2258 2327 2299 2293 2171 2186 2225 2253 2236 2109 2199 2113 2065 2148 2086 2202 2124 2063 2003 2081 1958 1986 1962 2064 2018 1997 2029 1994 2049 1987 1916 1934 1919 1961 1959 1945 1945 1909 1948 1981 1989 1981 1985 1943 1890 1956 1825 1856 1886 1956 1906 1900 1877 1874 2002 1906 1937 2007 2050 2042 2088 2108 2121 2120 2191 2157 2205 2247 2238 2326 2331 2366 2337 2244 2371 2342 2352 2314 2312 2343 2350 2279 2392 2379 2417 2390 2367 2353 2463 2446 2443 2476 2418 2419 2498 2466 2492 2502 2547 2548 2563 2503 2473 2523 2605 2724 2617 2655 2563 2674 2544 2660 2561 2613 2481 2558 2450 2408 2490 2412 2412 2418 2453 2404 2423 2320 2313 2395 2333 2305 2206 2249 2244 2133 2186 2166 2054 2106 2062 2080 2114 2054 2059 2035 2117 2022 2104 2016 2054 1927 1935 1999 1931 1911 1981 2009 1999 2002 2017 2015 1935 2005 1897 1984 1994 2010 1879 1939 1900 1952 1955 1897 1911 1805 1862 1868 1863 1957 1887 1896 1882 1761 1857 1894 1893 1788 1844 1771 1842 1818 1744 1821 1831 1789 1702 1790 1814 1709 1836 1707 1822 1761 1850 1784 1763 1773 1724 1823 1764 1807 1730 1699 1714 1715 1711 1764 1786 1678 1726 1751 1788 1728 1771 1747 1731 1645 1681 1736 1723 1673 1671 1804 1708 1739 1697 1672 1651 1717 1720 1653 1657 1731 1711 1719 1746 1650 1621 1624 1702 1663 1750 1621 1715 1670 1645 1605 1609 1564 1723 1689 1667 1698 1579 1672 1668 1665 1709 1647 1693 1623 1684 1640 1684 1675 1733 1640 1683 1754 1688 1659 1638 1664 1586 1586 1665 1602 1666 1613 1686 1618 1670 1624 1657 1693 1645 1605 1679 1617 1636 1613 1615 1604 1625 1644 1705 1599 1701 1650 1520 1605 1612 1584 1643 1629 1594 1708 1658 1591 1638 1593 1619 1596 1562 1636 1671 1620 1617 1647 1625 1532 1632 1662 1570 1619 1723 1677 1581 1620 1571 1595 1606 1652 1619 1636 1576 1649 1640 1601 1629 1579 1551 1665 1597 1660 1674 1647 1595 1656 1556 1621 1625 1669 1608 1634 1665 1655 1653 1675 1618 1617 1645 1574 1566 1625 1651 1622 1641 1681 1605 1631 1573 1618 1626 1656 1563 1677 1762 1637 1624 1682 1590 1610 1601 1627 1599 1579 1513 1543 1646 1671 1565 1655 1617 1649 1623 1550 1534 1590 1703 1709 1610 1583 1611 1593 1605 1608 1556 1626 1585 1624 1661 1548 1586 1616 1719 1632 1574 1597 1604 1696 1601 1658 1657 1600 1584 1630 1675 1637 1597 1618 1622 1647 1650 1574 1639 1624 1703 1636 1658 1613 1614 1674 1655 1721 1650 1675 1585 1685 1677 1672 1603 1617 1620 1643 1608 1605 1694 1587 1636 1672 1654 1703 1636 1629 1688 1716 1725 1768 1705 1694 1677 1678 1698 1770 1720 1712 1715 1792 1851 1865 1848 1881 1970 2007 2091 2177 2244 2285 2458 2529 2551 2720 2718 2839 3041 2986 3039 3281 3290 3409 3345 3388 3408 3401 3330 3409 3654 3502 3635 3479 3596 3643 3624 3571 3629 3721 3825 3794 3804 4017 3867 4003 4082 3997 4031 4156 4184 4192 4200 4263 4210 4217 4187 4170 4148 4066 4074 3968 3941 3931 3764 3753 3765 3687 3592 3539 3511 3434 3395 3415 3358 3190 3150 3169 2938 2960 2722 2806 2630 2687 2563 2442 2453 2345 2357 2216 2260 2196 2283 2241 2119 2188 2119 2132 2099 2063 2157 2134 2157 2173 2054 2048 2075 2047 2140 2028 2058 2044 2065 2075 2057 2083 1985 1958 1990 2014 1992 1963 1889 1961 1884 1872 1917 1919 1862 1852 1955 1835 1900 1814 1796 1821 1827 1735 1764 1755 1746 1741 1752 1703 1720 1660 1753 1693 1669 1659 1695 1709 1571 1566 1687 1668 1622 1615 1581 1645 1674 1649 1683 1657 1618 1612 1641 1623 1573 1572 1640 1534 1592 1607 1591 1635 1607 1648 1637 1558 1556 1590 1637 1595 1590 1587 1664 1639 1632 1589 1633 1606 1651 1610 1598 1646 1562 1577 1552 1534 1591 1538 1619 1562 1550 1630 1659 1649 1535 1584 1563 1561 1529 1546 1565 1584 1566 1533 1507 1604 1517 1541 1581 1570 1493 1535 1574 1573 1526 1557 1531 1613 1576 1641 1561 1536 1575 1575 1537 1583 1563 1581 1596 1572 1550 1544 1602 1514 1602 1575 1605 1490 1506 1642 1588 1561 1551 1541 1566 1563 1567 1506 1566 1549 1600 1567 1487 1544 1549 1562 1492 1610 1559 1505 1607 1545 1546 1525 1547 1497 1524 1522 1466 1629 1574 1564 1545 1530 1544 1516 1553 1525 1532 1644 1536 1570 1555 1526 1593 1513 1530 1596 1562 1555 1570 1630 1548 1607 1478 1636 1604 1570 1604 1601 1632 1570 1482 1521 1602 1552 1581 1658 1587 1576 1531 1584 1494 1577 1606 1557 1587 1540 1570 1596 1633 1569 1571 1607 1545 1565 1548 1640 1544 1603 1637 1624 1637 1491 1557 1579 1630 1536 1543 1602 1603 1506 1678 1637 1543 1483 1520 1542 1584 1581 1556 1607 1558 1520 1689 1616 1539 1628 1485 1523 1551 1511 1640 1656 1509 1605 1595 1615 1545 1520 1530 1571 1480 1538 1547 1548 1531 1601 1572 1532 1557 1457 1580 1535 1573 1494 1541 1601 1527 1578 1534 1545 1607 1533 1521 1534 1581 1550 1586 1535 1533 1516 1509 1625 1590 1507 1540 1524 1591 1508 1506 1548 1576 1556 1517 1559 1549 1479 1612 1616 1578 1536 1484 1492 1556 1455 1466 1509 1494 1495 1568 1521 1567 1492 1562 1486 1468 1525 1410 1577 1533 1461 1524 1556 1448 1546 1537 1521 1418 1496 1550 1541 1495 1551 1507 1496 1501 1486 1528 1527 1462 1516 1452 1451 1475 1507 1491 1530 1555 1528 1520 1534 1550 1505 1504 1583 1484 1520 1529 1473 1494 1477 1514 1457 1550 1535 1489 1492 1493 1538 1494 1480 1479 1509 1504 1441 1450 1517 1464 1516 1511 1470 1444 1487 1532 1508 1424 1412 1485 1443 1528 1547 1568 1471 1504 1515 1534 1468 1443 1433 1413 1517 1486 1473 1521 1468 1496 1555 1498 1537 1456 1536 1558 1475 1523 1517 1486 1453 1572 1487 1530 1509 1512 1537 1479 1447 1455 1435 1561 1544 1485 1511 1461 1559 1515 1432 1441 1470 1472 1448 1406 1558 1469 1478 1471 1444 1543 1470 1462 1437 1525 1458 1495 1473 1501 1460 1500 1533 1612 1482 1451 1516 1508 1529 1418 1532 1537 1519 1519 1455 1472 1520 1547 1508 1514 1478 1488 1411 1494 1479 1509 1491 1561 1448 1473 1453 1463 1457 1527 1441 1452 1437 1510 1523 1464 1498 1423 1494 1509 1472 1471 1493 1470 1443 1513 1495 1443 1477 1529 1513 1449 1521 1495 1476 1576 1470 1539 1501 1491 1495 1507 1477 1524 1494 1435 1487 1603 1415 1587 1482 1506 1459 1518 1502 1466 1492 1417 1491 1481 1511 1417 1435 1467 1491 1414 1447 1467 1518 1418 1496 1527 1477 1508 1505 1511 1489 1527 1445 1498 1471 1512 1522 1475 1528 1341 1532 1528 1534 1478 1405 1490 1539 1405 1473 1537 1411 1514 1492 1488 1476 1450 1502 1460 1486 1472 1517 1428 1485 1528 1481 1423 1469 1470 1434 1478 1511 1460 1426 1524 1526 1517 1555 1548 1487 1426 1476 1436 1536 1483 1496 1532 1466 1455 1439 1457 1486 1438 1443 1470 1462 1491 1456 1419 1513 1401 1478 1514 1451 1532 1560 1555 1503 1455 1444 1471 1453 1519 1569 1452 1546 1370 1497 1530 1486 1511 1414 1428 1496 1462 1565 1470 1575 1469 1460 1518 1408 1516 1493 1538 1470 1502 1490 1443 1593 1453 1468 1535 1527 1456 1425 1430 1457 1439 1476 1400 1493 1435 1462 1478 1438 1482 1547 1442 1441 1429 1518 1433 1518 1434 1436 1464 1516 1565 1517 1503 1442 1451 1461 1528 1500 1438 1457 1389 1553 1420 1439 1510 1470 1417 1520 1485 1431 1475 1440 1487 1445 1499 1497 1443 1433 1460 1513 1422 1462 1532 1514 1508 1455 1404 1466 1433 1483 1464 1429 1528 1455 1384 1513 1476 1413 1522 1455 1434 1530 1435 1504 1385 1581 1477 1410 1504 1476 1527 1501 1429 1468 1506 1406 1470 1457 1445 1529 1480 1540 1399 1489 1492 1448 1500 1457 1463 1397 1483 1433 1533 1411 1416 1461 1521 1444 1503 1465 1504 1448 1438 1517 1492 1431 1515 1525 1477 1394 1508 1434 1492 1485 1504 1427 1426 1447 1489 1457 1486 1482 1406 1459 1422 1516 1462 1461 1429 1465 1455 1545 1461 1512 1527 1436 1448 1483 1472 1443 1428 1516 1421 1544 1592 1438 1563 1459 1556 1432 1404 1457 1531 1471 1418 1497 1490 1507 1452 1418 1578 1460 1502 1481 1433 1510 1505 1551 1453 1472 1513 1441 1466 1431 1468 1460 1503 1501 1535 1540 1493 1447 1576 1517 1483 1513 1471 1458 1556 1578 1584 1570 1633 1541 1545 1709 1553 1597 1619 1663 1666 1655 1681 1706 1685 1665 1714 1708 1720 1748 1684 1705 1743 1792 1707 1758 1782 1662 1699 1710 1796 1815 1830 1737 1851 1838 1692 1825 1745 1889 1793 1771 1767 1883 1892 1872 1800 1781 1834 1767 1824 1802 1792 1727 1745 1728 1725 1733 1671 1692 1656 1694 1689 1625 1631 1624 1624 1594 1587 1534 1494 1528 1609 1560 1539 1517 1542 1483 1562 1545 1476 1505 1470 1469 1437 1485 1457 1515 1480 1511 1514 1448 1499 1457 1460 1536 1575 1481 1489 1536 1477 1584 1471 1476 1463 1535 1445 1518 1426 1464 1515 1488 1557 1536 1539 1477 1468 1527 1487 1510 1556 1563 1591 1598 1513 1506 1535 1529 1449 1494 1589 1511 1539 1537 1448 1512 1529 1527 1544 1471 1476 1458 1508 1490 1606 1526 1441 1552 1503 1521 1584 1473 1461 1458 1507 1501 1434 1493 1563 1430 1493 1459 1492 1499 1491 1389 1507 1506 1423 1477 1511 1455 1482 1452 1460 1406 1526 1473 1492 1459 1511 1482 1437 1469 1404 1467 1445 1453 1458 1503 1405 1445 1463 1448 1493 1451 1398 1441 1467 1495 1431 1437 1537 1514 1435 1441 1447 1477 1415 1466 1522 1481 1452 1523 1429 1432 1401 1543 1436 1451 1424 1469 1463 1493 1420 1484 1457 1517 1473 1461 1471 1457 1498 1450 1486 1482 1466 1466 1409 1557 1443 1415 1499 1395 1460 1525 1435 1458 1480 1471 1510 1440 1463 1482 1481 1479 1462 1487 1452 1460 1429 1497 1471 1459 1528 1496 1515 1494 1491 1482 1532 1485 1495 1427 1398 1421 1437 1454 1477 1453 1514 1478 1504 1477 1504 1528 1435 1454 1437 1420 1461 1382 1436 1499 1418 1516 1472 1467 1452 1470 1447 1470 1459 1415 1503 1498 1466 1493 1502 1435 1512 1440 1523 1480 1509 1431 1522 1464 1447 1477 1491 1468 1391 1445 1452 1483 1506 1481 1484 1476 1488 1444 1522 1416 1506 1501 1452 1532 1514 1554 1447 1546 1431 1522 1478 1448 1585 1496 1522 1525 1494 1460 1502 1452 1486 1497 1443 1528 1502 1493 1526 1551 1528 1561 1546 1531 1542 1500 1557 1461 1515 1534 1493 1494 1564 1563 1592 1527 1504 1568 1608 1540 1579 1635 1512 1531 1672 1654 1676 1763 1756 1805 1812 1899 1965 1969 2086 2157 2336 2286 2455 2470 2561 2474 2612 2670 2619 2702 2672 2733 2741 2827 2886 2947 2886 2991 2965 3116 2978 3108 3169 3084 3022 3145 3194 3190 3204 3221 3267 3288 3328 3285 3310 3333 3370 3479 3418 3462 3332 3296 3260 3147 3200 3062 3001 3003 3039 2891 2738 2809 2671 2674 2607 2492 2448 2471 2340 2348 2264 2228 2251 2146 2151 2175 2018 1995 1931 1983 1970 1925 1882 1903 1783 1813 1855 1820 1786 1773 1807 1736 1871 1689 1784 1777 1867 1810 1772 1753 1775 1740 1875 1789 1743 1796 1761 1744 1739 1812 1818 1795 1761 1784 1788 1881 1791 1789 1772 1837 1773 1787 1762 1719 1702 1772 1821 1804 1710 1773 1781 1784 1734 1701 1846 1750 1700 1749 1675 1812 1670 1632 1702 1823 1658 1761 1718 1665 1641 1727 1674 1682 1796 1627 1667 1667 1734 1616 1643 1619 1639 1575 1582 1635 1683 1618 1619 1649 1673 1548 1599 1568 1568 1596 1571 1493 1626 1522 1515 1510 1531 1571 1535 1638 1602 1577 1533 1509 1528 1542 1519 1486 1536 1548 1492 1524 1451 1506 1514 1517 1510 1528 1498 1457 1461 1515 1464 1537 1550 1518 1461 1439 1481 1505 1457 1626 1470 1506 1496 1430 1473 1533 1485 1522 1459 1517 1451 1524 1510 1498 1530 1494 1536 1506 1552 1620 1554 1540 1652 1536 1623 1549 1584 1685 1538 1660 1608 1616 1655 1659 1632 1517 1687 1634 1622 1626 1674 1630 1691 1606 1661 1660 1707 1657 1670 1698 1705 1693 1767 1675 1607 1677 1741 1711 1674 1742 1604 1670 1682 1691 1620 1647 1611 1638 1588 1601 1663 1613 1608 1565 1573 1524 1547 1561 1584 1560 1551 1531 1497 1520 1536 1505 1505 1516 1536 1498 1527 1522 1496 1502 1504 1585 1454 1537 1547 1525 1535 1490 1589 1501 1475 1483 1506 1535 1524 1557 1489 1509 1502 1520 1565 1562 1460 1483 1496 1509 1476 1523 1521 1527 1502 1463 1479 1529 1479 1511 1598 1477 1522 1501 1499 1591 1460 1506 1454 1506 1435 1448 1485 1521 1534 1515 1491 1452 1429 1439 1399 1446 1488 1446 1506 1514 1454 1441 1462 1364 1448 1436 1476 1507 1460 1452 1436 1487 1460 1492 1480 1378 1518 1445 1454 1445 1475 1441 1420 1392 1389 1503 1467 1469 1387 1488 1463 1446 1469 1395 1471 1455 1394 1420 1428 1446 1423 1442 1455 1391 1415 1355 1391 1381 1422 1496 1431 1458 1398 1397 1476 1468 1519 1388 1486 1442 1425 1487 1437 1467 1437 1436 1417 1345 1436 1385 1467 1447 1492 1499 1385 1457 1428 1478 1389 1414 1417 1426 1432 1399 1475 1416 1387 1434 1444 1403 1415 1445 1420 1387 1446 1455 1464 1503 1477 1384 1366 1445 1409 1475 1482 1431 1341 1505 1445 1326 1415 1393 1397 1447 1407 1419 1463 1467 1472 1442 1482 1392 1494 1396 1398 1459 1380 1432 1449 1486 1481 1451 1420 1518 1403 1432 1445 1427 1430 1481 1427 1419 1436 1444 1412 1508 1485 1450 1406 1475 1397 1487 1346 1441 1432 1355 1446 1410 1458 1448 1459 1414 1448 1449 1383 1414 1430 1431 1393 1414 1407 1390 1426 1436 1373 1418 1437 1375 1416 1361 1419 1522 1505 1415 1424 1410 1408 1375 1466 1400 1399 1393 1469 1432 1487 1413 1402 1526 1419 1366 1434 1364 1412 1375 1368 1453 1431 1461 1438 1485 1410 1473 1492 1422 1360 1418 1428 1380 1430 1390 1489 1419 1439 1424 1507 1386 1391 1442 1441 1442 1459 1419 1447 1423 1401 1460 1435 1508 1338 1486 1464 1377 1376 1397 1414 1446 1394 1374 1418 1387 1464 1461 1400 1314 1427 1442 1476 1452 1436 1431 1372 1405 1434 1364 1464 1339 1429 1445 1401 1461 1410 1448 1382 1409 1424 1436 1452 1455 1429 1366 1360 1413 1436 1359 1374 1454 1415 1407 1446 1369 1382 1408 1435 1416 1371 1419 1386 1370 1428 1438 1471 1407 1444 1412 1418 1439 1424 1388 1429 1441 1396 1385 1371 1438 1442 1356 1429 1471 1395 1384 1428 1445 1409 1398 1359 1394 1472 1401 1400 1433 1421 1486 1392 1398 1384 1451 1370 1420 1387 1387 1425 1384 1429 1399 1392 1469 1423 1413 1528 1426 1436 1389 1416 1402 1356 1441 1439 1438 1394 1414 1481 1392 1490 1441 1443 1422 1397 1437 1424 1359 1459 1360 1424 1461 1408 1406 1450 1447 1354 1490 1405 1402 1390 1388 1377 1454 1363 1497 1415 1479 1375 1429 1411 1455 1466 1475 1392 1433 1415 1332 1458 1425 1401 1436 1441 1420 1435 1348 1394 1388 1408 1445 1420 1424 1433 1457 1367 1418 1417 1445 1392 1519 1438 1476 1431 1476 1434 1414 1446 1435 1438 1464 1391 1514 1495 1439 1455 1443 1453 1498 1437 1447 1418 1429 1489 1483 1491 1491 1445 1531 1500 1486 1477 1413 1523 1491 1426 1427 1436 1457 1420 1459 1476 1522 1440 1517 1531 1460 1449 1482 1415 1502 1481 1524 1500 1494 1470 1529 1368 1411 1420 1455 1490 1473 1519 1477 1575 1412 1418 1560 1492 1498 1492 1397 1499 1451 1554 1570 1508 1548 1536 1559 1523 1589 1508 1546 1602 1568 1603 1615 1528 1565 1527 1537 1608 1552 1594 1659 1589 1621 1646 1636 1573 1653 1612 1599 1646 1656 1559 1609 1551 1555 1569 1583 1567 1623 1612 1596 1632 1550 1578 1647 1582 1586 1608 1541 1569 1577 1562 1591 1605 1591 1465 1462 1401 1482 1467 1532 1535 1512 1474 1449 1469 1470 1486 1472 1468 1429 1418 1537 1546 1487 1441 1473 1420 1469 1484 1438 1409 1419 1409 1462 1429 1465 1551 1444 1434 1452 1512 1515 1379 1379 1493 1471 1468 1391 1442 1406 1475 1452 1461 1462 1507 1442 1441 1414 1458 1439 1444 1467 1515 1489 1517 1465 1495 1513 1527 1444 1430 1378 1465 1456 1465 1485 1475 1480 1436 1479 1539 1458 1456 1517 1452 1477 1495 1595 1536 1415 1426 1444 1502 1426 1517 1452 1519 1496 1490 1485 1527 1491 1490 1506 1513 1541 1488 1480 1498 1487 1420 1508 1495 1464 1515 1511 1532 1474 1426 1455 1501 1425 1402 1519 1444 1447 1480 1473 1443 1416 1440 1382 1477 1496 1442 1468 1495 1456 1437 1434 1406 1455 1473 1478 1443 1411 1411 1492 1440 1401 1416 1445 1431 1474 1464 1390 1413 1455 1407 1421 1424 1478 1455 1488 1423 1456 1437 1512 1436 1444 1480 1480 1521 1393 1416 1377 1434 1418 1432 1493 1474 1440 1373 1503 1488 1461 1330 1456 1375 1484 1457 1470 1481 1473 1457 1472 1498 1416 1430 1461 1431 1497 1469 1522 1476 1500 1587 1415 1565 1548 1623 1547 1612 1557 1699 1650 1619 1656 1652 1660 1669 1702 1663 1702 1754 1666 1720 1664 1704 1750 1813 1696 1871 1746 1826 1716 1852 1859 1794 1835 1900 1809 1860 1888 1857 1830 1888 1865 1849 1826 1903 1830 1818 1849 1861 1793 1855 1818 1813 1745 1758 1723 1774 1803 1680 1686 1693 1682 1693 1683 1595 1595 1602 1681 1578 1537 1619 1562 1566 1510 1593 1591 1539 1468 1461 1436 1507 1513 1506 1471 1513 1506 1543 1473 1474 1506 1468 1464 1511 1526 1546 1430 1395 1531 1446 1440 1443 1442 1515 1477 1439 1501 1495 1508 1496 1472 1412 1432 1507 1497 1529 1503 1480 1511 1496 1449 1479 1534 1545 1494 1475 1469 1477 1497 1512 1451 1471 1515 1495 1514 1472 1478 1552 1420 1497 1332 1464 1384 1528 1424 1506 1460 1440 1408 1494 1505 1545 1487 1568 1440 1491 1425 1371 1418 1469 1430 1493 1465 1467 1442 1474 1488 1457 1470 1499 1421 1401 1410 1473 1446 1418 1477 1368 1448 1557 1444 1412 1398 1469 1504 1516 1427 1443 1391 1414 1402 1463 1501 1398 1444 1387 1519 1399 1459 1437 1442 1462 1487 1550 1513 1560 1481 1562 1539 1507 1535 1558 1472 1581 1513 1478 1522 1552 1525 1556 1549 1561 1507 1564 1566 1556 1564 1549 1588 1631 1535 1512 1516 1551 1516 1515 1510 1540 1562 1562 1564 1516 1531 1552 1510 1482 1584 1499 1532 1559 1557 1543 1469 1561 1473 1532 1476 1569 1476 1494 1459 1566 1541 1412 1431 1471 1421 1436 1499 1482 1488 1475 1365 1458 1450 1491 1406 1392 1464 1406 1337 1430 1418 1402 1417 1462 1422 1436 1330 1408 1424 1349 1430 1413 1466 1360 1462 1456 1420 1378 1476 1433 1442 1431 1405 1481 1449 1462 1437 1425 1447 1423 1433 1397 1369 1436 1427 1409 1409 1392 1411 1412 1504 1455 1465 1501 1389 1396 1391 1443 1447 1470 1390 1477 1414 1433 1384 1442 1410 1451 1481 1395 1425 1371 1407 1382 1406 1383 1429 1443 1420 1493 1442 1431 1428 1452 1492 1373 1355 1435 1346 1434 1354 1385 1452 1400 1473 1440 1444 1414 1470 1468 1423 1422 1417 1486 1410 1423 1413 1440 1458 1380 1499 1439 1430 1437 1347 1452 1384 1431 1429 1451 1394 1415 1419 1443 1388 1423 1422 1398 1418 1423 1425 1461 1411 1424 1355 1459 1470 1433 1317 1384 1450 1425 1401 1442 1451 1376 1392 1485 1477 1477 1420 1457 1464 1469 1417 1380 1415 1414 1431 1410 1390 1347 1377 1358 1456 1441 1415 1403 1455 1421 1419 1385 1471 1419 1401 1401 1449 1416 1363 1419 1436 1398 1431 1379 1337 1451 1430 1398 1372 1347 1439 1393 1430 1380 1435 1375 1408 1377 1485 1399 1364 1437 1426 1434 1331 1381 1399 1376 1373 1451 1415 1414 1392 1409 1341 1355 1363 1426 1361 1372 1358 1466 1393 1426 1483 1403 1385 1418 1431 1375 1366 1440 1370 1368 1426 1336 1407 1399 1418 1444 1468 1358 1439 1463 1344 1477 1514 1333 1370 1433 1384 1317 1365 1437 1319 1440 1419 1352 1420 1388 1430 1454 1457 1408 1463 1438 1438 1381 1412 1411 1437 1417 1378 1396 1430 1395 1375 1402 1380 1420 1416 1431 1364 1402 1475 1408 1387 1414 1447 1381 1400 1400 1402 1502 1400 1353 1387 1373 1453 1454 1387 1381 1378 1378 1410 1342 1398 1457 1382 1396 1374 1377 1389 1378 1381 1378 1417 1434 1403 1362 1404 1366 1320 1419 1408 1467 1362 1358 1397 1387 1424 1433 1370 1530 1360 1380 1436 1322 1386 1407 1425 1390 1392 1439 1441 1376 1392 1342 1420 1393 1414 1414 1438 1365 1473 1361 1470 1365 1364 1389 1367 1372 1316 1391 1363 1367 1402 1315 1388 1358 1395 1378 1373 1454 1409 1405 1502 1394 1419 1443 1409 1404 1376 1412 1415 1351 1447 1452 1432 1410 1391 1335 1356 1404 1349 1384 1372 1367 1347 1444 1479 1351 1372 1378 1362 1322 1349 1416 1418 1403 1399 1429 1359 1330 1388 1443 1405 1416 1397 1422 1469 1436 1404 1360 1401 1387 1355 1469 1388 1423 1481 1392 1462 1411 1402 1447 1425 1445 1461 1309 1439 1442 1428 1428 1545 1430 1449 1353 1449 1458 1467 1457 1449 1475 1504 1489 1455 1503 1395 1451 1487 1450 1528 1501 1499 1572 1510 1539 1458 1464 1449 1467 1446 1484 1493 1457 1432 1426 1485 1470 1404 1414 1465 1426 1388 1489 1442 1400 1457 1504 1465 1476 1510 1533 1452 1415 1459 1445 1456 1415 1476 1387 1409 1421 1417 1391 1465 1390 1423 1384 1392 1360 1400 1410 1392 1500 1450 1371 1394 1376 1434 1427 1439 1379 1447 1398 1411 1437 1383 1481 1431 1420 1359 1400 1400 1469 1443 1389 1499 1416 1440 1375 1423 1422 1440 1437 1435 1409 1499 1411 1369 1402 1435 1368 1369 1472 1439 1391 1374 1362 1413 1382 1351 1394 1435 1399 1378 1406 1376 1405 1388 1412 1436 1387 1424 1429 1430 1398 1464 1386 1365 1461 1415 1428 1385 1443 1379 1418 1404 1448 1403 1370 1368 1396 1449 1371 1433 1387 1339 1450 1469 1430 1499 1344 1450 1448 1414 1448 1393 1427 1431 1465 1456 1457 1375 1395 1354 1369 1458 1429 1448 1388 1392 1314 1432 1367 1407 1418 1483 1400 1384 1363 1420 1387 1306 1391 1479 1428 1425 1400 1408 1381 1381 1430 1392 1413 1342 1382 1337 1418 1389 1344 1355 1404 1406 1366 1410 1379 1424 1379 1426 1432 1373 1350 1419 1384 1427 1428 1390 1415 1397 1357 1394 1354 1374 1410 1417 1386 1370 1352 1403 1377 1398 1389 1447 1437 1366 1457 1461 1408 1428 1354 1396 1320 1361 1408 1399 1427 1427 1404 1372 1493 1389 1423 1480 1464 1343 1440 1413 1469 1423 1425 1353 1408 1394 1406 1491 1390 1387 1437 1476 1454 1376 1390 1391 1462 1432 1479 1473 1448 1402 1504 1507 1395 1451 1481 1412 1498 1422 1548 1488 1457 1444 1451 1557 1523 1485 1551 1559 1588 1493 1518 1487 1589 1578 1616 1588 1579 1528 1571 1568 1597 1553 1480 1546 1620 1595 1624 1562 1675 1599 1606 1632 1607 1617 1636 1558 1582 1591 1643 1648 1612 1575 1548 1511 1577 1581 1565 1582 1636 1563 1519 1495 1477 1464 1518 1553 1474 1535 1529 1488 1470 1494 1531 1491 1517 1433 1463 1434 1435 1524 1410 1479 1433 1449 1470 1420 1481 1425 1479 1391 1454 1377 1374 1490 1364 1404 1391 1381 1426 1354 1478 1436 1391 1401 1402 1431 1412 1442 1499 1454 1409 1355 1404 1477 1401 1436 1380 1443 1384 1338 1434 1328 1418 1416 1433 1434 1499 1389 1474 1413 1413 1432 1383 1389 1401 1420 1366 1422 1401 1376 1462 1400 1430 1429 1432 1423 1386 1484 1398 1460 1403 1418 1458 1289 1365 1431 1389 1416 1388 1446 1366 1401 1391 1408 1497 1437 1469 1488 1455 1429 1437 1476 1452 1421 1441 1483 1438 1492 1372 1470 1445 1468 1486 1429 1458 1435 1420 1410 1453 1468 1464 1453 1419 1401 1369 1405 1450 1395 1458 1465 1440 1403 1474 1365 1381 1441 1418 1498 1419 1417 1438 1406 1442 1412 1466 1465 1410 1441 1339 1515 1404 1454 1416 1389 1401 1413 1471 1475 1474 1368 1441 1457 1381 1401 1421 1447 1387 1441 1448 1348 1434 1407 1405 1403 1362 1434 1437 1419 1443 1468 1408 1431 1418 1394 1470 1388 1406 1394 1426 1431 1374 1365 1433 1425 1489 1424 1373 1442 1339 1412 1372 1442 1386 1400 1481 1426 1430 1408 1379 1351 1358 1414 1481 1385 1409 1394 1429 1409 1403 1397 1385 1490 1432 1457 1416 1365 1379 1426 1403 1420 1401 1418 1410 1401 1436 1403 1403 1414 1374 1471 1408 1382 1454 1368 1397 1383 1378 1454 1429 1399 1438 1437 1403 1418 1438 1449 1351 1343 1428 1434 1420 1389 1423 1404 1387 1400 1363 1390 1427 1426 1367 1463 1469 1390 1417 1457 1436 1409 1422 1374 1407 1455 1425 1419 1338 1402 1388 1420 1413 1391 1453 1419 1400 1412 1404 1405 1369 1469 1452 1409 1414 1374 1425 1414 1423 1441 1395 1415 1468 1393 1410 1394 1403 1408 1484 1435 1373 1432 1421 1398 1425 1346 1441 1442 1404 1407 1459 1373 1443 1409 1402 1390 1343 1440 1386 1440 1488 1462 1434 1416 1441 1367 1443 1461 1468 1384 1368 1438 1425 1405 1383 1434 1424 1484 1379 1497 1477 1463 1415 1400 1401 1439 1464 1376 1388 1371 1409 1427 1443 1429 1435 1426 1433 1377 1468 1373 1411 1419 1392 1464 1407 1394 1389 1433 1392 1391 1422 1465 1451 1381 1452 1404 1427 1355 1394 1415 1447 1420 1383 1372 1393 1406 1371 1434 1410 1400 1358 1460 1393 1360 1389 1390 1498 1375 1400 1380 1408 1397 1406 1401 1431 1395 1371 1410 1420 1392 1432 1409 1375 1420 1451 1353 1496 1446 1415 1474 1339 1425 1424 1464 1365 1493 1369 1437 1410 1357 1421 1459 1393 1489 1483 1425 1364 1391 1502 1414 1385 1424 1373 1432 1434 1418 1354 1418 1407 1416 1393 1379 1384 1404 1398 1409 1415 1460 1433 1443 1456 1477 1419 1431 1378 1417 1438 1495 1497 1384 1486 1500 1450 1421 1486 1456 1489 1417 1409 1427 1436 1449 1386 1386 1444 1443 1453 1440 1381 1396 1469 1455 1423 1464 1419 1479 1450 1454 1431 1375 1443 1404 1435 1377 1434 1396 1471 1396 1433 1440 1407 1429 1415 1386 1435 1402 1353 1411 1493 1456 1463 1382 1466 1416 1376 1464 1450 1480 1390 1442 1489 1401 1403 1393 1368 1420 1474 1451 1418 1444 1488 1434 1439 1394 1395 1494 1332 1374 1412 1367 1427 1418 1394 1359 1412 1458 1436 1467 1488 1454 1450 1481 1530 1436 1467 1409 1401 1400 1428 1413 1445 1360 1446 1445 1441 1394 1368 1446 1404 1466 1443 1458 1470 1447 1427 1535 1414 1429 1446 1502 1521 1516 1451 1469 1484 1501 1445 1463 1480 1437 1452 1504 1479 1520 1507 1485 1481 1446 1438 1462 1442 1474 1451 1476 1525 1448 1550 1528 1473 1461 1490 1523 1474 1525 1466 1516 1485 1494 1465 1467 1447 1480 1512 1532 1450 1505 1505 1451 1473 1505 1500 1445 1428 1453 1433 1439 1470 1423 1556 1479 1505 1467 1484 1465 1550 1482 1463 1491 1524 1428 1509 1494 1554 1506 1488 1476 1477 1534 1491 1518 1518 1575 1460 1444 1487 1561 1486 1482 1526 1524 1501 1531 1485 1523 1436 1447 1432 1434 1436 1434 1521 1533 1518 1465 1572 1396 1478 1574 1468 1483 1437 1473 1410 1490 1451 1528 1380 1372 1465 1453 1370 1446 1514 1439 1459 1542 1478 1481 1389 1442 1426 1437 1462 1500 1433 1542 1467 1437 1402 1517 1427 1485 1496 1457 1483 1472 1418 1411 1425 1415 1478 1444 1464 1447 1488 1471 1471 1458 1517 1441 1505 1491 1457 1429 1528 1502 1415 1431 1469 1467 1402 1522 1461 1512 1471 1493 1384 1499 1469 1412 1476 1405 1423 1466 1463 1456 1474 1440 1415 1462 1462 1453 1407 1520 1453 1481 1461 1445 1472 1544 1474 1461 1478 1479 1479 1492 1502 1466 1412 1537 1483 1440 1527 1455 1496 1512 1491 1506 1514 1494 1439 1421 1441 1469 1485 1450 1503 1452 1501 1428 1426 1459 1439 1408 1448 1504 1477 1472 1479 1470 1502 1470 1470 1446 1533 1496 1499 1537 1509 1431 1436 1433 1464 1481 1493 1476 1458 1516 1574 1528 1440 1540 1543 1530 1545 1563 1540 1510 1496 1454 1464 1524 1607 1520 1547 1594 1472 1618 1534 1558 1608 1678 1615 1640 1651 1714 1674 1721 1706 1727 1761 1729 1651 1713 1756 1784 1785 1811 1816 1909 1822 1751 1911 1923 1805 1923 1862 1959 1897 1926 2010 1922 1871 1946 1981 1990 1909 2017 1947 1935 1958 1906 1953 1906 1887 1889 1863 1804 1792 1827 1782 1832 1750 1772 1744 1811 1749 1645 1636 1686 1584 1720 1655 1746 1688 1566 1646 1572 1651 1640 1639 1532 1607 1544 1550 1545 1554 1567 1512 1532 1489 1541 1511 1601 1515 1489 1493 1436 1553 1465 1500 1490 1573 1399 1464 1560 1461 1526 1527 1404 1537 1499 1465 1453 1422 1460 1459 1533 1450 1436 1497 1531 1481 1533 1523 1482 1494 1403 1460 1450 1506 1470 1456 1530 1444 1484 1507 1443 1561 1592 1504 1572 1500 1480 1421 1471 1400 1474 1524 1499 1553 1466 1526 1504 1489 1508 1519 1535 1446 1512 1484 1445 1484 1479 1540 1496 1495 1553 1529 1512 1544 1466 1550 1521 1547 1498 1540 1478 1544 1513 1511 1518 1457 1526 1477 1493 1517 1465 1518 1447 1522 1586 1490 1524 1531 1497 1563 1459 1547 1544 1541 1521 1539 1613 1570 1525 1511 1573 1482 1528 1489 1530 1562 1527 1557 1568 1584 1585 1534 1468 1522 1595 1522 1552 1544 1553 1503 1570 1546 1502 1532 1529 1527 1552 1550 1454 1608 1542 1546 1497 1495 1531 1548 1450 1512 1545 1543 1478 1405 1518 1513 1471 1561 1474 1531 1482 1551 1520 1497 1494 1465 1498 1472 1525 1483 1529 1518 1496 1485 1543 1531 1396 1448 1464 1484 1457 1439 1523 1504 1486 1486 1510 1430 1428 1500 1507 1469 1412 1509 1480 1413 1444 1465 1439 1426 1436 1436 1498 1451 1411 1442 1534 1466 1441 1461 1439 1398 1501 1504 1435 1469 1400 1480 1461 1472 1426 1440 1409 1456 1487 1411 1411 1426 1405 1458 1519 1449 1381 1481 1386 1453 1454 1449 1476 1478 1408 1450 1493 1487 1494 1486 1466 1505 1444 1434 1418 1499 1465 1484 1437 1434 1391 1523 1509 1528 1456 1451 1489 1472 1406 1407 1398 1445 1454 1456 1396 1476 1500 1418 1504 1424 1450 1479 1471 1486 1482 1465 1415 1402 1466 1415 1421 1513 1449 1428 1473 1453 1535 1494 1448 1461 1483 1479 1479 1473 1453 1463 1434 1415 1479 1447 1403 1453 1457 1472 1474 1409 1485 1474 1392 1417 1461 1464 1415 1427 1454 1478 1420 1500 1463 1425 1429 1399 1470 1400 1493 1426 1500 1472 1449 1472 1392 1497 1473 1401 1486 1473 1402 1476 1422 1474 1423 1446 1405 1482 1503 1445 1367 1524 1473 1459 1493 1445 1475 1475 1491 1468 1452 1453 1473 1403 1433 1435 1449 1485 1420 1444 1426 1477 1510 1462 1446 1482 1398 1438 1437 1448 1448 1425 1428 1441 1419 1425 1476 1430 1417 1356 1409 1507 1430 1483 1448 1454 1474 1414 1455 1427 1418 1433 1420 1487 1505 1448 1446 1356 1482 1510 1474 1454 1471 1468 1450 1390 1459 1437 1466 1469 1401 1434 1419 1426 1428 1491 1467 1439 1440 1436 1498 1416 1431 1438 1401 1417 1444 1426 1465 1418 1501 1388 1442 1486 1412 1423 1389 1435 1560 1475 1385 1428 1489 1400 1452 1511 1421 1429 1458 1445 1457 1470 1433 1442 1460 1431 1454 1462 1454 1385 1423 1460 1430 1493 1480 1396 1427 1380 1447 1480 1510 1453 1480 1481 1506 1443 1395 1418 1444 1488 1475 1436 1453 1483 1508 1408 1497 1434 1517 1475 1457 1434 1451 1458 1415 1431 1467 1440 1433 1503 1395 1441 1428 1417 1539 1468 1442 1436 1420 1379 1371 1475 1496 1449 1462 1453 1447 1453 1416 1459 1511 1523 1359 1441 1466 1450 1413 1447 1450 1545 1479 1458 1480 1488 1462 1482 1483 1458 1483 1466 1460 1548 1461 1469 1425 1525 1444 1538 1517 1478 1562 1464 1543 1498 1495 1468 1484 1401 1427 1558 1549 1566 1547 1516 1423 1502 1526 1464 1479 1523 1545 1494 1498 1499 1475 1586 1474 1548 1519 1502 1568 1509 1479 1475 1454 1487 1574 1567 1569 1559 1431 1545 1597 1470 1481 1462 1445 1529 1520 1533 1484 1400 1437 1493 1441 1450 1460 1514 1513 1450 1506 1520 1461 1509 1456 1461 1418 1435 1547 1461 1496 1527 1512 1458 1468 1454 1518 1448 1453 1487 1434 1517 1489 1406 1479 1435 1476 1469 1431 1482 1487 1385 1416 1437 1422 1450 1467 1460 1487 1498 1494 1417 1482 1414 1458 1443 1480 1491 1469 1492 1483 1396 1428 1460 1459 1434 1429 1442 1434 1474 1480 1490 1432 1475 1422 1482 1432 1443 1433 1466 1464 1414 1470 1417 1384 1433 1469 1468 1436 1468 1447 1436 1462 1415 1407 1429 1430 1497 1467 1409 1401 1439 1547 1498 1458 1459 1501 1527 1497 1471 1414 1450 1436 1514 1414 1466 1487 1518 1372 1463 1428 1481 1506 1444 1463 1484 1462 1514 1472 1445 1447 1494 1390 1460 1456 1423 1448 1449 1502 1533 1507 1449 1497 1500 1495 1451 1440 1416 1448 1470 1429 1468 1387 1501 1492 1434 1448 1448 1514 1491 1459 1438 1459 1539 1488 1517 1419 1487 1471 1525 1505 1460 1458 1503 1469 1458 1509 1472 1474 1459 1431 1453 1469 1423 1500 1444 1365 1395 1472 1475 1447 1482 1466 1543 1506 1467 1537 1479 1475 1427 1486 1500 1527 1491 1416 1453 1468 1484 1473 1436 1465 1511 1470 1481 1434 1541 1482 1563 1449 1436 1440 1501 1579 1468 1602 1523 1566 1564 1486 1570 1574 1645 1602 1568 1527 1657 1533 1602 1610 1626 1615 1645 1655 1642 1654 1661 1691 1754 1669 1764 1721 1751 1751 1744 1738 1701 1727 1778 1813 1779 1825 1746 1731 1885 1736 1818 1705 1828 1809 1696 1641 1765 1763 1741 1797 1747 1715 1738 1728 1756 1743 1718 1689 1686 1633 1649 1695 1753 1710 1751 1582 1610 1656 1642 1608 1674 1639 1601 1587 1607 1587 1562 1534 1536 1563 1559 1499 1453 1540 1504 1499 1558 1561 1527 1486 1529 1508 1500 1483 1480 1543 1499 1464 1550 1475 1491 1461 1466 1464 1519 1473 1516 1450 1436 1468 1449 1448 1471 1453 1414 1469 1523 1523 1467 1475 1523 1515 1417 1490 1553 1471 1420 1476 1513 1441 1479 1449 1473 1427 1473 1508 1465 1471 1535 1529 1492 1528 1481 1515 1459 1486 1566 1403 1510 1494 1472 1481 1442 1512 1511 1518 1503 1516 1455 1404 1539 1489 1524 1500 1501 1417 1460 1517 1495 1535 1457 1549 1439 1441 1548 1499 1552 1562 1493 1571 1444 1487 1522 1468 1560 1551 1535 1539 1489 1488 1506 1485 1510 1544 1594 1490 1445 1597 1558 1538 1547 1653 1511 1517 1602 1549 1519 1580 1490 1516 1506 1549 1557 1529 1556 1490 1517 1519 1507 1539 1581 1553 1520 1567 1539 1540 1489 1511 1590 1533 1492 1456 1512 1594 1564 1539 1533 1484 1502 1507 1573 1471 1476 1475 1498 1528 1496 1534 1525 1472 1516 1530 1492 1444 1419 1540 1453 1485 1468 1484 1498 1478 1530 1459 1503 1466 1491 1479 1489 1512 1480 1586 1499 1517 1460 1477 1482 1467 1474 1423 1490 1464 1436 1459 1494 1559 1424 1504 1574 1455 1393 1481 1518 1453 1489 1441 1510 1496 1463 1514 1488 1533 1516 1475 1490 1512 1467 1490 1463 1451 1546 1435 1480 1509 1395 1450 1454 1468 1455 1516 1573 1476 1516 1469 1458 1418 1464 1462 1523 1464 1475 1449 1496 1438 1519 1454 1461 1410 1413 1398 1491 1471 1415 1510 1515 1392 1531 1420 1461 1504 1473 1481 1530 1490 1497 1483 1527 1501 1458 1547 1435 1428 1490 1449 1426 1474 1533 1455 1496 1471 1450 1514 1452 1524 1524 1497 1495 1453 1510 1478 1507 1518 1472 1481 1404 1488 1440 1438 1387 1487 1472 1539 1409 1541 1456 1455 1463 1412 1510 1542 1498 1468 1468 1420 1471 1439 1427 1444 1469 1522 1435 1421 1483 1410 1494 1491 1525 1477 1451 1507 1497 1493 1474 1459 1450 1461 1474 1483 1534 1454 1500 1478 1453 1447 1414 1448 1437 1484 1437 1388 1409 1436 1467 1419 1481 1454 1527 1448 1516 1489 1449 1432 1444 1466 1460 1460 1460 1423 1488 1507 1464 1486 1408 1478 1475 1450 1521 1500 1465 1464 1473 1452 1490 1423 1460 1462 1474 1438 1422 1453 1478 1440 1458 1425 1455 1460 1523 1379 1456 1496 1432 1394 1405 1496 1483 1498 1516 1465 1484 1525 1495 1557 1487 1439 1411 1486 1436 1482 1491 1468 1512 1456 1475 1469 1458 1384 1478 1469 1544 1483 1394 1466 1526 1452 1450 1435 1459 1435 1458 1466 1451 1471 1421 1511 1422 1517 1456 1501 1495 1436 1470 1461 1419 1481 1409 1439 1496 1473 1427 1463 1479 1591 1465 1436 1507 1502 1526 1567 1419 1542 1460 1445 1487 1442 1443 1491 1471 1483 1435 1419 1425 1465 1403 1470 1485 1493 1475 1384 1492 1469 1545 1471 1595 1473 1450 1509 1500 1491 1501 1492 1511 1450 1543 1473 1480 1441 1439 1455 1416 1459 1438 1434 1488 1421 1436 1431 1468 1468 1442 1468 1513 1493 1467 1448 1495 1464 1494 1458 1513 1500 1472 1532 1456 1511 1458 1451 1494 1562 1527 1423 1475 1521 1518 1457 1435 1448 1524 1443 1541 1463 1452 1499 1520 1479 1609 1496 1517 1465 1462 1506 1548 1442 1610 1425 1555</counts>
			</dataPoints>
		</scan>
	</xrdMeasurement>
</xrdMeasurements>
