<?xml version="1.0"?>
<xrdMeasurements xmlns="http://www.xrdml.com/XRDMeasurement/2.3" xmlns:xsi="http://www.w3.org/2001/XMLSchema-instance" xsi:schemaLocation="http://www.xrdml.com/XRDMeasurement/2.3 http://www.xrdml.com/XRDMeasurement/2.3/XRDMeasurement.xsd" status="Completed" recordIdentifier="{3D74437C-33BB-4029-971B-21458136A193}">
	<comment>
		<entry/>
	</comment>
	<sample type="To be analyzed">
		<id>GPSS_Li1p88Fe0p88Bi0p12Cl4_122625_694efed0ae15af25ac374c60</id>
		<name></name>
		<preparedBy></preparedBy>
	</sample>
	<xrdMeasurement measurementType="Scan" status="Completed" sampleMode="Reflection">
		<usedWavelength intended="K-Alpha 1">
			<kAlpha1 unit="Angstrom">1.5405980</kAlpha1>
			<kAlpha2 unit="Angstrom">1.5444260</kAlpha2>
			<kBeta unit="Angstrom">1.3922500</kBeta>
			<ratioKAlpha2KAlpha1>0.5000</ratioKAlpha2KAlpha1>
		</usedWavelength>
		<incidentBeamPath>
			<radius unit="mm">145.00</radius>
			<xRayTube id="1010048" name="Empyrean Cu LFF HR (9430 033 7310x)">
				<tension unit="kV">40.0</tension>
				<current unit="mA">15.0</current>
				<anodeMaterial>Cu</anodeMaterial>
				<focus type="Line">
					<length unit="mm">12.0</length>
					<width unit="mm">0.4</width>
					<takeOffAngle unit="deg">6.0</takeOffAngle>
				</focus>
			</xRayTube>
			<sollerSlit id="21010002" name="Soller slits 0.04 rad.">
				<opening unit="rad">0.0400</opening>
			</sollerSlit>
			<mask id="22031000" name="Fixed mask 13 mm">
				<width unit="mm">9.00</width>
			</mask>
			<divergenceSlit id="22120001" name="Divergence slit 1°" xsi:type="fixedDivergenceSlitType">
				<distanceToSample unit="mm">50.00</distanceToSample>
				<height unit="mm">1.52</height>
			</divergenceSlit>
		</incidentBeamPath>
		<sampleMovement xsi:type="spinningSampleMovementType">
			<spinnerRevolutionTime unit="seconds">1.0</spinnerRevolutionTime>
		</sampleMovement>
		<diffractedBeamPath>
			<radius unit="mm">145.00</radius>
			<antiScatterSlit id="22090040" name="AS slit 9 mm (PIXcel)" xsi:type="fixedAntiScatterSlitType">
				<height unit="mm">9.00</height>
			</antiScatterSlit>
			<sollerSlit id="21020003" name="Large Soller slits 0.04 rad.">
				<opening unit="rad">0.0400</opening>
			</sollerSlit>
			<filter id="20030001" name="Large beta-filter Nickel">
				<material>Ni</material>
				<thickness unit="mm">0.020</thickness>
			</filter>
			<detector id="7010019" name="PIXcel1D-Medipix3 detector" xsi:type="rtmsDetectorType">
				<phd unit="keV">
					<lowerLevel>4.02</lowerLevel>
					<upperLevel>11.27</upperLevel>
				</phd>
				<mode>Scanning</mode>
				<activeLength unit="deg">5.542</activeLength>
			</detector>
		</diffractedBeamPath>
		<scan appendNumber="0" mode="Continuous" scanAxis="Gonio" status="Completed">
			<header>
				<startTimeStamp>2025-12-29T11:32:44-08:00</startTimeStamp>
				<endTimeStamp>2025-12-29T11:40:52-08:00</endTimeStamp>
				<author>
					<name>AutomatedUser</name>
				</author>
				<source>
					<applicationSoftware version="1.7b (136)">PANalytical Aeris Instrument Suite</applicationSoftware>
					<instrumentControlSoftware version="3.2.00000000 20240306">AERIS</instrumentControlSoftware>
					<instrumentID>950485</instrumentID>
				</source>
			</header>
			<dataPoints>
				<positions axis="2Theta" unit="deg">
					<startPosition>10.00943322</startPosition>
					<endPosition>99.99442286</endPosition>
				</positions>
				<positions axis="Omega" unit="deg">
					<startPosition>5.00471661</startPosition>
					<endPosition>49.99721143</endPosition>
				</positions>
				<commonCountingTime unit="seconds">12.495</commonCountingTime>
				<counts unit="counts">3375 3322 3390 3449 3421 3289 3374 3370 3303 3401 3407 3420 3450 3320 3363 3452 3396 3389 3403 3199 3441 3248 3383 3430 3303 3452 3364 3383 3408 3427 3384 3323 3445 3385 3302 3404 3423 3477 3367 3333 3477 3493 3376 3366 3431 3529 3382 3449 3426 3370 3526 3424 3544 3344 3390 3420 3355 3488 3506 3485 3465 3597 3543 3454 3585 3591 3512 3543 3612 3526 3578 3492 3654 3599 3607 3520 3561 3620 3496 3648 3590 3605 3604 3462 3753 3582 3469 3457 3550 3522 3562 3635 3557 3567 3654 3572 3607 3502 3706 3602 3645 3583 3549 3620 3714 3589 3664 3517 3625 3682 3588 3612 3634 3703 3586 3548 3751 3645 3640 3715 3631 3696 3621 3578 3635 3600 3632 3648 3641 3718 3567 3708 3638 3645 3787 3814 3627 3533 3666 3661 3775 3695 3689 3805 3780 3665 3683 3582 3719 3701 3796 3739 3543 3683 3732 3599 3674 3706 3666 3734 3705 3684 3578 3693 3705 3690 3579 3812 3695 3737 3617 3740 3609 3715 3727 3725 3587 3761 3708 3770 3659 3761 3641 3642 3657 3676 3755 3847 3607 3731 3671 3700 3709 3586 3590 3563 3629 3664 3630 3651 3692 3586 3717 3705 3632 3647 3625 3674 3662 3771 3695 3665 3632 3601 3574 3692 3636 3645 3592 3609 3655 3585 3694 3680 3569 3580 3501 3555 3595 3538 3507 3472 3593 3602 3495 3508 3566 3505 3533 3539 3596 3470 3548 3573 3464 3565 3590 3668 3522 3527 3682 3531 3559 3579 3517 3609 3600 3674 3517 3530 3684 3545 3405 3677 3477 3612 3614 3538 3409 3399 3520 3594 3434 3488 3365 3435 3515 3441 3590 3464 3504 3434 3509 3562 3515 3498 3473 3486 3513 3507 3565 3459 3564 3554 3606 3521 3528 3560 3472 3610 3538 3497 3593 3528 3523 3505 3509 3578 3590 3443 3609 3546 3496 3635 3524 3478 3612 3581 3527 3509 3628 3573 3542 3472 3497 3610 3621 3469 3532 3583 3676 3717 3603 3577 3551 3523 3636 3668 3587 3555 3715 3450 3693 3634 3615 3671 3601 3688 3742 3711 3614 3736 3746 3527 3690 3573 3661 3640 3642 3628 3676 3752 3782 3842 3676 3727 3724 3740 3845 3798 3735 3829 3734 3749 3782 3762 3829 3749 3892 3782 3716 3840 3830 3832 3805 3721 3798 3752 3722 3733 3822 3769 3762 3883 3830 3921 3848 3885 3874 3867 3873 3796 3917 3932 3905 3864 4009 3899 3783 3948 3947 3789 3862 3964 3982 3976 3973 3874 4045 3875 3987 3877 3967 4158 4056 4049 4126 4074 4060 4179 4285 4267 4143 4259 4189 4072 4403 4301 4363 4268 4490 4460 4611 4395 4341 4551 4646 4749 4728 4777 4711 4842 4893 4873 4978 4965 4945 5114 5233 5034 5284 5253 5210 5250 5082 5097 5188 5041 4962 4994 4795 4743 4741 4745 4608 4481 4442 4353 4307 4287 4215 4214 4188 4250 4208 4107 4168 4354 4167 4133 4227 4316 4213 4231 4302 4232 4211 4310 4331 4233 4297 4285 4267 4330 4431 4407 4391 4306 4508 4382 4293 4276 4256 4303 4181 4263 4167 4120 4084 3940 3950 3880 3861 3825 3628 3878 3702 3765 3489 3601 3694 3580 3753 3514 3530 3501 3508 3631 3606 3564 3536 3533 3508 3613 3504 3506 3506 3463 3585 3539 3397 3490 3634 3517 3487 3488 3501 3390 3428 3484 3412 3565 3551 3460 3490 3485 3421 3347 3568 3431 3442 3433 3433 3408 3509 3510 3446 3498 3460 3434 3340 3358 3465 3437 3344 3400 3337 3344 3459 3409 3477 3296 3385 3256 3424 3293 3315 3356 3392 3349 3423 3427 3456 3294 3312 3359 3334 3333 3279 3291 3343 3344 3375 3313 3260 3398 3303 3334 3382 3333 3318 3335 3232 3162 3316 3373 3383 3352 3290 3282 3296 3386 3391 3274 3385 3201 3171 3314 3340 3283 3233 3280 3254 3199 3160 3388 3268 3256 3287 3305 3421 3239 3218 3344 3283 3378 3230 3402 3276 3374 3283 3328 3287 3270 3334 3349 3312 3315 3393 3355 3333 3263 3339 3224 3370 3417 3359 3371 3300 3329 3271 3346 3327 3298 3349 3274 3292 3310 3251 3262 3319 3329 3337 3244 3286 3220 3143 3292 3268 3306 3179 3327 3134 3215 3260 3049 3316 3065 3140 3211 3317 3170 3218 3201 3098 3252 3221 3281 3167 3197 3276 3176 3178 3222 3143 3196 3211 3224 3138 3146 3231 3122 3244 3138 3239 3208 3252 3144 3132 3140 3275 3211 3164 3126 3148 3118 3045 3211 3204 3140 3252 3264 3299 3118 3169 3135 3201 3212 3095 3084 3098 3074 3110 3135 3185 3178 3159 3045 3060 3094 3224 3092 3221 3154 3194 3104 3263 3168 3113 3123 3175 3050 3113 3230 3118 3158 3222 3068 3121 3191 3154 3207 3200 3112 3149 3131 3142 3163 3223 3184 3125 2945 3182 3141 3126 3199 3129 3136 3113 3143 3129 3007 3194 3094 3123 3102 3086 3075 3149 3036 3019 3119 3133 3124 3005 3109 3098 3142 3133 3110 3182 3035 3047 3161 3012 3033 3047 3066 3031 3025 3086 3043 3020 3128 3127 3050 3066 3015 3003 3189 3059 3017 3203 3031 3069 3058 3044 3064 2991 2963 2993 3072 2913 3102 3031 3079 3020 2936 3050 3060 3025 2954 2965 3052 2972 3044 3120 3049 3013 3016 3015 2944 3064 2948 2899 2997 3046 2940 2955 2998 2886 3047 2999 3043 2909 2981 3077 3023 2915 3128 3039 3014 2983 2921 3024 2922 3027 2942 2871 2919 3018 2952 2998 2909 3007 2912 2889 2979 2999 2957 2856 2997 3003 2998 2995 2964 3050 2934 2906 2888 3058 2922 2999 2933 2876 3007 2996 2926 2902 2972 2950 3001 2898 2918 2915 2951 3015 2848 2957 2912 2911 2909 2970 2905 3016 3008 2956 2982 2957 2987 2892 2868 2941 2815 2879 3024 2931 2868 2866 2980 3005 2890 2939 2933 2865 2928 3005 2954 2942 2902 2966 2943 2921 2912 3010 2922 2834 2887 2978 3004 2904 2942 3073 2869 2939 2861 2911 2871 2878 3014 2805 2911 2979 2862 2831 2953 2844 2944 2935 2847 3013 2906 2885 2914 2957 2912 2931 2906 3025 2846 2908 2851 2931 2845 2964 3087 2904 2860 2914 2924 2907 2805 2802 2968 3046 3070 2819 2992 2934 2947 2954 2869 2938 2954 2922 2874 3006 2883 3002 2891 2937 2960 3035 2881 2976 2979 2989 2977 2949 2882 2871 2992 3018 2882 2989 2949 2896 2961 2983 2961 2973 2981 2932 2909 2940 2947 2944 3041 2910 2920 2845 2848 2728 2979 2905 2958 2912 2929 2958 3005 2869 2922 2865 2881 2936 2952 2873 2951 2854 2926 2984 2958 2918 2904 2957 2873 2867 2815 2916 2967 2943 2877 2873 2903 2851 2985 2940 2809 2779 2835 2890 2922 2910 2922 2840 2794 2894 2922 2925 2851 2788 2859 2831 2876 2824 2903 2870 2794 2801 2920 2923 2919 2847 2866 2879 2921 2845 2869 2920 2776 2813 2810 2763 2878 2800 2905 2761 2844 2854 2874 2816 2789 2945 2823 2774 2669 2815 2755 2795 2826 2806 2682 2678 2736 2669 2753 2768 2780 2679 2760 2778 2750 2713 2776 2739 2744 2610 2662 2686 2724 2625 2741 2675 2658 2598 2680 2734 2655 2736 2578 2672 2612 2637 2534 2785 2689 2620 2595 2641 2550 2637 2660 2643 2550 2573 2570 2561 2522 2540 2563 2612 2490 2547 2576 2570 2564 2567 2620 2548 2563 2489 2578 2514 2539 2622 2499 2469 2519 2418 2553 2433 2422 2605 2524 2560 2525 2510 2513 2504 2540 2567 2510 2405 2422 2380 2478 2500 2460 2478 2452 2433 2385 2437 2528 2480 2491 2471 2500 2537 2519 2408 2445 2496 2558 2416 2475 2379 2439 2449 2446 2413 2433 2445 2405 2396 2376 2461 2400 2352 2404 2366 2402 2341 2429 2402 2365 2369 2329 2419 2362 2429 2366 2406 2386 2397 2362 2385 2407 2438 2394 2311 2296 2367 2405 2381 2360 2411 2382 2353 2455 2440 2385 2422 2322 2444 2394 2383 2287 2402 2389 2440 2479 2425 2308 2460 2383 2390 2444 2396 2349 2428 2428 2420 2366 2411 2341 2347 2375 2399 2343 2289 2455 2380 2363 2308 2404 2432 2367 2353 2281 2348 2310 2380 2321 2286 2416 2322 2303 2281 2368 2304 2351 2366 2239 2276 2320 2286 2382 2195 2326 2276 2266 2281 2319 2319 2220 2332 2187 2317 2212 2374 2319 2335 2235 2387 2339 2350 2334 2235 2307 2299 2331 2350 2287 2364 2240 2246 2309 2277 2349 2342 2372 2287 2363 2335 2294 2331 2309 2409 2296 2323 2338 2377 2234 2328 2400 2339 2308 2272 2295 2387 2300 2229 2239 2321 2285 2323 2402 2286 2318 2402 2381 2245 2336 2352 2229 2357 2311 2399 2271 2344 2234 2294 2328 2322 2320 2409 2379 2313 2332 2228 2315 2322 2449 2327 2327 2322 2397 2283 2319 2356 2302 2293 2334 2358 2412 2279 2221 2347 2327 2305 2350 2328 2242 2309 2350 2335 2334 2401 2254 2413 2325 2311 2442 2302 2263 2253 2306 2306 2362 2257 2236 2352 2256 2252 2353 2253 2225 2318 2348 2321 2382 2253 2315 2264 2273 2275 2268 2340 2323 2245 2305 2309 2289 2264 2362 2237 2232 2304 2248 2259 2155 2309 2288 2262 2224 2216 2274 2290 2208 2355 2291 2266 2236 2244 2262 2181 2287 2183 2189 2278 2226 2308 2290 2326 2243 2245 2244 2234 2276 2319 2207 2286 2268 2212 2266 2270 2241 2141 2174 2190 2270 2239 2212 2195 2200 2119 2147 2260 2242 2141 2180 2228 2188 2147 2178 2153 2139 2151 2183 2131 2078 2079 2071 2170 2109 2088 2146 2162 2075 2086 2072 2286 2093 2139 2072 2105 2101 2125 2129 2106 2142 2137 2015 2122 2142 2138 2010 2020 2118 2092 2072 2098 2117 2142 1989 2048 2088 2092 2016 2073 2037 2094 2128 2070 2060 2041 2048 1970 2115 2105 2065 2038 2044 2153 2017 2065 2046 2013 1984 2034 2067 2052 2074 1944 2080 2035 2056 1991 1978 2015 1962 2009 2019 1959 2004 1921 2006 1964 1987 1955 2011 1947 1982 1934 1956 2018 2018 2018 2052 2019 2017 1996 2002 2026 2008 2088 2059 1964 2049 2088 2083 2121 2087 2060 2103 2163 2021 2094 2196 2074 2126 2161 2152 2125 2167 2188 2269 2249 2245 2390 2388 2322 2485 2413 2394 2424 2462 2489 2525 2477 2477 2525 2541 2526 2437 2522 2585 2411 2428 2487 2404 2459 2395 2397 2311 2315 2360 2191 2275 2158 2242 2182 2164 2111 2197 2079 2080 2036 2140 2056 2039 2099 1957 1950 2050 2000 1995 1968 1932 1985 1969 2044 2006 1954 1979 1855 1899 1965 1921 2006 1915 1956 1939 1972 1933 1916 1911 1870 1894 1894 1979 1839 1931 1863 1861 1905 1946 1965 1894 1950 1953 1861 1885 1921 1963 1908 1884 1932 1956 1885 1897 1977 1955 1997 1975 2132 1983 1955 2117 1933 2126 2033 2120 2163 2123 2147 2138 2238 2229 2312 2188 2296 2317 2337 2304 2423 2550 2463 2574 2609 2701 2774 2711 2971 2961 3075 3046 3129 3237 3194 3283 3403 3262 3292 3376 3296 3268 3210 3329 3295 3197 3179 3198 3034 3157 3068 3188 3147 3222 3080 3008 3075 2928 2940 2800 2840 2766 2697 2717 2572 2495 2493 2451 2353 2336 2339 2161 2208 2098 2122 2240 2083 2099 2088 2050 2006 2016 1915 2042 1960 1971 1959 1902 1942 1873 1916 1892 1836 1870 1840 1847 1863 1762 1805 1776 1756 1793 1762 1738 1773 1748 1770 1750 1754 1766 1728 1776 1726 1783 1718 1719 1727 1773 1774 1787 1735 1656 1775 1719 1682 1742 1785 1685 1800 1706 1774 1770 1765 1788 1737 1749 1677 1801 1710 1679 1664 1792 1746 1765 1784 1707 1735 1747 1739 1742 1711 1775 1779 1769 1709 1730 1755 1760 1764 1696 1800 1718 1659 1659 1731 1703 1785 1744 1697 1710 1714 1733 1669 1730 1760 1710 1673 1718 1786 1709 1786 1654 1717 1768 1702 1731 1669 1673 1742 1627 1637 1710 1663 1655 1702 1743 1629 1731 1709 1709 1686 1668 1699 1688 1631 1715 1678 1713 1676 1699 1637 1695 1749 1740 1620 1751 1759 1676 1702 1717 1708 1641 1707 1647 1662 1738 1772 1676 1729 1738 1713 1642 1707 1684 1612 1672 1672 1612 1695 1632 1695 1688 1695 1689 1697 1720 1674 1589 1639 1681 1623 1659 1714 1635 1660 1678 1644 1674 1581 1691 1571 1637 1663 1669 1776 1703 1757 1669 1711 1661 1612 1658 1724 1641 1655 1622 1663 1681 1699 1652 1609 1640 1768 1666 1617 1635 1686 1642 1702 1653 1665 1707 1675 1665 1611 1691 1718 1673 1715 1643 1594 1664 1681 1716 1664 1636 1568 1729 1718 1661 1635 1677 1675 1665 1781 1715 1671 1601 1651 1722 1672 1826 1724 1727 1698 1662 1662 1717 1617 1758 1727 1735 1671 1706 1700 1611 1657 1664 1720 1739 1724 1706 1622 1688 1677 1650 1620 1665 1663 1660 1636 1660 1706 1682 1676 1734 1625 1708 1661 1699 1658 1680 1736 1667 1692 1647 1627 1645 1719 1646 1793 1693 1677 1693 1641 1743 1681 1760 1728 1714 1671 1819 1740 1728 1704 1627 1647 1717 1702 1692 1699 1745 1685 1714 1703 1658 1660 1731 1738 1686 1735 1695 1692 1710 1690 1729 1730 1691 1661 1736 1730 1708 1677 1693 1638 1705 1766 1736 1847 1767 1671 1624 1777 1700 1744 1821 1808 1783 1751 1892 1883 1868 1858 1867 2011 1910 1997 2055 2029 2149 2263 2369 2333 2448 2465 2631 2720 2723 2780 2817 2920 2930 3163 3122 3336 3350 3477 3522 3526 3733 3807 4026 3988 4290 4345 4612 4736 4834 5013 5157 5207 5307 5458 5567 5520 5742 5744 5715 5761 5540 5455 5135 5198 4979 4671 4834 4468 4379 4408 4137 3972 4017 3818 3694 3634 3441 3468 3281 3238 3105 3146 3095 2921 2840 2692 2626 2639 2553 2549 2349 2259 2270 2261 2132 2118 2013 2004 2060 1945 1904 1907 1958 1863 1854 1849 1811 1886 1892 1841 1842 1816 1889 1822 1858 1885 1911 1787 1844 1841 1897 1820 1793 1752 1840 1863 1771 1856 1788 1771 1767 1815 1751 1766 1776 1718 1859 1721 1747 1772 1795 1792 1754 1755 1756 1802 1751 1735 1681 1795 1686 1694 1755 1705 1709 1707 1724 1712 1740 1673 1736 1644 1699 1676 1615 1695 1717 1693 1721 1669 1685 1659 1721 1721 1677 1606 1699 1793 1724 1637 1710 1718 1684 1709 1714 1668 1728 1737 1715 1669 1798 1713 1595 1753 1779 1711 1749 1758 1680 1776 1708 1747 1834 1748 1810 1807 1767 1833 1862 1833 1954 1867 1849 1828 1819 1874 1846 1766 1849 1771 1788 1746 1804 1737 1791 1781 1768 1840 1703 1711 1673 1662 1615 1614 1715 1615 1709 1762 1556 1575 1645 1680 1612 1683 1539 1605 1652 1624 1633 1651 1669 1670 1590 1637 1643 1615 1645 1626 1558 1610 1677 1688 1623 1565 1579 1582 1604 1605 1665 1552 1606 1622 1613 1668 1603 1584 1663 1619 1628 1611 1668 1586 1625 1558 1552 1646 1569 1613 1607 1620 1715 1594 1576 1583 1605 1577 1603 1660 1615 1556 1595 1610 1643 1534 1596 1579 1639 1604 1545 1639 1594 1534 1554 1595 1605 1625 1619 1614 1604 1609 1530 1615 1688 1547 1560 1569 1626 1633 1614 1577 1621 1620 1538 1633 1582 1673 1596 1658 1641 1681 1607 1764 1653 1653 1665 1616 1650 1709 1655 1679 1679 1671 1696 1665 1765 1665 1685 1629 1617 1716 1648 1600 1612 1690 1732 1573 1645 1668 1629 1679 1686 1660 1654 1685 1641 1527 1598 1631 1627 1555 1679 1609 1595 1627 1658 1723 1639 1715 1573 1664 1640 1554 1578 1618 1581 1590 1586 1545 1594 1654 1569 1574 1614 1553 1597 1627 1607 1560 1538 1598 1521 1616 1611 1576 1576 1553 1668 1538 1599 1541 1601 1638 1529 1663 1612 1587 1694 1574 1621 1658 1608 1589 1542 1659 1532 1595 1622 1604 1575 1610 1628 1609 1578 1599 1604 1662 1681 1644 1580 1611 1558 1574 1690 1680 1615 1617 1654 1596 1571 1588 1631 1633 1630 1527 1654 1590 1641 1601 1658 1677 1613 1616 1621 1575 1595 1673 1577 1600 1594 1593 1639 1635 1524 1619 1589 1502 1595 1609 1514 1577 1618 1606 1562 1547 1541 1595 1618 1502 1551 1570 1599 1648 1636 1582 1550 1536 1573 1597 1604 1508 1731 1648 1606 1657 1660 1534 1659 1585 1632 1577 1511 1578 1618 1541 1639 1558 1553 1563 1593 1614 1573 1566 1623 1545 1525 1593 1541 1564 1566 1541 1506 1574 1542 1516 1535 1517 1617 1490 1646 1540 1493 1533 1589 1565 1599 1577 1498 1530 1516 1592 1535 1571 1583 1496 1665 1516 1555 1526 1598 1568 1594 1548 1540 1562 1608 1547 1521 1555 1580 1515 1575 1616 1564 1560 1574 1495 1536 1492 1562 1572 1504 1542 1529 1637 1581 1608 1533 1585 1574 1559 1596 1615 1515 1577 1571 1545 1530 1539 1505 1469 1515 1508 1532 1557 1482 1509 1492 1537 1570 1568 1518 1542 1576 1547 1598 1557 1605 1563 1570 1535 1560 1568 1546 1610 1592 1576 1524 1602 1571 1599 1566 1520 1513 1563 1492 1555 1562 1610 1576 1544 1562 1580 1552 1606 1567 1498 1534 1591 1618 1534 1519 1516 1570 1528 1487 1620 1584 1536 1556 1470 1569 1560 1518 1485 1492 1568 1567 1569 1574 1563 1546 1509 1524 1516 1546 1508 1579 1575 1512 1553 1576 1529 1491 1536 1515 1580 1502 1553 1588 1625 1489 1537 1554 1538 1511 1579 1609 1568 1567 1521 1541 1479 1502 1597 1604 1518 1584 1584 1470 1526 1480 1535 1565 1553 1585 1600 1551 1512 1503 1521 1592 1518 1545 1629 1535 1618 1626 1608 1587 1578 1604 1547 1537 1536 1536 1540 1570 1609 1599 1479 1529 1493 1514 1544 1559 1551 1547 1619 1626 1641 1673 1623 1514 1631 1536 1514 1541 1579 1617 1570 1575 1582 1613 1589 1572 1572 1572 1646 1592 1634 1541 1562 1583 1516 1663 1596 1548 1599 1575 1614 1524 1519 1519 1547 1496 1518 1583 1545 1560 1523 1547 1562 1499 1553 1539 1550 1618 1620 1529 1551 1573 1502 1633 1616 1549 1592 1568 1589 1605 1661 1616 1640 1608 1588 1624 1643 1622 1630 1601 1573 1653 1534 1601 1629 1572 1543 1564 1541 1558 1671 1545 1633 1538 1582 1509 1556 1585 1573 1596 1530 1626 1483 1556 1546 1592 1589 1576 1534 1552 1479 1550 1556 1508 1532 1549 1584 1508 1557 1485 1532 1548 1513 1590 1488 1516 1527 1552 1498 1606 1555 1566 1593 1589 1515 1604 1668 1457 1558 1598 1538 1584 1572 1532 1500 1572 1545 1570 1567 1533 1558 1525 1534 1534 1578 1629 1548 1557 1597 1513 1524 1504 1529 1507 1506 1589 1573 1649 1533 1507 1559 1559 1502 1478 1537 1630 1601 1573 1601 1521 1535 1521 1662 1533 1521 1586 1467 1574 1572 1642 1569 1591 1630 1550 1602 1633 1714 1691 1592 1715 1684 1621 1616 1628 1705 1572 1600 1609 1643 1631 1617 1594 1627 1543 1634 1638 1519 1596 1598 1583 1549 1586 1601 1618 1614 1612 1476 1606 1577 1560 1587 1581 1540 1519 1601 1461 1550 1595 1510 1496 1615 1550 1530 1603 1578 1555 1558 1508 1567 1533 1639 1578 1600 1507 1571 1528 1480 1630 1500 1561 1516 1592 1512 1632 1588 1608 1568 1611 1646 1656 1619 1635 1596 1709 1721 1688 1765 1693 1697 1673 1723 1740 1653 1739 1760 1762 1809 1827 1809 1834 1899 1843 1858 1921 1908 1912 1969 1979 1962 1990 1975 1897 1924 2003 1978 1965 1925 1971 1918 1914 1919 1893 1988 1824 1821 1887 1830 1824 1727 1924 1836 1766 1771 1803 1755 1853 1795 1759 1728 1767 1786 1724 1689 1714 1647 1624 1744 1724 1595 1671 1722 1640 1646 1660 1619 1608 1588 1634 1575 1525 1566 1551 1528 1638 1628 1534 1576 1525 1651 1579 1602 1571 1496 1651 1581 1525 1519 1554 1526 1472 1570 1579 1601 1564 1549 1517 1583 1542 1584 1580 1547 1553 1521 1627 1515 1509 1469 1502 1548 1595 1574 1555 1555 1591 1567 1545 1506 1618 1588 1554 1442 1559 1486 1582 1554 1559 1554 1557 1583 1536 1614 1565 1508 1603 1540 1521 1606 1631 1513 1591 1563 1540 1558 1557 1548 1557 1524 1577 1597 1516 1510 1526 1594 1479 1563 1540 1546 1539 1558 1562 1524 1545 1520 1568 1527 1570 1589 1571 1561 1520 1567 1499 1540 1610 1501 1591 1541 1552 1584 1551 1532 1575 1543 1572 1597 1676 1502 1507 1690 1519 1607 1497 1572 1594 1545 1539 1545 1522 1545 1547 1498 1507 1476 1570 1628 1532 1504 1572 1621 1567 1580 1548 1522 1598 1599 1574 1565 1587 1607 1531 1585 1628 1533 1583 1538 1684 1483 1600 1543 1583 1570 1564 1590 1636 1576 1539 1562 1566 1597 1572 1577 1554 1616 1526 1507 1622 1600 1554 1543 1545 1484 1579 1630 1596 1611 1621 1655 1637 1596 1571 1561 1605 1650 1554 1586 1577 1573 1580 1627 1532 1580 1552 1567 1597 1515 1573 1633 1639 1509 1627 1553 1573 1576 1513 1520 1552 1519 1575 1569 1583 1630 1553 1580 1575 1552 1576 1564 1547 1554 1513 1643 1559 1546 1509 1541 1713 1569 1602 1594 1535 1657 1610 1543 1546 1617 1526 1544 1514 1588 1673 1569 1537 1586 1596 1593 1571 1631 1603 1580 1622 1555 1578 1526 1558 1577 1603 1598 1600 1602 1570 1609 1527 1600 1557 1507 1568 1549 1557 1524 1537 1587 1644 1564 1704 1575 1580 1538 1627 1558 1573 1645 1485 1635 1580 1561 1663 1644 1570 1597 1615 1660 1616 1584 1602 1674 1714 1669 1731 1678 1738 1713 1817 1761 1900 1776 1917 1909 1959 2086 2069 2222 2119 2135 2259 2438 2448 2494 2488 2640 2692 2633 2853 2862 3008 3042 3054 3192 3384 3302 3367 3367 3320 3521 3464 3425 3458 3542 3551 3353 3474 3461 3368 3362 3368 3259 3221 3184 3009 2969 2961 2889 2975 2842 2863 2696 2809 2734 2683 2669 2628 2722 2626 2561 2603 2538 2598 2540 2489 2559 2517 2439 2497 2362 2370 2342 2286 2235 2272 2244 2218 2170 2066 1971 2074 2067 1925 1901 1840 1765 1841 1786 1803 1821 1779 1780 1804 1737 1758 1733 1646 1771 1824 1618 1720 1786 1727 1733 1673 1665 1708 1665 1702 1697 1702 1677 1685 1708 1752 1680 1698 1701 1753 1755 1768 1732 1664 1730 1723 1653 1657 1635 1636 1686 1745 1674 1639 1661 1739 1639 1617 1568 1698 1604 1618 1650 1516 1529 1617 1558 1570 1623 1550 1570 1606 1628 1563 1591 1603 1625 1589 1577 1565 1571 1563 1576 1559 1520 1599 1628 1592 1627 1514 1524 1560 1603 1585 1570 1508 1595 1539 1594 1537 1565 1551 1630 1587 1593 1517 1512 1602 1532 1574 1713 1594 1579 1578 1569 1559 1562 1618 1576 1663 1556 1545 1502 1561 1566 1550 1543 1503 1625 1595 1602 1573 1585 1635 1608 1612 1573 1592 1576 1618 1582 1660 1661 1593 1670 1630 1644 1656 1601 1702 1623 1656 1664 1653 1664 1672 1700 1697 1652 1662 1712 1746 1754 1741 1832 1785 1818 1758 1820 1826 1875 1869 1839 1858 1798 1778 1807 1789 1795 1786 1901 1822 1859 1873 1890 1871 1792 1732 1807 1760 1798 1757 1703 1749 1811 1740 1728 1766 1740 1676 1686 1737 1734 1700 1744 1663 1677 1739 1751 1743 1789 1716 1741 1710 1727 1731 1746 1819 1699 1709 1786 1781 1761 1768 1668 1696 1669 1663 1642 1630 1686 1673 1739 1661 1557 1619 1642 1632 1565 1554 1601 1572 1552 1584 1576 1558 1603 1648 1627 1527 1615 1620 1566 1591 1516 1605 1638 1669 1619 1638 1615 1600 1612 1595 1629 1494 1548 1590 1630 1668 1566 1581 1608 1580 1682 1624 1625 1617 1684 1593 1628 1561 1628 1600 1598 1651 1600 1600 1700 1590 1658 1570 1598 1554 1590 1608 1598 1622 1569 1537 1599 1596 1522 1600 1615 1587 1619 1520 1594 1508 1621 1569 1567 1610 1532 1564 1426 1547 1555 1505 1553 1528 1507 1652 1538 1549 1496 1582 1561 1515 1519 1538 1496 1590 1428 1595 1509 1553 1542 1499 1500 1513 1563 1516 1644 1535 1625 1513 1648 1604 1546 1510 1607 1517 1600 1511 1527 1604 1546 1497 1581 1589 1574 1503 1576 1533 1533 1541 1551 1547 1516 1618 1532 1642 1606 1562 1509 1509 1514 1590 1510 1526 1609 1580 1548 1564 1617 1489 1567 1625 1529 1578 1549 1574 1522 1592 1642 1512 1496 1554 1529 1525 1559 1507 1541 1620 1466 1567 1531 1590 1554 1675 1532 1572 1541 1567 1634 1515 1510 1598 1581 1549 1510 1538 1503 1552 1593 1572 1536 1518 1581 1566 1564 1568 1566 1499 1534 1561 1517 1607 1593 1626 1527 1537 1542 1608 1496 1564 1499 1647 1530 1634 1562 1547 1579 1537 1581 1646 1538 1527 1548 1686 1518 1583 1519 1551 1559 1585 1614 1453 1559 1460 1568 1613 1491 1553 1523 1536 1523 1540 1489 1571 1518 1450 1546 1551 1537 1487 1512 1586 1539 1462 1530 1496 1576 1510 1507 1513 1553 1516 1549 1492 1583 1523 1528 1528 1556 1563 1517 1500 1545 1535 1540 1459 1554 1489 1545 1490 1558 1535 1504 1523 1550 1575 1495 1526 1471 1490 1591 1533 1543 1505 1468 1520 1482 1492 1571 1506 1517 1584 1559 1501 1561 1518 1521 1493 1542 1614 1608 1536 1514 1459 1538 1510 1580 1490 1539 1590 1523 1587 1516 1590 1573 1502 1659 1465 1559 1568 1544 1529 1502 1521 1545 1590 1515 1600 1549 1588 1581 1625 1543 1544 1549 1544 1530 1559 1538 1559 1566 1490 1676 1563 1549 1534 1522 1639 1542 1590 1580 1655 1597 1542 1484 1637 1541 1498 1519 1512 1580 1508 1627 1542 1535 1629 1440 1508 1602 1515 1533 1558 1580 1499 1530 1518 1532 1565 1545 1544 1508 1582 1538 1596 1536 1568 1523 1538 1529 1612 1546 1568 1541 1557 1551 1490 1576 1543 1460 1572 1494 1526 1583 1488 1597 1587 1520 1489 1479 1547 1527 1611 1559 1530 1536 1491 1563 1496 1524 1477 1516 1499 1502 1612 1515 1460 1507 1564 1541 1501 1459 1609 1488 1525 1540 1507 1517 1583 1546 1528 1595 1540 1521 1552 1605 1608 1595 1630 1571 1497 1543 1499 1548 1641 1599 1594 1542 1543 1562 1568 1511 1595 1469 1598 1556 1561 1532 1604 1582 1518 1522 1544 1526 1516 1534 1568 1578 1527 1606 1596 1583 1553 1546 1581 1565 1574 1621 1587 1582 1578 1538 1668 1556 1564 1537 1575 1523 1520 1588 1650 1624 1601 1559 1613 1595 1513 1548 1584 1578 1569 1533 1627 1632 1501 1510 1612 1594 1544 1594 1522 1568 1500 1552 1602 1529 1621 1564 1547 1551 1544 1587 1622 1581 1579 1562 1644 1573 1690 1664 1666 1692 1688 1656 1622 1583 1613 1623 1688 1742 1667 1701 1682 1752 1675 1785 1760 1681 1691 1677 1762 1780 1794 1724 1743 1669 1714 1731 1746 1768 1782 1733 1742 1763 1761 1735 1661 1712 1665 1756 1689 1716 1680 1751 1724 1740 1697 1657 1741 1693 1648 1776 1732 1793 1669 1709 1725 1783 1779 1765 1856 1869 1818 1877 1770 1803 1746 1836 1807 1799 1790 1786 1761 1764 1785 1768 1747 1722 1719 1705 1706 1726 1715 1637 1700 1679 1651 1649 1653 1605 1640 1553 1543 1615 1559 1513 1557 1530 1521 1563 1560 1613 1492 1477 1578 1546 1536 1570 1651 1567 1581 1552 1543 1566 1516 1565 1473 1616 1541 1555 1548 1590 1498 1560 1544 1579 1522 1622 1545 1469 1522 1497 1501 1501 1574 1528 1487 1472 1515 1529 1550 1507 1545 1512 1490 1505 1496 1506 1564 1535 1602 1515 1508 1538 1537 1576 1539 1535 1498 1560 1478 1479 1532 1517 1484 1598 1537 1546 1552 1632 1654 1534 1632 1560 1559 1515 1596 1514 1637 1525 1517 1570 1531 1555 1499 1510 1527 1465 1561 1494 1527 1499 1574 1530 1581 1505 1522 1593 1499 1527 1593 1512 1591 1542 1556 1558 1627 1596 1557 1619 1518 1541 1567 1494 1514 1506 1512 1486 1452 1514 1508 1544 1494 1504 1533 1480 1601 1543 1499 1529 1487 1474 1496 1645 1631 1536 1530 1532 1512 1587 1568 1618 1477 1523 1551 1548 1556 1470 1523 1525 1596 1523 1550 1617 1567 1514 1589 1489 1578 1580 1551 1598 1635 1609 1673 1653 1654 1777 1707 1699 1801 1644 1885 1738 1839 1827 1834 1866 1840 1892 1920 1917 1933 1894 2044 1982 2028 1995 2009 2035 2110 2091 2027 2029 2059 2028 2076 1972 1914 1982 1964 1931 1954 1866 1911 1836 1911 1948 1920 1801 1842 1843 1823 1811 1794 1801 1756 1836 1745 1819 1847 1757 1810 1739 1756 1743 1850 1719 1815 1780 1788 1801 1908 1876 1886 1867 1883 1911 1959 1803 1874 1790 1810 1812 1788 1758 1813 1702 1783 1702 1794 1700 1694 1743 1715 1706 1704 1720 1640 1627 1587 1649 1604 1662 1560 1598 1545 1614 1555 1634 1634 1576 1527 1658 1597 1632 1524 1558 1571 1569 1573 1544 1572 1585 1532 1540 1572 1623 1631 1537 1552 1522 1560 1527 1587 1552 1551 1524 1513 1566 1489 1599 1572 1507 1550 1505 1586 1577 1609 1521 1542 1544 1582 1593 1576 1524 1605 1489 1576 1513 1443 1597 1469 1540 1551 1553 1492 1502 1634 1558 1525 1538 1609 1552 1531 1465 1554 1611 1547 1583 1549 1572 1574 1528 1631 1527 1521 1598 1463 1530 1589 1617 1540 1530 1610 1519 1590 1568 1626 1629 1482 1563 1511 1621 1568 1584 1644 1629 1622 1626 1629 1686 1572 1713 1645 1711 1633 1641 1644 1747 1688 1632 1644 1700 1751 1676 1646 1653 1656 1638 1729 1669 1738 1748 1669 1580 1641 1611 1660 1644 1734 1554 1632 1671 1682 1642 1715 1630 1550 1671 1605 1616 1696 1686 1584 1638 1611 1672 1630 1634 1633 1633 1568 1613 1640 1654 1573 1625 1618 1623 1625 1678 1610 1636 1573 1586 1626 1586 1582 1659 1599 1611 1626 1567 1648 1586 1528 1555 1544 1579 1491 1587 1531 1530 1558 1521 1589 1594 1574 1507 1602 1479 1558 1548 1535 1633 1591 1582 1565 1571 1502 1568 1616 1565 1492 1562 1550 1581 1506 1631 1552 1558 1555 1515 1549 1602 1592 1573 1545 1632 1552 1570 1621 1538 1516 1541 1539 1529 1554 1527 1545 1538 1574 1548 1544 1624 1600 1514 1512 1488 1511 1592 1549 1570 1582 1531 1600 1599 1521 1567 1449 1545 1518 1587 1514 1493 1564 1510 1584 1575 1583 1618 1508 1487 1601 1633 1551 1581 1576 1468 1552 1519 1545 1506 1526 1517 1521 1600 1468 1497 1511 1551 1530 1617 1528 1563 1575 1591 1497 1491 1548 1481 1594 1413 1546 1505 1609 1591 1515 1629 1591 1463 1468 1440 1473 1552 1518 1583 1530 1554 1517 1495 1540 1544 1551 1597 1525 1545 1619 1514 1528 1513 1535 1554 1460 1470 1577 1533 1551 1513 1527 1595 1522 1540 1557 1523 1522 1520 1499 1543 1536 1502 1572 1573 1535 1484 1570 1538 1555 1524 1466 1522 1451 1513 1524 1512 1604 1599 1518 1590 1491 1553 1550 1575 1540 1539 1467 1558 1491 1510 1552 1577 1572 1572 1627 1538 1536 1563 1528 1627 1507 1526 1586 1582 1550 1568 1440 1457 1495 1567 1487 1466 1487 1564 1466 1541 1613 1528 1522 1505 1564 1623 1486 1544 1480 1532 1509 1453 1522 1569 1551 1530 1499 1534 1552 1498 1575 1519 1475 1573 1579 1615 1535 1496 1603 1529 1514 1518 1569 1542 1489 1566 1565 1489 1472 1509 1494 1495 1540 1485 1479 1563 1516 1573 1463 1552 1551 1524 1520 1624 1548 1482 1517 1529 1517 1603 1513 1493 1517 1513 1557 1571 1541 1603 1482 1531 1486 1497 1499 1526 1512 1488 1524 1517 1536 1584 1600 1479 1511 1570 1497 1562 1488 1522 1608 1510 1518 1518 1563 1579 1506 1503 1495 1447 1538 1523 1564 1525 1528 1497 1553 1454 1574 1504 1580 1506 1473 1504 1519 1563 1515 1513 1544 1593 1539 1497 1581 1502 1473 1544 1461 1510 1447 1512 1515 1527 1493 1526 1620 1458 1504 1523 1490 1479 1556 1527 1563 1515 1496 1548 1523 1550 1603 1540 1536 1540 1526 1514 1540 1586 1571 1464 1477 1499 1528 1482 1558 1538 1517 1469 1494 1489 1550 1518 1537 1546 1457 1542 1547 1575 1523 1499 1521 1557 1532 1533 1462 1513 1510 1410 1507 1480 1566 1539 1549 1538 1571 1502 1589 1599 1526 1544 1552 1494 1547 1573 1506 1561 1584 1511 1550 1563 1588 1593 1593 1623 1589 1548 1612 1552 1582 1535 1619 1602 1570 1591 1577 1598 1628 1613 1563 1597 1628 1618 1584 1615 1595 1555 1620 1576 1636 1577 1592 1629 1630 1577 1572 1550 1658 1665 1545 1505 1540 1546 1533 1545 1601 1586 1618 1546 1554 1582 1554 1579 1550 1579 1530 1618 1529 1543 1569 1518 1537 1577 1568 1620 1511 1614 1603 1618 1551 1521 1545 1578 1586 1579 1552 1616 1564 1556 1615 1509 1587 1459 1469 1603 1577 1552 1568 1557 1605 1510 1545 1613 1557 1523 1483 1543 1629 1512 1533 1517 1519 1542 1526 1557 1586 1547 1559 1527 1526 1528 1538 1455 1561 1496 1585 1501 1443 1463 1521 1531 1567 1523 1495 1500 1552 1555 1527 1521 1401 1551 1569 1548 1544 1542 1589 1580 1554 1552 1549 1601 1565 1540 1515 1591 1538 1572 1565 1484 1581 1529 1567 1548 1506 1494 1512 1528 1583 1510 1541 1569 1507 1532 1570 1570 1502 1491 1589 1566 1609 1549 1611 1594 1548 1553 1546 1541 1542 1531 1564 1536 1574 1581 1574 1508 1511 1521 1566 1536 1484 1531 1448 1612 1538 1569 1482 1546 1545 1536 1544 1504 1556 1536 1525 1570 1544 1611 1566 1572 1538 1528 1585 1450 1578 1537 1573 1517 1513 1499 1447 1533 1510 1559 1561 1541 1529 1535 1520 1605 1536 1597 1489 1526 1591 1539 1541 1539 1510 1517 1528 1548 1538 1539 1510 1458 1503 1470 1566 1582 1504 1474 1512 1488 1542 1569 1528 1585 1505 1476 1528 1508 1507 1570 1457 1542 1488 1577 1595 1581 1533 1568 1506 1513 1575 1526 1523 1497 1495 1522 1609 1572 1515 1503 1500 1523 1519 1531 1531 1602 1532 1545 1553 1573 1571 1598 1552 1588 1572 1617 1610 1532 1641 1571 1626 1586 1573 1585 1590 1657 1559 1621 1698 1648 1630 1658 1640 1717 1765 1688 1724 1680 1726 1672 1683 1723 1790 1683 1696 1737 1672 1658 1735 1737 1690 1694 1681 1741 1771 1669 1666 1734 1669 1622 1624 1623 1719 1651 1641 1701 1679 1626 1614 1705 1639 1653 1645 1584 1678 1580 1555 1621 1629 1682 1681 1643 1651 1618 1651 1664 1559 1561 1628 1577 1614 1647 1656 1613 1582 1696 1577 1653 1631 1697 1645 1675 1641 1623 1591 1644 1669 1560 1685 1609 1629 1659 1550 1649 1650 1580 1569 1631 1600 1661 1604 1568 1572 1561 1582 1579 1573 1548 1583 1553 1591 1596 1597 1573 1571 1551 1658 1570 1531 1572 1589 1555 1580 1535 1536 1538 1504 1564 1586 1507 1589 1560 1561 1573 1527 1552 1536 1526 1520 1554 1537 1596 1583 1639 1540 1526 1552 1534 1551 1544 1508 1550 1545 1553 1521 1501 1580 1520 1578 1520 1551 1610 1593 1602 1538 1535 1471 1498 1570 1573 1648 1558 1493 1459 1568 1551 1520 1511 1488 1600 1547 1530 1505 1552 1570 1467 1596 1520 1486 1562 1546 1539 1595 1459 1486 1538 1495 1556 1655 1567 1555 1464 1481 1540 1554 1550 1561 1546 1570 1581 1607 1521 1513 1522 1544 1587 1516 1590 1561 1587 1572 1580 1473 1492 1477 1557 1507 1529 1507 1567 1604 1546 1542 1477 1557 1504 1523 1603 1474 1522 1492 1582 1590 1466 1560 1535 1509 1508 1514 1589 1617 1604 1533 1499 1510 1568 1478 1594 1483 1589 1577 1569 1551 1574 1556 1535 1510 1522 1519 1543 1591 1451 1570 1537 1571 1586 1565 1512 1576 1584 1487 1624 1563 1578 1558 1582 1519 1591 1548 1491 1556 1601 1487 1546 1564 1566 1625 1551 1537 1506 1593 1508 1555 1556 1522 1560 1576 1603 1578 1625 1550 1599 1546 1552 1547 1486 1551 1565 1541 1584 1548 1602 1550 1513 1555 1574 1564 1525 1521 1607 1452 1532 1579 1575 1571 1514 1513 1531 1484 1521 1520 1515 1567 1465 1552 1523 1549 1542 1560 1491 1563 1489 1595 1576 1591 1480 1511 1493 1589 1547 1612 1589 1562 1536 1640 1607 1517 1568 1545 1488 1540 1534 1510 1520 1643 1540 1568 1573 1450 1521 1494 1524 1594 1576 1565 1564 1573 1492 1539 1563 1532 1575 1548 1539 1484 1636 1462 1602 1503 1537 1543 1551 1563 1522 1494 1556 1556 1507 1474 1552 1566 1579 1534 1557 1548 1490 1579 1569 1529 1504 1503 1545 1560 1582 1474 1570 1580 1471 1510 1634 1555 1554 1490 1510 1566 1567 1544 1461 1581 1570 1574 1543 1528 1598 1583 1538 1555 1504 1549 1555 1468 1520 1528 1545 1547 1514 1497 1553 1520 1534 1501 1601 1620 1528 1500 1576 1513 1574 1544 1552 1525 1557 1594 1608 1578 1521 1518 1604 1486 1545 1591 1564 1449 1521 1576 1494 1544 1602 1543 1494 1542 1562 1534 1513 1530 1626 1535 1549 1476 1513 1567 1523 1550 1616 1581 1521 1554 1548 1604 1556 1455 1573 1565 1572 1533 1565 1670 1495 1575 1538 1561 1605 1621 1502 1530 1504 1545 1627 1530 1580 1520 1504 1540 1537 1536 1554 1576 1540 1534 1550 1556 1562 1509 1519 1500 1598 1507 1580 1544 1561 1517 1492 1489 1549 1473 1494 1550 1529 1497 1578 1558 1497 1607 1573 1476 1555 1502 1586 1607 1538 1545 1523 1536 1500 1518 1577 1499 1584 1513 1564 1606 1566 1474 1534 1573 1492 1580 1615 1563 1606 1506 1582 1556 1553 1635 1604 1583 1614 1565 1543 1552 1570 1554 1533 1577 1473 1539 1569 1514 1562 1575 1596 1653 1534 1648 1482 1563 1615 1591 1538 1540 1621 1497 1545 1553 1583 1598 1529 1555 1535 1545 1476 1551 1624 1585 1580 1534 1566 1604 1526 1532 1579 1520 1510 1602 1546 1560 1559 1619 1514 1670 1552 1644 1586 1601 1490 1615 1613 1582 1589 1591 1671 1581 1558 1562 1589 1533 1597 1621 1621 1515 1589 1589 1620 1687 1548 1631 1560 1603 1658 1569 1610 1633 1598 1624 1583 1588 1623 1580 1596 1614 1652 1666 1567 1596 1698 1592 1608 1569 1556 1621 1636 1661 1633 1652 1594 1541 1626 1592 1638 1605 1547 1580 1630 1548 1575 1584 1649 1640 1531 1647 1556 1670 1612 1600 1582 1650 1632 1619 1639 1599 1606 1627 1633 1574 1596 1647 1682 1591 1624 1598 1614 1617 1668 1680 1633 1631 1619 1598 1676 1649 1615 1617 1636 1593 1622 1595 1619 1635 1628 1601 1569 1579 1591 1568 1598 1539 1556 1569 1602 1608 1574 1609 1517 1555 1630 1591 1564 1626 1583 1559 1558 1530 1549 1612 1623 1622 1553 1606 1657 1597 1614 1730 1595 1612 1661 1560 1589 1611 1733 1641 1657 1529 1631 1660 1708 1657 1616 1639 1603 1660 1657 1663 1579 1574 1647 1608 1612 1636 1676 1610 1621 1606 1604 1642 1623 1690 1676 1571 1603 1604 1610 1622 1669 1612 1654 1554 1611 1506 1583 1556 1642 1659 1610 1550 1633 1583 1573 1652 1666 1582 1561 1637 1583 1628 1529 1614 1545 1551 1565 1523 1626 1520 1623 1651 1507 1551 1552 1561 1578 1568 1590 1595 1460 1625 1575 1558 1593 1576 1552 1601 1595 1519 1515 1520 1581 1507 1617 1574 1547 1559 1622 1603 1521 1614 1582 1546 1594 1616 1526 1642 1603 1637 1573 1563 1579 1500 1599 1524 1532 1646 1549 1602 1532 1634 1623 1552 1550 1682 1605 1578 1539 1594 1629 1630 1521 1512 1589 1606 1572 1598 1584 1562 1609 1594 1596 1642 1546 1578 1623 1614 1690 1536 1568 1693 1671 1612 1741 1667 1761 1713 1757 1727 1762 1763 1731 1793 1731 1873 1851 1812 1821 1832 1915 1906 1827 1953 1986 1883 1865 1959 1971 1916 1962 1907 1990 2059 1940 1890 1886 1910 1990 1978 1914 1802 1909 1970 1931 1864 2008 1878 1964 1883 1897 1824 1907 1776 1869 1796 1889 1762 1772 1777 1781 1680 1742 1715 1721 1720 1798 1712 1791 1772 1704 1735 1695 1842 1631 1732 1696 1687 1744 1734 1750 1757 1714 1800 1703 1811 1720 1779 1815 1764 1771 1760 1840 1791 1842 1843 1821 1767 1849 1865 1846 1854 1897 1846 1829 1863 1805 1751 1769 1698 1778 1802 1796 1787 1852 1774 1769 1765 1728 1727 1716 1828 1654 1727 1691 1716 1792 1743 1671 1678 1632 1695 1710 1692 1647 1703 1703 1737 1587 1607 1624 1566 1690 1620 1652 1631 1635 1647 1581 1610 1667 1542 1663 1624 1541 1609 1631 1697 1624 1598 1553 1590 1620 1600 1638 1545 1611 1626 1555 1592 1533 1613 1611 1595 1610 1526 1570 1583 1597 1566 1588 1609 1706 1596 1642 1606 1608 1579 1582 1571 1622 1569 1652 1636 1570 1629 1586 1617 1715 1634 1613 1666 1658 1555 1636 1670 1559 1631 1613 1562 1564 1606 1669 1648 1628 1606 1632 1652 1658 1655 1646 1636 1641 1637 1656 1649 1681 1642 1584 1638 1649 1635 1637 1654 1707 1565 1685 1632 1638 1614 1636 1685 1518 1627 1596 1540 1648 1577 1637 1683 1597 1589 1613 1586 1571 1589 1638 1530 1580 1602 1633 1576 1567 1610 1619 1607 1569 1578 1587 1530 1615 1644 1593 1647 1582 1639 1661 1551 1691 1533 1605 1568 1535 1547 1615 1558 1573 1650 1665 1619 1623 1603 1550 1589 1606 1561 1630 1576 1546 1593 1603 1589 1535 1587 1618 1619 1590 1540 1573 1600 1548 1579 1568 1589 1569 1522 1588 1622 1634 1650 1629 1595 1568 1567 1613 1534 1527 1584 1610 1538 1586 1515 1549 1660 1597 1627 1567 1536 1584 1610 1576 1568 1572 1553 1585 1622 1634 1552 1577 1544 1628 1537 1555 1550 1612 1546 1565 1620 1652 1566 1593 1594 1557 1566 1607 1556 1640 1565 1594 1550 1605 1584 1585 1576 1578 1617 1669 1547 1569 1515 1605 1580 1572 1676 1602 1574 1556 1540 1598 1586 1593 1583 1571 1532 1607 1588 1581 1557 1565 1519 1615 1639 1600 1629 1604 1590 1514 1597 1558 1608 1576 1527 1609 1558 1600 1516 1593 1605 1594 1598 1592 1522 1583 1574 1554 1537 1546 1513 1596 1615 1544 1550 1523 1582 1619 1696 1595 1523 1611 1568 1589 1493 1656 1564 1654 1594 1640 1577 1642 1550 1619 1549 1560 1547 1513 1622 1589 1576 1632 1598 1543 1522 1578 1597 1576 1553 1585 1576 1578 1598 1668 1657 1622 1618 1607 1566 1549 1599 1545 1588 1592 1500 1630 1630 1583 1601 1535 1583 1523 1615 1587 1623 1568 1539 1616 1535 1645 1605 1626 1540 1531 1616 1557 1615 1491 1542 1571 1624 1564 1563 1585 1534 1607 1559 1541 1546 1585 1507 1615 1611 1542 1468 1506 1533 1670 1628 1595 1572 1496 1513 1550 1562 1536 1641 1623 1571 1628 1575 1620 1553 1540 1573 1620 1579 1663 1566 1618 1643 1630 1609 1565 1576 1615 1601 1582 1631 1586 1611 1531 1652 1595 1517 1538 1649 1548 1585 1614 1534 1593 1592 1636 1606 1542 1565 1570 1538 1559 1624 1640 1631 1645 1570 1550 1563 1645 1576 1502 1594 1623 1594 1596 1510 1576 1565 1562 1541 1590 1627 1549 1581 1564 1572 1529 1547 1565 1602 1595 1595 1648 1555 1545 1495 1621 1602 1543 1587 1609 1533 1588 1589 1571 1648 1532 1609 1569 1582 1594 1539 1627 1563 1590 1587 1589 1613 1603 1498 1584 1653 1633 1595 1724 1614 1564 1578 1585 1644 1639 1647 1552 1556 1637 1652 1599 1635 1539 1556 1626 1640 1636 1619 1593 1605 1602 1584 1644 1674 1704 1659 1698 1652 1622 1671 1576 1632 1627 1675 1651 1593 1653 1586 1646 1623 1631 1576 1645 1666 1620 1585 1593 1646 1673 1638 1555 1599 1573 1668 1623 1586 1614 1596 1676 1612 1547 1588 1624 1573 1624 1555 1653 1605 1615 1532 1668 1586 1578 1556 1606 1690 1638 1580 1626 1630 1571 1620 1563 1574 1551 1508 1619 1575 1616 1509 1625 1598 1696 1567 1532 1659 1609 1562 1601 1626 1578 1614 1575 1555 1539 1558 1666 1654 1636 1624 1610 1587 1582 1579 1600 1579 1584 1494 1647 1658 1649 1598 1562 1636 1590 1610 1566 1558 1592 1552 1581 1603 1586 1614 1630 1691 1575 1683 1551 1636 1610 1621 1688 1647 1601 1554 1597 1552 1686 1610 1616 1576 1595 1532 1618 1591 1519 1592 1584 1621 1540 1588 1583 1570 1544 1585 1619 1577 1557 1641 1594 1622 1544 1592 1612 1588 1555 1593 1634 1580 1583 1521 1546 1641 1571 1611 1622 1538 1534 1663 1570 1595 1643 1655 1608 1566 1541 1639 1595 1582 1541 1601 1641 1649 1574 1623 1641 1528 1631 1630 1612 1620 1650 1695 1624 1549 1658 1521 1544 1561 1666 1627 1605 1631 1561 1588 1574 1510 1642 1612 1590 1593 1571 1577 1570 1576 1610 1642 1536 1575 1535 1607 1561 1580 1554 1590 1586 1574 1640 1618 1557 1613 1652 1587 1597 1535 1612 1520 1625 1595 1661 1567 1598 1540 1581 1592 1599 1569 1618 1634 1585 1636 1590 1660 1618 1628 1610 1557 1663 1564 1634 1537 1566 1683 1621 1602 1622 1630 1674 1690 1601 1611 1619 1684 1700 1767 1732 1663 1645 1755 1679 1711 1713 1782 1775 1764 1814 1777 1767 1857 1795 1859 1834 1886 1821 1849 1861 1878 1780 1842 1804 1861 1848 1801 1802 1742 1791 1830 1843 1801 1790 1865 1893 1881 1863 1768 1822 1828 1826 1846 1875 1836 1804 1778 1766 1786 1736 1818 1718 1743 1775 1721 1775 1678 1688 1719 1658 1741 1719 1727 1678 1707 1700 1604 1690 1595 1640 1703 1744 1727 1707 1686 1687 1716 1614 1692 1689 1684 1669 1650 1713 1612 1654 1702 1618 1700 1768 1624 1623 1714 1742 1773 1696 1708 1693 1761 1803 1742 1773 1724 1892 1752 1770 1766 1785 1750 1767 1840 1797 1753 1755 1706 1783 1728 1718 1718 1668 1603 1678 1691 1746 1691 1694 1713 1675 1709 1635 1675 1700 1711 1768 1637 1696 1712 1713 1706 1736 1781 1723 1649 1683 1673 1623 1629 1609 1633 1651 1630 1641 1604 1651 1621 1643 1622 1637 1631 1644 1616 1602 1577 1616 1596 1586 1588 1587 1629 1618 1496 1583 1611 1559 1677 1630 1667 1559 1629 1601 1550 1604 1621 1612 1613 1663 1659 1620 1631 1702 1612 1586 1531 1585 1646 1659 1572 1662 1687 1589 1658 1553 1625 1609 1581 1693 1587 1603 1624 1568 1589 1605 1539 1665 1602 1632 1609 1582 1682 1629 1576 1681 1653 1600 1704 1612 1600 1647 1583 1601 1624 1605 1532 1590 1629 1682 1617 1617 1625 1578 1637 1574 1606 1583 1575 1586 1615 1559 1578 1575 1700 1555 1624 1614 1722 1626 1695 1656 1630 1587 1627 1597 1630 1649 1555 1665 1518 1716 1561 1616 1590 1571 1526 1641 1598 1720 1541 1635 1587 1605 1650 1596 1603 1578 1562 1635 1611 1654 1647 1585 1654 1670 1608 1621 1648 1698 1631 1643 1599 1614 1567 1590 1605 1649 1599 1606 1564 1572 1559 1563 1572 1538 1616 1633 1642 1580 1533 1526 1555 1641 1634 1641 1600 1591 1599 1598 1684 1523 1612 1615 1528 1640 1575 1611 1603 1662 1629 1611 1633 1618 1573 1561 1628 1592 1652 1672 1647 1585 1640 1611 1481 1525 1625 1537 1602 1563 1603 1575 1594 1680 1594 1591 1660 1641 1616 1586 1621 1549 1617 1557 1587 1579 1551 1622 1521 1640 1589 1613 1581 1611 1612 1541 1637 1633 1539 1586 1617 1623 1613 1594 1576 1572 1570 1622 1605 1601 1635 1601 1613 1515 1668 1598 1601 1550 1659 1574 1605 1642 1582 1670 1584 1570 1620 1575 1571 1579 1628 1624 1607 1623 1614 1524 1588 1693 1608 1576 1593 1646 1591 1624 1567 1582 1621 1636 1638 1573 1549 1692 1629 1602 1612 1565 1631 1677 1619 1656 1621 1682 1629 1569 1630 1635 1609 1568 1534 1611 1662 1656 1582 1716 1562 1559 1580 1607 1641 1567 1622 1624 1604 1547 1569 1624 1626 1624 1601 1644 1604 1665 1500 1597 1618 1599 1562 1622 1666 1529 1566 1556 1625 1598 1622 1501 1588 1536 1538 1599 1561 1593 1532 1578 1599 1655 1598 1617 1674 1580 1606 1635 1640 1542 1614 1581 1618 1616 1650 1576 1590 1614 1611 1552 1596 1564 1603 1604 1644 1592 1509 1617 1582 1614 1662 1634 1668 1651 1587 1621 1657 1632 1680 1604 1575 1634 1668 1620 1508 1560 1648 1571 1584 1610 1604 1565 1592 1576 1642 1608 1514 1641 1645 1600 1608 1655 1617 1591 1590 1612 1609 1583 1634 1581 1590 1599 1562 1615 1578 1618 1700 1612 1624 1612 1643 1568 1655 1632 1600 1630 1684 1588 1606 1598 1632 1603 1604 1583 1640 1613 1635 1630 1587 1635 1528 1620 1634 1669 1697 1594 1564 1541 1665 1611 1555 1609 1582 1600 1594 1638 1625 1673 1616 1637 1598 1649 1644</counts>
			</dataPoints>
		</scan>
	</xrdMeasurement>
</xrdMeasurements>
