<?xml version="1.0"?>
<xrdMeasurements xmlns="http://www.xrdml.com/XRDMeasurement/2.3" xmlns:xsi="http://www.w3.org/2001/XMLSchema-instance" xsi:schemaLocation="http://www.xrdml.com/XRDMeasurement/2.3 http://www.xrdml.com/XRDMeasurement/2.3/XRDMeasurement.xsd" status="Completed" recordIdentifier="{545AB447-F85D-43D4-8B70-66160D872EA9}">
	<comment>
		<entry/>
	</comment>
	<sample type="To be analyzed">
		<id>GPSS_Li1p4V0p1Ta0p1Hf0p1Fe0p4Mn0p3Cl4_122325_694ae824ae15af25ac372783</id>
		<name></name>
		<preparedBy></preparedBy>
	</sample>
	<xrdMeasurement measurementType="Scan" status="Completed" sampleMode="Reflection">
		<usedWavelength intended="K-Alpha 1">
			<kAlpha1 unit="Angstrom">1.5405980</kAlpha1>
			<kAlpha2 unit="Angstrom">1.5444260</kAlpha2>
			<kBeta unit="Angstrom">1.3922500</kBeta>
			<ratioKAlpha2KAlpha1>0.5000</ratioKAlpha2KAlpha1>
		</usedWavelength>
		<incidentBeamPath>
			<radius unit="mm">145.00</radius>
			<xRayTube id="1010048" name="Empyrean Cu LFF HR (9430 033 7310x)">
				<tension unit="kV">40.0</tension>
				<current unit="mA">15.0</current>
				<anodeMaterial>Cu</anodeMaterial>
				<focus type="Line">
					<length unit="mm">12.0</length>
					<width unit="mm">0.4</width>
					<takeOffAngle unit="deg">6.0</takeOffAngle>
				</focus>
			</xRayTube>
			<sollerSlit id="21010002" name="Soller slits 0.04 rad.">
				<opening unit="rad">0.0400</opening>
			</sollerSlit>
			<mask id="22031000" name="Fixed mask 13 mm">
				<width unit="mm">9.00</width>
			</mask>
			<divergenceSlit id="22120001" name="Divergence slit 1°" xsi:type="fixedDivergenceSlitType">
				<distanceToSample unit="mm">50.00</distanceToSample>
				<height unit="mm">1.52</height>
			</divergenceSlit>
		</incidentBeamPath>
		<sampleMovement xsi:type="spinningSampleMovementType">
			<spinnerRevolutionTime unit="seconds">1.0</spinnerRevolutionTime>
		</sampleMovement>
		<diffractedBeamPath>
			<radius unit="mm">145.00</radius>
			<antiScatterSlit id="22090040" name="AS slit 9 mm (PIXcel)" xsi:type="fixedAntiScatterSlitType">
				<height unit="mm">9.00</height>
			</antiScatterSlit>
			<sollerSlit id="21020003" name="Large Soller slits 0.04 rad.">
				<opening unit="rad">0.0400</opening>
			</sollerSlit>
			<filter id="20030001" name="Large beta-filter Nickel">
				<material>Ni</material>
				<thickness unit="mm">0.020</thickness>
			</filter>
			<detector id="7010019" name="PIXcel1D-Medipix3 detector" xsi:type="rtmsDetectorType">
				<phd unit="keV">
					<lowerLevel>4.02</lowerLevel>
					<upperLevel>11.27</upperLevel>
				</phd>
				<mode>Scanning</mode>
				<activeLength unit="deg">5.542</activeLength>
			</detector>
		</diffractedBeamPath>
		<scan appendNumber="0" mode="Continuous" scanAxis="Gonio" status="Completed">
			<header>
				<startTimeStamp>2025-12-25T13:23:35-08:00</startTimeStamp>
				<endTimeStamp>2025-12-25T13:31:42-08:00</endTimeStamp>
				<author>
					<name>AutomatedUser</name>
				</author>
				<source>
					<applicationSoftware version="1.7b (136)">PANalytical Aeris Instrument Suite</applicationSoftware>
					<instrumentControlSoftware version="3.2.00000000 20240306">AERIS</instrumentControlSoftware>
					<instrumentID>950485</instrumentID>
				</source>
			</header>
			<dataPoints>
				<positions axis="2Theta" unit="deg">
					<startPosition>10.00943322</startPosition>
					<endPosition>99.99442286</endPosition>
				</positions>
				<positions axis="Omega" unit="deg">
					<startPosition>5.00471661</startPosition>
					<endPosition>49.99721143</endPosition>
				</positions>
				<commonCountingTime unit="seconds">12.495</commonCountingTime>
				<counts unit="counts">3311 3160 3356 3261 3260 3264 3326 3193 3365 3311 3336 3252 3364 3265 3241 3316 3376 3390 3351 3305 3263 3342 3325 3253 3292 3331 3423 3284 3355 3357 3307 3244 3363 3362 3354 3300 3312 3354 3308 3222 3346 3364 3320 3385 3391 3300 3440 3242 3331 3350 3331 3341 3380 3302 3265 3284 3270 3284 3471 3463 3385 3304 3451 3496 3313 3395 3471 3375 3442 3393 3424 3454 3433 3297 3388 3434 3428 3435 3240 3437 3470 3482 3455 3506 3427 3523 3459 3512 3497 3507 3526 3443 3503 3505 3448 3365 3518 3473 3420 3618 3471 3494 3474 3446 3574 3525 3550 3441 3538 3516 3486 3428 3529 3486 3651 3575 3591 3551 3585 3562 3522 3554 3550 3550 3496 3693 3475 3617 3482 3562 3491 3541 3543 3555 3480 3588 3564 3562 3547 3611 3604 3422 3598 3515 3530 3497 3602 3525 3532 3570 3683 3505 3546 3603 3557 3568 3705 3568 3575 3642 3585 3610 3711 3549 3593 3696 3618 3630 3556 3536 3478 3626 3563 3570 3653 3601 3533 3586 3594 3677 3594 3584 3568 3652 3569 3523 3651 3511 3600 3578 3557 3571 3543 3437 3542 3506 3686 3607 3574 3588 3633 3520 3510 3512 3491 3560 3560 3566 3573 3455 3485 3525 3502 3502 3666 3515 3579 3576 3528 3449 3607 3454 3342 3566 3540 3434 3571 3398 3482 3593 3482 3587 3490 3563 3472 3345 3416 3448 3472 3496 3461 3452 3506 3496 3419 3475 3436 3480 3447 3462 3428 3470 3475 3467 3445 3453 3454 3346 3431 3374 3461 3352 3389 3308 3444 3433 3395 3443 3419 3387 3404 3364 3506 3396 3372 3474 3437 3419 3402 3350 3414 3373 3360 3525 3334 3295 3466 3374 3413 3276 3514 3422 3450 3442 3445 3398 3456 3488 3298 3420 3404 3327 3474 3472 3421 3459 3523 3544 3425 3538 3420 3420 3494 3555 3512 3516 3529 3393 3458 3445 3543 3468 3515 3460 3491 3498 3497 3506 3504 3519 3601 3518 3551 3570 3570 3561 3480 3464 3512 3560 3501 3676 3518 3558 3622 3538 3524 3681 3476 3591 3580 3599 3635 3630 3589 3600 3539 3533 3607 3683 3645 3671 3636 3689 3602 3551 3767 3698 3610 3635 3698 3636 3615 3641 3783 3752 3742 3756 3736 3758 3746 3671 3810 3796 3747 3811 3713 3719 3724 3827 3833 3704 3767 3707 3752 3734 3909 3782 3859 3925 3884 3851 3782 3922 3766 3904 3836 3805 3848 3984 3941 3931 3993 3916 3979 4016 4028 4017 4042 4099 4058 4185 4230 4220 4168 4349 4221 4364 4311 4471 4474 4405 4500 4659 4563 4550 4687 4712 4714 4768 4973 4865 4918 4828 4688 4944 4739 4685 4636 4654 4618 4481 4584 4469 4528 4456 4443 4438 4351 4470 4313 4311 4361 4321 4404 4319 4131 4310 4150 4220 4192 4192 4188 4203 4100 4191 4145 4196 4057 4195 4080 4043 4107 3947 4014 3949 3865 3958 3873 3976 3916 3784 3659 3913 3869 3860 3758 3901 3730 3675 3731 3713 3573 3630 3696 3671 3616 3673 3682 3605 3588 3542 3579 3681 3578 3615 3569 3615 3433 3475 3517 3503 3641 3518 3675 3511 3602 3459 3508 3555 3450 3534 3475 3491 3596 3452 3548 3523 3462 3395 3468 3440 3513 3453 3453 3416 3381 3379 3289 3532 3326 3523 3355 3412 3329 3467 3475 3317 3430 3461 3324 3302 3442 3333 3447 3396 3432 3351 3332 3401 3342 3388 3355 3277 3314 3279 3336 3282 3348 3352 3226 3273 3252 3240 3452 3358 3351 3313 3402 3209 3299 3237 3298 3303 3275 3226 3343 3275 3307 3252 3257 3204 3292 3241 3358 3316 3259 3255 3227 3303 3252 3208 3204 3238 3219 3196 3310 3267 3251 3290 3315 3178 3163 3237 3203 3130 3196 3092 3156 3236 3209 3212 3308 3143 3280 3217 3034 3066 3218 3280 3237 3165 3146 3134 3152 3060 3136 3164 3170 3205 3195 3153 3164 3135 3148 3195 3117 3185 3190 3227 3190 3154 3188 3070 3214 3149 3224 3112 3183 3181 3187 3179 3079 3050 3082 3317 3150 3133 3124 3140 3025 3053 3106 3096 3037 3184 3243 3065 3094 3036 3082 3103 3135 3073 3219 3151 3122 3098 3114 3097 3162 3118 3063 3014 3002 3071 3028 3064 3066 3034 3057 3202 3095 3001 3011 3062 3120 3153 3120 3007 3040 3135 3073 3045 3220 3008 3051 3112 3108 3126 3102 3111 3193 3126 3143 3042 3118 3065 3015 3031 2996 2985 3025 3014 3019 3060 3033 3105 3083 2997 3006 3011 2981 3041 3038 3021 2986 3132 2961 3040 2965 3026 3084 3028 3069 3084 2990 2954 3009 3118 2949 3069 3020 3068 2974 2999 3018 3021 3033 3003 3002 3107 2958 3027 3008 2978 3026 2930 3052 3000 3011 3019 3024 3079 3013 2936 3017 3030 2999 2996 3067 2978 3011 2895 2949 2969 2940 2960 2957 2931 3006 3046 2895 3019 3004 2964 2965 2908 2848 2977 2919 2833 3032 2951 2960 3048 2907 2887 2997 2965 2869 2989 2960 3001 2948 2894 2944 2929 2961 2860 2972 3011 2910 2924 3040 2899 2905 2945 2926 2895 2904 2867 2951 3001 2924 2955 2934 2911 2990 2857 2934 2861 2954 2926 2842 2972 2896 2899 2858 2906 2973 2824 2887 2928 2883 2872 2840 2824 2881 2876 2829 2902 2985 2823 2919 2872 2810 2832 2893 2784 2824 2908 2827 2887 2808 2899 2832 2885 2866 2798 2907 2839 2820 2817 2907 2840 2823 2782 2856 2878 2846 2900 2816 2809 2849 2833 2801 2817 2844 2909 2851 2806 2864 2805 2762 2740 2944 2803 2767 2823 2691 2814 2822 2694 2836 2766 2889 2816 2765 2797 2816 2760 2835 2817 2791 2798 2750 2681 2662 2792 2773 2810 2841 2940 2751 2897 2739 2816 2765 2773 2867 2789 2769 2770 2714 2809 2722 2827 2716 2799 2768 2725 2739 2743 2812 2723 2719 2795 2780 2865 2784 2790 2714 2840 2802 2773 2816 2792 2803 2791 2764 2740 2711 2741 2718 2696 2735 2794 2728 2727 2777 2689 2844 2750 2782 2774 2775 2747 2757 2865 2896 2820 2690 2708 2828 2695 2701 2818 2710 2780 2741 2810 2711 2656 2715 2703 2729 2731 2771 2751 2824 2860 2744 2803 2860 2731 2839 2739 2837 2812 2810 2720 2829 2729 2764 2865 2844 2781 2778 2772 2756 2737 2811 2794 2816 2777 2798 2863 2821 2668 2756 2757 2795 2761 2708 2857 2825 2826 2721 2780 2826 2817 2833 2854 2841 2886 2782 2825 2844 2771 2747 2802 2790 2772 2788 2802 2718 2705 2763 2780 2770 2719 2858 2799 2828 2758 2790 2756 2836 2784 2881 2731 2712 2822 2697 2743 2811 2660 2794 2778 2739 2717 2734 2710 2682 2742 2667 2767 2676 2717 2700 2746 2837 2755 2763 2770 2866 2708 2752 2644 2768 2705 2742 2729 2629 2737 2819 2679 2767 2794 2753 2721 2694 2702 2741 2715 2674 2738 2677 2612 2605 2704 2704 2726 2658 2769 2622 2698 2786 2778 2688 2657 2596 2660 2692 2582 2624 2549 2664 2604 2617 2608 2541 2699 2647 2656 2613 2562 2584 2585 2627 2524 2542 2612 2561 2581 2667 2510 2560 2601 2539 2516 2558 2625 2468 2489 2538 2637 2567 2490 2468 2527 2539 2480 2455 2417 2501 2407 2484 2454 2473 2431 2440 2477 2507 2457 2522 2336 2460 2409 2421 2458 2432 2394 2402 2409 2401 2462 2437 2365 2413 2451 2394 2409 2425 2392 2376 2318 2371 2401 2295 2375 2332 2372 2317 2273 2346 2324 2318 2322 2307 2340 2315 2376 2282 2345 2426 2310 2400 2355 2348 2296 2242 2272 2239 2311 2234 2357 2265 2230 2263 2352 2189 2240 2257 2291 2206 2251 2248 2245 2239 2349 2316 2246 2253 2280 2239 2221 2239 2164 2215 2228 2356 2184 2183 2296 2179 2185 2264 2246 2220 2151 2225 2188 2248 2180 2168 2299 2271 2199 2206 2199 2251 2205 2197 2176 2166 2233 2184 2233 2280 2192 2099 2234 2096 2187 2146 2123 2150 2273 2137 2139 2240 2167 2196 2209 2250 2251 2231 2185 2138 2260 2157 2170 2177 2241 2113 2183 2141 2164 2074 2208 2113 2127 2184 2202 2140 2074 2130 2253 2115 2186 2150 2057 2102 2265 2177 2150 2123 2075 2221 2115 2184 2215 2232 2226 2070 2147 2198 2146 2143 2139 2179 2116 2112 2081 2083 2121 2224 2097 2223 2149 2107 2150 2175 2146 2150 2163 2161 2237 2087 2113 2190 2183 2108 2103 2143 2175 2160 2184 2143 2141 2076 2219 2124 2207 2125 2207 2079 2154 2109 2073 2166 2218 2178 2156 2113 2173 2177 2150 2098 2137 2126 2139 2192 2112 2186 2179 2182 2155 2193 2190 2150 2204 2248 2223 2129 2077 2155 2182 2089 2164 2150 2251 2236 2179 2122 2116 2154 2118 2148 2140 2167 2098 2186 2176 2193 2189 2113 2123 2144 2078 2048 2146 2065 2179 2189 2165 2156 2150 2133 2146 2142 2096 2166 2199 2214 2196 2032 2101 2166 2189 2137 2156 2116 2115 2125 2114 2085 2128 2180 2237 2236 2201 2132 2120 2187 2239 2180 2095 2109 2042 2130 2050 2112 2027 2103 2049 2081 2072 2180 2129 2125 2046 2149 2141 2171 2114 2101 2126 2068 2123 2079 2088 2079 2074 2127 2095 2016 2131 2135 2098 2044 2017 1984 2117 2015 2160 2016 2061 2048 2099 2081 2033 2157 2135 2070 2077 2147 2082 2045 2050 2031 2146 2027 2001 2008 2099 2044 2054 2022 1986 2028 2064 2009 1992 1976 1975 1920 2117 1970 2048 1971 1955 1977 2099 1905 2084 1945 2029 2006 2014 1956 1915 1938 1953 1938 2072 1910 1989 1873 1959 1887 1852 1929 1947 1975 1974 1938 1885 1965 1956 1946 1964 1825 1858 1894 1829 1915 1892 1868 1943 1813 1961 1886 1933 1862 1884 1887 1920 1927 1921 1835 1949 1908 1890 1867 1891 1835 1805 1921 1875 1851 1843 1865 1914 1886 1950 1890 1888 1872 1932 1827 1869 1890 1855 1935 1831 1775 1907 1843 1911 1903 1883 1901 1922 1872 1879 1912 1897 1917 1924 1914 1978 1895 1977 2045 2057 1984 2079 2044 2045 2103 2180 2191 2195 2299 2267 2261 2324 2324 2267 2405 2344 2419 2490 2456 2428 2434 2404 2460 2479 2408 2494 2502 2434 2391 2442 2372 2397 2266 2385 2351 2244 2177 2243 2258 2242 2132 2198 2154 2173 2149 2097 2058 2075 2101 2075 2055 2029 1959 1946 1991 2036 1941 1973 1978 1987 1913 1949 1920 1881 1985 1867 1927 1922 1855 1933 1814 1869 1861 1817 1793 1753 1757 1840 1799 1780 1715 1795 1777 1798 1778 1767 1775 1771 1805 1801 1717 1771 1855 1777 1740 1793 1783 1804 1755 1734 1702 1782 1797 1784 1714 1797 1794 1833 1861 1710 1813 1883 1920 1762 1876 1890 1991 1948 1984 2021 2117 2027 2268 2280 2219 2236 2329 2452 2463 2506 2448 2601 2623 2696 2734 2625 2698 2769 2788 2850 2860 2746 2773 2811 2910 2775 2668 2694 2719 2606 2642 2546 2495 2574 2582 2419 2449 2392 2427 2341 2408 2504 2432 2517 2421 2561 2645 2710 2785 2911 3138 3086 3493 3138 3073 3055 2974 2862 2818 2708 2615 2492 2317 2203 2098 2047 2011 1945 1800 1802 1743 1699 1743 1688 1738 1631 1661 1664 1689 1644 1771 1669 1687 1550 1616 1613 1605 1549 1664 1654 1599 1645 1592 1624 1597 1618 1557 1624 1575 1576 1595 1652 1531 1540 1600 1556 1548 1523 1523 1532 1613 1543 1611 1602 1564 1600 1623 1539 1616 1510 1595 1517 1561 1523 1541 1487 1580 1465 1523 1500 1582 1616 1629 1528 1594 1522 1571 1544 1582 1527 1545 1500 1551 1485 1524 1550 1529 1561 1462 1523 1581 1519 1640 1521 1503 1496 1463 1422 1486 1523 1542 1498 1540 1518 1533 1538 1483 1537 1475 1538 1500 1516 1615 1473 1524 1557 1526 1451 1418 1424 1586 1482 1457 1581 1498 1503 1517 1476 1483 1484 1500 1528 1457 1511 1451 1475 1499 1483 1506 1477 1521 1509 1511 1448 1480 1509 1481 1553 1441 1486 1468 1484 1498 1432 1423 1490 1483 1532 1505 1555 1455 1492 1445 1528 1554 1464 1480 1478 1479 1485 1468 1478 1474 1501 1464 1435 1489 1517 1448 1497 1478 1480 1483 1439 1507 1517 1523 1482 1445 1452 1433 1401 1527 1542 1455 1498 1503 1418 1493 1448 1513 1489 1456 1471 1466 1494 1506 1486 1521 1507 1448 1463 1438 1493 1389 1497 1464 1515 1482 1575 1475 1417 1437 1495 1433 1424 1474 1412 1498 1492 1480 1477 1473 1403 1407 1390 1435 1375 1522 1523 1484 1417 1399 1444 1446 1486 1435 1347 1425 1469 1460 1467 1394 1417 1442 1465 1407 1376 1453 1484 1401 1437 1462 1369 1371 1449 1427 1471 1412 1469 1437 1423 1493 1441 1441 1464 1449 1437 1380 1492 1534 1440 1369 1431 1442 1421 1479 1453 1521 1463 1526 1476 1506 1459 1446 1540 1415 1552 1432 1451 1460 1514 1479 1428 1480 1469 1510 1494 1443 1435 1406 1533 1465 1510 1450 1431 1493 1381 1484 1393 1513 1448 1464 1485 1508 1459 1529 1440 1450 1506 1515 1412 1433 1506 1485 1539 1463 1519 1515 1569 1504 1584 1525 1534 1565 1541 1501 1605 1571 1546 1668 1513 1544 1518 1647 1623 1547 1630 1682 1632 1696 1687 1732 1787 1810 1919 1892 1954 2115 2086 2252 2272 2403 2481 2619 2634 2948 2938 3139 3245 3452 3447 3574 3722 3953 3973 4146 4251 4499 4606 4725 4645 4631 4724 4744 4737 4830 4752 4713 4557 4777 4516 4370 4257 4134 4156 4048 3982 3798 3789 3739 3582 3567 3472 3373 3381 3212 3268 3198 3024 3137 2983 2822 2948 2801 2902 2769 2729 2690 2647 2606 2652 2575 2473 2582 2491 2424 2394 2291 2225 2148 2200 2147 2067 2004 1863 1969 1860 1745 1863 1742 1829 1756 1697 1685 1679 1682 1666 1667 1702 1648 1618 1564 1657 1653 1585 1589 1650 1593 1629 1577 1598 1522 1524 1601 1544 1576 1510 1533 1535 1596 1569 1487 1488 1503 1492 1601 1449 1511 1424 1509 1456 1501 1515 1465 1441 1414 1463 1508 1503 1504 1454 1435 1388 1444 1441 1419 1457 1482 1445 1392 1480 1419 1472 1396 1437 1458 1387 1409 1443 1396 1414 1434 1426 1478 1371 1418 1442 1384 1462 1409 1399 1437 1467 1449 1425 1385 1418 1414 1472 1444 1364 1400 1451 1463 1465 1429 1364 1393 1459 1427 1392 1425 1374 1457 1423 1418 1420 1459 1402 1349 1371 1462 1361 1384 1351 1355 1390 1457 1384 1393 1408 1384 1300 1347 1372 1413 1402 1411 1411 1342 1398 1309 1279 1411 1437 1353 1357 1410 1423 1404 1404 1371 1369 1373 1378 1392 1438 1319 1366 1342 1414 1305 1399 1427 1357 1346 1320 1381 1429 1389 1396 1332 1353 1397 1388 1370 1370 1400 1409 1384 1385 1380 1324 1409 1349 1349 1379 1406 1361 1415 1404 1391 1417 1390 1362 1361 1404 1437 1401 1412 1363 1447 1328 1415 1382 1365 1416 1348 1274 1277 1313 1306 1357 1357 1335 1345 1295 1289 1343 1345 1420 1380 1441 1378 1405 1345 1434 1414 1347 1283 1369 1322 1441 1356 1342 1408 1456 1415 1406 1417 1465 1434 1431 1451 1431 1445 1302 1428 1462 1367 1442 1418 1406 1420 1419 1329 1360 1445 1442 1399 1449 1435 1424 1381 1381 1393 1395 1372 1364 1354 1359 1339 1391 1350 1367 1450 1368 1393 1400 1435 1447 1457 1330 1459 1385 1474 1399 1442 1438 1317 1300 1412 1391 1396 1356 1360 1438 1455 1424 1408 1384 1335 1371 1435 1328 1386 1375 1297 1329 1463 1342 1319 1287 1381 1391 1349 1315 1275 1365 1334 1324 1348 1312 1330 1369 1344 1357 1401 1370 1310 1348 1362 1328 1328 1371 1332 1313 1366 1360 1270 1335 1346 1365 1381 1362 1330 1317 1358 1335 1349 1345 1340 1312 1284 1355 1282 1317 1292 1301 1313 1290 1337 1310 1315 1300 1278 1266 1374 1241 1316 1304 1284 1385 1330 1310 1307 1317 1306 1293 1327 1248 1297 1276 1297 1332 1281 1324 1289 1309 1296 1303 1259 1282 1370 1315 1282 1299 1296 1389 1265 1335 1287 1307 1304 1359 1304 1229 1283 1360 1272 1321 1271 1292 1328 1339 1337 1229 1299 1304 1251 1260 1281 1332 1225 1371 1305 1273 1367 1332 1327 1266 1267 1298 1268 1296 1250 1311 1349 1297 1295 1365 1250 1274 1305 1317 1272 1335 1243 1267 1323 1280 1279 1277 1328 1216 1250 1317 1325 1332 1223 1309 1307 1271 1239 1269 1274 1326 1288 1247 1290 1334 1268 1287 1267 1281 1244 1331 1282 1258 1292 1263 1316 1238 1285 1260 1274 1314 1317 1265 1283 1287 1327 1237 1271 1251 1291 1307 1341 1316 1258 1261 1264 1289 1309 1258 1275 1357 1281 1303 1290 1297 1312 1316 1323 1308 1239 1286 1293 1254 1313 1265 1280 1230 1253 1323 1264 1264 1364 1299 1325 1321 1261 1209 1261 1288 1233 1283 1306 1285 1293 1268 1243 1311 1286 1258 1271 1255 1266 1270 1257 1262 1281 1243 1270 1269 1293 1264 1244 1325 1270 1271 1367 1288 1277 1237 1227 1288 1323 1279 1241 1292 1332 1304 1339 1241 1336 1298 1199 1216 1328 1204 1247 1265 1276 1288 1264 1279 1274 1195 1246 1329 1325 1259 1317 1247 1264 1268 1292 1243 1267 1289 1265 1239 1285 1259 1236 1286 1253 1300 1211 1278 1263 1245 1255 1270 1202 1262 1229 1305 1276 1248 1272 1288 1295 1211 1280 1273 1281 1251 1316 1289 1305 1285 1289 1213 1247 1341 1272 1221 1227 1223 1283 1296 1217 1302 1247 1212 1266 1291 1237 1235 1225 1211 1289 1252 1289 1310 1227 1291 1302 1290 1292 1272 1290 1186 1211 1254 1262 1303 1225 1315 1349 1267 1309 1330 1246 1273 1351 1259 1277 1184 1283 1207 1199 1250 1331 1245 1244 1249 1234 1221 1285 1241 1218 1285 1264 1257 1246 1283 1206 1233 1258 1236 1277 1310 1160 1268 1267 1281 1212 1215 1250 1240 1236 1292 1260 1260 1263 1241 1219 1288 1218 1252 1350 1210 1299 1262 1250 1225 1184 1293 1200 1177 1283 1169 1214 1317 1224 1267 1243 1288 1217 1251 1213 1208 1301 1239 1299 1175 1264 1262 1250 1304 1294 1298 1320 1210 1248 1226 1250 1241 1218 1219 1288 1278 1263 1235 1273 1280 1260 1240 1249 1239 1208 1244 1192 1208 1261 1244 1224 1273 1200 1271 1218 1325 1220 1268 1298 1231 1349 1216 1260 1270 1193 1282 1270 1260 1268 1201 1252 1230 1279 1260 1288 1264 1304 1292 1238 1224 1265 1268 1248 1234 1266 1235 1265 1214 1301 1279 1180 1269 1258 1214 1268 1259 1224 1253 1256 1262 1266 1240 1289 1239 1199 1256 1219 1189 1263 1268 1272 1244 1280 1234 1224 1236 1258 1275 1188 1263 1314 1302 1251 1254 1238 1247 1289 1267 1260 1300 1299 1288 1229 1272 1241 1253 1276 1274 1242 1242 1270 1221 1241 1262 1314 1313 1267 1212 1221 1214 1202 1241 1246 1306 1312 1306 1207 1228 1241 1292 1229 1243 1257 1276 1237 1303 1252 1234 1300 1215 1263 1230 1249 1327 1230 1322 1264 1247 1333 1279 1309 1258 1274 1304 1280 1255 1331 1261 1325 1317 1301 1295 1361 1400 1363 1421 1408 1453 1391 1415 1432 1468 1441 1430 1464 1472 1552 1579 1573 1538 1582 1566 1536 1540 1593 1707 1647 1592 1603 1621 1637 1622 1591 1653 1569 1571 1554 1605 1529 1546 1601 1590 1559 1591 1530 1462 1485 1436 1486 1499 1397 1419 1456 1391 1416 1385 1412 1373 1299 1376 1370 1363 1360 1359 1313 1330 1368 1309 1334 1384 1296 1344 1280 1375 1357 1296 1308 1301 1315 1258 1354 1267 1317 1257 1265 1221 1347 1309 1289 1258 1315 1287 1354 1330 1268 1298 1296 1287 1284 1244 1277 1289 1308 1266 1277 1318 1253 1312 1287 1342 1224 1215 1213 1260 1261 1218 1259 1282 1241 1244 1268 1209 1256 1256 1203 1267 1325 1277 1249 1308 1244 1297 1259 1308 1219 1242 1199 1298 1282 1258 1253 1253 1184 1292 1388 1273 1269 1376 1275 1270 1288 1248 1258 1329 1260 1282 1271 1301 1260 1288 1261 1307 1246 1188 1222 1287 1249 1196 1216 1246 1259 1217 1288 1291 1159 1291 1248 1226 1252 1249 1281 1277 1329 1261 1153 1326 1278 1254 1281 1257 1231 1159 1216 1298 1243 1279 1256 1322 1159 1210 1253 1304 1217 1224 1316 1181 1202 1302 1292 1207 1241 1282 1260 1201 1249 1291 1289 1230 1275 1274 1252 1213 1281 1290 1259 1268 1201 1255 1263 1219 1188 1284 1242 1179 1273 1285 1219 1254 1275 1279 1223 1237 1191 1307 1218 1301 1256 1255 1271 1219 1276 1237 1225 1276 1231 1280 1255 1321 1232 1340 1253 1243 1236 1282 1170 1236 1237 1284 1248 1270 1289 1220 1260 1258 1283 1308 1290 1242 1283 1225 1238 1253 1316 1218 1258 1202 1248 1310 1305 1297 1264 1272 1261 1279 1236 1231 1245 1285 1285 1256 1293 1208 1266 1276 1292 1272 1259 1245 1212 1308 1266 1325 1264 1289 1233 1247 1279 1326 1227 1297 1215 1285 1229 1235 1293 1300 1216 1251 1216 1249 1270 1311 1261 1231 1201 1224 1178 1280 1264 1269 1330 1320 1301 1318 1265 1294 1259 1294 1286 1286 1169 1297 1348 1320 1314 1333 1281 1301 1308 1371 1369 1276 1255 1304 1330 1287 1265 1320 1329 1354 1329 1365 1335 1290 1382 1387 1347 1335 1312 1375 1415 1354 1477 1402 1494 1413 1532 1551 1553 1627 1660 1636 1783 1869 1877 1863 1854 2019 1972 2033 2111 2238 2212 2345 2267 2439 2504 2547 2587 2675 2685 2761 2826 2787 3005 2984 3079 3008 3130 3230 3204 3253 3267 3238 3122 3187 3054 3110 3112 3090 3136 2990 2897 2822 2786 2795 2712 2784 2616 2519 2469 2389 2401 2360 2237 2304 2128 2180 2111 2015 2098 1968 1969 1919 1930 1768 1889 1901 1804 1788 1889 1791 1819 1817 1862 1927 1838 1824 1908 1926 1859 1878 1833 1814 1912 1753 1812 1838 1785 1746 1723 1743 1773 1667 1594 1648 1633 1715 1582 1626 1671 1582 1600 1604 1600 1513 1421 1391 1486 1457 1463 1446 1413 1506 1451 1417 1474 1471 1428 1429 1437 1414 1499 1471 1487 1440 1399 1463 1407 1419 1495 1466 1397 1489 1405 1400 1423 1427 1496 1493 1335 1460 1349 1355 1351 1374 1391 1407 1381 1350 1364 1312 1327 1357 1390 1275 1274 1357 1363 1296 1352 1335 1267 1356 1248 1258 1316 1269 1299 1277 1297 1317 1271 1281 1289 1256 1273 1289 1302 1226 1262 1223 1277 1260 1243 1250 1250 1287 1323 1256 1282 1285 1304 1296 1245 1244 1243 1181 1299 1255 1300 1253 1247 1259 1236 1215 1300 1224 1183 1231 1267 1238 1267 1305 1287 1265 1219 1345 1257 1289 1321 1345 1228 1294 1306 1326 1238 1360 1376 1282 1322 1343 1290 1320 1329 1377 1329 1318 1416 1379 1389 1445 1418 1435 1456 1378 1364 1534 1522 1434 1489 1455 1488 1490 1441 1472 1542 1501 1419 1443 1445 1534 1513 1544 1445 1524 1430 1389 1451 1475 1480 1456 1343 1403 1403 1402 1368 1318 1374 1421 1357 1335 1302 1373 1254 1373 1348 1275 1307 1265 1318 1331 1304 1254 1358 1258 1316 1311 1335 1305 1288 1254 1258 1305 1269 1361 1188 1273 1191 1248 1279 1215 1194 1242 1297 1254 1238 1278 1242 1309 1250 1291 1197 1282 1284 1219 1227 1316 1327 1225 1231 1266 1287 1183 1231 1225 1279 1172 1288 1266 1292 1239 1256 1219 1243 1239 1156 1300 1228 1216 1304 1219 1279 1231 1266 1201 1338 1248 1289 1246 1203 1235 1301 1216 1232 1256 1200 1275 1270 1281 1228 1196 1242 1250 1213 1258 1262 1246 1236 1275 1251 1228 1235 1204 1251 1215 1213 1266 1256 1248 1245 1292 1298 1259 1179 1244 1235 1190 1146 1297 1232 1193 1227 1252 1191 1250 1193 1247 1240 1180 1194 1192 1141 1259 1193 1170 1227 1235 1210 1123 1220 1211 1238 1170 1217 1172 1259 1207 1229 1196 1159 1189 1219 1182 1223 1189 1183 1288 1232 1238 1238 1199 1205 1200 1180 1212 1120 1233 1221 1226 1204 1135 1250 1243 1269 1213 1239 1165 1192 1214 1213 1183 1203 1228 1156 1195 1172 1205 1199 1245 1171 1218 1239 1229 1212 1153 1162 1161 1215 1204 1183 1184 1207 1214 1256 1167 1212 1269 1237 1266 1234 1162 1217 1180 1176 1222 1209 1254 1202 1222 1139 1209 1222 1243 1209 1268 1202 1169 1169 1280 1236 1203 1237 1218 1191 1214 1229 1266 1176 1169 1216 1182 1185 1210 1184 1218 1208 1199 1200 1250 1194 1207 1190 1211 1209 1230 1276 1207 1289 1222 1229 1230 1200 1228 1209 1216 1182 1169 1184 1248 1311 1178 1287 1183 1166 1192 1162 1208 1204 1245 1197 1194 1217 1197 1180 1229 1169 1245 1219 1195 1217 1235 1231 1169 1208 1212 1150 1256 1214 1229 1234 1173 1172 1199 1217 1238 1204 1236 1170 1184 1157 1262 1164 1147 1223 1228 1206 1176 1210 1195 1195 1195 1206 1281 1215 1153 1152 1190 1202 1161 1198 1239 1128 1169 1232 1165 1225 1173 1228 1171 1178 1193 1212 1194 1204 1258 1205 1117 1183 1202 1236 1224 1196 1151 1156 1128 1191 1181 1205 1215 1178 1241 1229 1200 1246 1186 1157 1155 1221 1177 1191 1201 1200 1181 1143 1217 1189 1243 1199 1244 1179 1212 1197 1248 1168 1203 1193 1161 1155 1216 1309 1276 1211 1178 1225 1235 1111 1185 1161 1234 1226 1185 1248 1243 1303 1214 1166 1167 1185 1180 1144 1233 1181 1203 1263 1202 1225 1189 1136 1154 1170 1150 1173 1171 1154 1166 1196 1245 1211 1132 1229 1208 1169 1229 1224 1158 1170 1202 1176 1160 1194 1236 1228 1190 1193 1163 1202 1218 1207 1272 1130 1154 1137 1204 1204 1186 1213 1193 1177 1211 1226 1181 1151 1205 1193 1099 1157 1212 1177 1173 1192 1225 1215 1228 1253 1183 1217 1191 1133 1133 1247 1232 1183 1177 1176 1180 1185 1211 1215 1227 1177 1159 1193 1147 1190 1160 1214 1267 1174 1157 1236 1169 1155 1285 1264 1182 1217 1210 1198 1209 1293 1211 1206 1197 1205 1226 1137 1217 1188 1229 1225 1273 1211 1165 1221 1257 1214 1229 1273 1192 1189 1267 1281 1231 1265 1153 1273 1228 1246 1221 1172 1300 1264 1275 1264 1219 1186 1217 1315 1237 1272 1247 1254 1230 1177 1282 1190 1265 1197 1241 1267 1281 1217 1220 1224 1257 1252 1174 1241 1262 1288 1274 1200 1240 1280 1222 1217 1238 1333 1302 1269 1316 1292 1267 1313 1262 1298 1311 1323 1369 1341 1293 1364 1339 1346 1318 1281 1334 1367 1326 1410 1302 1378 1381 1382 1415 1420 1415 1382 1374 1342 1478 1388 1388 1439 1394 1372 1382 1399 1427 1405 1400 1387 1405 1317 1346 1339 1366 1354 1308 1306 1321 1254 1266 1264 1298 1353 1334 1327 1306 1291 1258 1262 1235 1226 1281 1273 1281 1255 1287 1249 1228 1228 1239 1238 1223 1263 1265 1297 1227 1295 1270 1278 1283 1319 1328 1317 1294 1317 1258 1336 1290 1290 1369 1275 1356 1280 1304 1285 1308 1390 1302 1309 1307 1326 1296 1271 1232 1282 1228 1218 1277 1233 1268 1246 1216 1249 1198 1274 1229 1261 1254 1284 1252 1235 1204 1219 1201 1212 1149 1154 1173 1157 1186 1195 1178 1237 1257 1208 1211 1139 1135 1182 1166 1200 1184 1209 1238 1187 1152 1205 1185 1138 1220 1215 1187 1178 1154 1188 1185 1175 1164 1188 1215 1109 1172 1142 1245 1208 1133 1235 1162 1198 1135 1218 1113 1240 1117 1171 1177 1132 1131 1166 1144 1120 1203 1177 1128 1167 1127 1157 1218 1132 1223 1177 1157 1167 1138 1218 1163 1144 1192 1157 1252 1160 1165 1183 1216 1225 1198 1208 1182 1215 1205 1212 1213 1143 1186 1224 1167 1128 1215 1188 1209 1213 1141 1168 1161 1188 1205 1184 1185 1176 1219 1152 1189 1172 1169 1238 1207 1243 1173 1242 1230 1207 1252 1155 1229 1197 1198 1261 1253 1250 1276 1189 1272 1312 1266 1353 1267 1299 1345 1290 1320 1325 1310 1334 1351 1372 1378 1492 1348 1412 1411 1469 1395 1446 1418 1456 1471 1532 1517 1528 1541 1586 1550 1607 1601 1564 1654 1581 1578 1656 1616 1648 1629 1627 1608 1763 1730 1706 1664 1655 1635 1599 1623 1569 1589 1623 1613 1573 1503 1533 1507 1498 1481 1483 1498 1478 1442 1402 1445 1417 1432 1371 1417 1427 1387 1388 1404 1282 1361 1307 1287 1306 1299 1290 1316 1299 1276 1277 1243 1179 1266 1239 1282 1274 1240 1297 1236 1243 1261 1322 1365 1384 1290 1382 1382 1375 1444 1352 1438 1455 1462 1452 1452 1502 1490 1500 1459 1393 1363 1409 1320 1309 1359 1353 1332 1369 1311 1371 1403 1369 1348 1326 1215 1296 1223 1280 1217 1236 1264 1228 1200 1187 1218 1177 1185 1228 1131 1220 1229 1185 1211 1143 1268 1205 1242 1209 1155 1182 1172 1147 1196 1199 1205 1134 1201 1218 1183 1163 1221 1302 1183 1187 1206 1116 1230 1245 1206 1155 1196 1239 1178 1169 1207 1233 1261 1154 1106 1206 1197 1190 1136 1235 1243 1168 1160 1194 1227 1222 1248 1217 1229 1205 1230 1245 1213 1229 1316 1248 1305 1237 1264 1209 1198 1268 1266 1251 1298 1298 1294 1273 1272 1313 1274 1228 1291 1284 1274 1285 1273 1296 1290 1325 1285 1273 1287 1296 1295 1309 1320 1296 1291 1299 1323 1261 1275 1216 1284 1274 1265 1220 1256 1315 1313 1338 1295 1262 1208 1254 1202 1270 1295 1254 1232 1216 1211 1201 1223 1233 1251 1237 1216 1245 1227 1166 1153 1122 1135 1222 1199 1258 1195 1213 1201 1166 1173 1170 1200 1200 1224 1177 1165 1264 1262 1151 1179 1112 1263 1146 1214 1176 1212 1187 1168 1176 1163 1193 1129 1169 1147 1217 1256 1119 1162 1127 1125 1235 1219 1116 1184 1221 1195 1094 1122 1188 1176 1200 1207 1181 1147 1204 1176 1161 1147 1210 1197 1125 1215 1238 1192 1154 1173 1100 1190 1157 1188 1134 1178 1149 1165 1208 1244 1247 1161 1217 1112 1225 1119 1180 1182 1201 1194 1231 1163 1161 1186 1153 1163 1100 1196 1128 1180 1181 1187 1265 1146 1169 1144 1130 1198 1180 1168 1173 1132 1139 1164 1172 1187 1155 1187 1158 1256 1141 1164 1199 1129 1122 1158 1192 1207 1158 1216 1160 1197 1206 1128 1110 1154 1181 1193 1109 1149 1049 1089 1113 1258 1177 1159 1126 1183 1163 1177 1100 1166 1157 1150 1197 1153 1163 1092 1107 1171 1201 1147 1168 1151 1142 1136 1203 1161 1144 1153 1166 1207 1167 1158 1112 1196 1153 1107 1170 1140 1136 1124 1071 1165 1148 1164 1169 1169 1085 1149 1185 1141 1069 1169 1135 1205 1165 1186 1141 1147 1162 1207 1061 1188 1133 1173 1133 1076 1205 1200 1096 1112 1171 1196 1133 1078 1136 1156 1172 1157 1146 1144 1159 1134 1187 1185 1076 1185 1140 1115 1137 1178 1138 1100 1176 1225 1220 1172 1203 1167 1179 1229 1154 1154 1152 1107 1145 1134 1160 1140 1176 1130 1198 1207 1188 1190 1138 1128 1130 1197 1157 1104 1162 1165 1227 1134 1167 1188 1203 1134 1143 1138 1089 1191 1121 1115 1154 1190 1127 1194 1110 1194 1121 1080 1156 1092 1125 1188 1080 1158 1160 1175 1133 1070 1161 1125 1124 1153 1174 1157 1062 1166 1167 1220 1154 1086 1147 1174 1124 1093 1142 1153 1108 1101 1145 1095 1128 1122 1141 1104 1187 1131 1147 1160 1169 1132 1149 1147 1103 1170 1089 1164 1107 1146 1109 1196 1131 1170 1206 1162 1240 1158 1161 1198 1212 1096 1177 1182 1136 1122 1105 1115 1171 1127 1150 1098 1089 1215 1196 1145 1158 1150 1083 1163 1135 1182 1154 1172 1075 1143 1139 1142 1141 1130 1233 1153 1131 1147 1205 1133 1140 1184 1201 1137 1109 1120 1127 1152 1129 1172 1154 1170 1133 1138 1086 1151 1167 1136 1135 1207 1157 1183 1198 1136 1141 1138 1121 1132 1131 1201 1179 1190 1144 1154 1157 1126 1157 1157 1156 1090 1130 1142 1156 1160 1154 1167 1102 1141 1159 1135 1163 1133 1121 1122 1158 1170 1176 1222 1135 1209 1197 1198 1192 1202 1155 1210 1177 1188 1189 1199 1174 1216 1178 1143 1155 1181 1133 1201 1215 1223 1255 1220 1212 1200 1225 1200 1251 1175 1146 1266 1200 1212 1203 1208 1190 1237 1192 1183 1219 1228 1226 1251 1179 1190 1180 1264 1168 1206 1209 1241 1161 1167 1168 1150 1209 1236 1222 1171 1193 1176 1266 1160 1184 1110 1157 1195 1124 1182 1165 1208 1128 1136 1215 1247 1171 1120 1181 1141 1152 1164 1187 1214 1178 1183 1181 1096 1180 1077 1140 1167 1128 1135 1164 1190 1196 1106 1189 1149 1182 1204 1207 1216 1157 1138 1134 1142 1173 1180 1166 1090 1166 1112 1181 1145 1166 1146 1163 1114 1185 1225 1193 1107 1192 1155 1083 1151 1099 1051 1114 1117 1149 1212 1144 1172 1192 1112 1166 1155 1194 1215 1159 1160 1135 1141 1172 1105 1175 1136 1116 1207 1144 1195 1140 1098 1125 1164 1213 1105 1123 1159 1160 1168 1146 1084 1119 1128 1160 1154 1203 1187 1165 1209 1178 1210 1202 1136 1092 1152 1217 1147 1164 1130 1243 1164 1125 1155 1154 1168 1167 1163 1208 1151 1181 1153 1113 1109 1207 1185 1186 1168 1133 1171 1128 1167 1155 1140 1159 1153 1169 1199 1141 1176 1151 1174 1153 1170 1213 1101 1122 1145 1101 1131 1129 1105 1123 1120 1087 1188 1098 1129 1157 1205 1150 1092 1162 1176 1168 1205 1111 1114 1156 1100 1133 1158 1151 1134 1173 1117 1151 1155 1166 1138 1126 1171 1227 1146 1182 1123 1140 1137 1141 1178 1161 1113 1153 1172 1161 1169 1175 1148 1202 1159 1138 1174 1211 1188 1097 1238 1170 1151 1157 1231 1160 1219 1178 1161 1187 1227 1155 1188 1209 1142 1210 1168 1202 1205 1166 1193 1188 1178 1197 1197 1234 1250 1162 1240 1225 1296 1277 1167 1193 1268 1234 1251 1250 1271 1200 1283 1302 1279 1229 1329 1277 1279 1249 1333 1303 1299 1253 1296 1252 1313 1347 1324 1299 1348 1286 1253 1275 1289 1375 1323 1324 1303 1305 1304 1239 1272 1291 1291 1237 1261 1330 1311 1243 1175 1262 1260 1250 1217 1245 1227 1252 1204 1192 1235 1205 1278 1251 1207 1185 1201 1239 1226 1203 1159 1236 1248 1253 1199 1179 1209 1159 1148 1199 1166 1206 1185 1158 1211 1174 1131 1195 1216 1203 1177 1191 1137 1229 1223 1160 1210 1222 1184 1198 1177 1218 1207 1237 1233 1168 1209 1205 1154 1206 1243 1219 1220 1227 1155 1211 1246 1247 1161 1209 1211 1141 1125 1126 1202 1192 1170 1101 1197 1179 1190 1188 1178 1156 1142 1159 1227 1184 1219 1192 1177 1219 1209 1206 1226 1095 1170 1127 1202 1226 1096 1163 1192 1149 1163 1116 1148 1087 1162 1189 1136 1172 1159 1161 1181 1132 1147 1218 1117 1129 1202 1137 1132 1119 1153 1132 1149 1098 1189 1114 1136 1145 1142 1120 1143 1130 1178 1159 1123 1159 1138 1201 1168 1118 1162 1189 1185 1086 1170 1099 1105 1125 1151 1155 1148 1116 1180 1126 1118 1172 1102 1178 1157 1075 1170 1211 1204 1208 1155 1162 1126 1176 1114 1205 1158 1096 1146 1151 1151 1144 1172 1141 1088 1171 1186 1140 1143 1201 1157 1130 1181 1127 1139 1159 1123 1152 1166 1150 1228 1147 1186 1152 1176 1142 1162 1120 1180 1074 1192 1174 1271 1155 1210 1135 1108 1202 1201 1156 1172 1135 1114 1137 1149 1156 1151 1139 1141 1140 1161 1124 1170 1112 1102 1152 1126 1166 1150 1156 1146 1151 1108 1157 1144 1107 1127 1149 1189 1146 1114 1198 1173 1146 1084 1141 1134 1163 1108 1094 1137 1172 1071 1130 1129 1193 1159 1123 1181 1156 1185 1188 1159 1167 1218 1193 1218 1138 1157 1153 1123 1131 1184 1149 1163 1139 1178 1114 1125 1086 1178 1082 1167 1180 1167 1118 1185 1138 1135 1110 1123 1151 1177 1144 1181 1167 1157 1226 1128 1179 1140 1167 1142 1175 1196 1110 1188 1195 1124 1122 1236 1207 1124 1231 1228 1143 1194 1149 1118 1157 1114 1144 1156 1148 1160 1144 1177 1132 1152 1148 1113 1134 1109 1155 1116 1141 1187 1119 1155 1109 1204 1112 1143 1159 1159 1182 1142 1150 1144 1168 1188 1145 1126 1107 1184 1108 1154 1181 1127 1174 1129 1162 1060 1185 1180 1183 1182 1161 1179 1160 1154 1165 1195 1161 1200 1157 1139 1135 1129 1159 1113 1138 1123 1145 1147 1187 1118 1142 1091 1122 1202 1228 1162 1138 1151 1137 1143 1143 1206 1190 1131 1225 1207 1182 1131 1132 1171 1122 1166 1192 1223 1132 1210 1145 1147 1131 1079 1119 1147 1145 1203 1230 1157 1157 1103 1182 1108 1173 1145 1208 1101 1176 1143 1147 1139 1133 1109 1165 1086 1187 1071 1182 1135 1136 1224 1149 1177 1176 1223 1152 1175 1182 1199 1148 1127 1184 1156 1139 1166 1166 1123 1078 1197 1156 1181 1128 1143 1168 1167 1251 1154 1136 1188 1157 1159 1139 1143 1161 1197 1207 1233 1119 1104 1173 1139 1158 1106 1168 1135 1168 1119 1144 1185 1103 1164 1132 1208 1128 1206 1145 1134 1176 1156 1157 1172 1097 1126 1161 1174 1193 1171 1165 1128 1159 1115 1245 1150 1151 1092 1139 1135 1139 1110 1148 1129 1226 1166 1153 1124 1183 1154 1195 1169 1165 1167 1092 1182 1141 1151 1206 1143 1143 1110 1137 1199 1201 1188 1147 1175 1139 1198 1165 1225 1163 1103 1174 1204 1235 1147 1222 1151 1196 1227 1174 1148 1153 1153 1143 1170 1153 1190 1185 1187 1163 1199 1160 1130 1172 1145 1201 1183 1240 1167 1197 1135 1158 1172 1194 1126 1190 1260 1206 1189 1188 1136 1180 1201 1220 1154 1149 1170 1227 1251 1208 1202 1161 1193 1223 1264 1170 1198 1234 1162 1195 1266 1197 1214 1213 1163 1176 1151 1244 1254 1238 1243 1203 1193 1148 1229 1244 1222 1188 1216 1197 1224 1257 1282 1174 1258 1165 1224 1167 1212 1225 1223 1256 1234 1200 1184 1230 1234 1244 1247 1237 1195 1198 1210 1227 1207 1176 1275 1213 1253 1227 1179 1251 1206 1231 1253 1196 1216 1231 1235 1149 1226 1258 1242 1247 1268 1197 1264 1207 1206 1164 1220 1197 1224 1200 1251 1197 1203 1209 1161 1195 1215 1217 1282 1243 1222 1178 1184 1254 1200 1202 1214 1195 1195 1198 1225 1149 1171 1271 1186 1229 1211 1151 1210 1178 1208 1193 1229 1202 1187 1183 1207 1156 1231 1209 1165 1197 1191 1207 1164 1189 1250 1181 1260 1174 1140 1122 1172 1263 1241 1196 1298 1138 1167 1223 1158 1253 1211 1185 1128 1181 1189 1210 1272 1198 1251 1174 1167 1169 1146 1250 1262 1202 1218 1214 1175 1163 1154 1246 1229 1189 1240 1249 1202 1260 1243 1268 1199 1241 1231 1228 1269 1306 1269 1281 1268 1231 1216 1159 1223 1230 1218 1198 1226 1182 1200 1225 1247 1194 1261 1256 1216 1200 1165 1185 1166 1135 1194 1193 1198 1228 1252 1204 1219 1216 1142 1180 1150 1155 1109 1249 1131 1142 1266 1180 1196 1114 1160 1102 1168 1160 1209 1129 1164 1176 1183 1167 1233 1195 1179 1203 1233 1153 1219 1190 1172 1233 1205 1102 1165 1248 1175 1177 1219 1230 1213 1267 1265 1206 1204 1244 1210 1245 1266 1234 1236 1233 1335 1344 1326 1349 1297 1268 1259 1318 1257 1388 1400 1305 1377 1391 1361 1375 1359 1367 1430 1395 1403 1412 1421 1353 1431 1380 1364 1374 1446 1400 1427 1472 1534 1465 1550 1524 1518 1533 1566 1504 1509 1500 1532 1545 1445 1523 1471 1517 1519 1558 1533 1528 1504 1625 1581 1490 1533 1584 1492 1477 1526 1491 1533 1558 1512 1521 1502 1479 1537 1462 1464 1542 1430 1413 1476 1459 1440 1416 1416 1376 1448 1409 1371 1423 1305 1364 1365 1334 1359 1333 1296 1361 1370 1279 1315 1263 1304 1314 1335 1336 1310 1305 1324 1298 1262 1248 1236 1355 1284 1309 1299 1257 1242 1223 1193 1260 1230 1246 1225 1225 1310 1250 1257 1245 1247 1245 1287 1203 1191 1265 1282 1282 1196 1174 1229 1288 1263 1230 1295 1316 1230 1235 1292 1265 1287 1225 1262 1316 1266 1246 1277 1297 1244 1267 1268 1249 1313 1294 1296 1254 1223 1287 1345 1200 1199 1277 1195 1249 1320 1300 1243 1326 1273 1295 1305 1247 1268 1253 1258 1284 1269 1245 1228 1256 1316 1247 1225 1215 1294 1252 1246 1224 1213 1255 1190 1225 1263 1251 1282 1213 1203 1235 1290 1255 1205 1235 1192 1223 1196 1201 1185 1199 1223 1264 1243 1197 1196 1250 1289 1286 1276 1250 1245 1204 1225 1245 1214 1228 1239 1233 1324 1280 1207 1245 1248 1259 1274 1246 1265 1214 1182 1194 1220 1236 1183 1253 1252 1211 1242 1283 1264 1297 1237 1215 1206 1189 1212 1250 1202 1245 1156 1236 1255 1216 1192 1206 1220 1216 1235 1262 1210 1233 1192 1229 1160 1256 1216 1128 1237 1202 1233 1256 1199 1219 1187 1233 1211 1156 1180 1233 1236 1201 1183 1210 1229 1216 1225 1265 1182 1291 1225 1188 1190 1146 1231 1190 1206 1263 1242 1199 1228 1197 1179 1176 1200 1236 1205 1186 1151 1168 1218 1212 1240 1182 1214 1202 1148 1248 1177 1170 1222 1187 1247 1220 1197 1109 1204 1085 1156 1218 1184 1174 1161 1183 1128 1213 1162 1189 1172 1098 1228 1265 1246 1177 1169 1274 1210 1196 1167 1197 1158 1242 1174 1219 1213 1148 1256 1213 1137 1163 1221 1227 1180 1184 1181 1292 1169 1205 1169 1156 1218 1235 1215 1140 1211 1158 1171 1130 1168 1165 1233 1171 1152 1191 1180 1203 1177 1168 1120 1200 1189 1205 1224 1114 1149 1190 1166 1187 1155 1175 1165 1167 1157 1147 1131 1206 1173 1174 1162 1207 1200 1179 1222 1199 1180 1135 1134 1226 1142 1230 1175 1227 1126 1174 1184 1160 1121 1234 1155 1206 1191 1132 1177 1242 1204 1255 1157 1174 1186 1213 1120 1182 1160 1207 1176 1198 1180 1236 1179 1215 1152 1181 1176 1223 1189 1143 1144 1146 1148 1172 1166 1137 1131 1211 1125 1209 1129 1155 1195 1198 1159 1133 1172 1248 1143 1179 1225 1203 1198 1179 1213 1192 1193 1134 1197 1133 1125 1201 1196 1187 1135 1178 1220 1182 1163 1194 1204 1176 1210 1120 1194 1223 1201 1129 1199 1256 1172 1166 1203 1149 1170 1155 1155 1218 1176 1165 1202 1136 1131 1177 1162 1215 1161 1145 1134 1158 1222 1155 1133 1237 1214 1210 1162 1161 1161 1157 1199 1195 1197 1160 1145 1153 1137 1168 1198 1177 1139 1224 1124 1153 1200 1224 1158 1164 1165 1148 1209 1175 1118 1222 1186 1217 1190 1188 1168 1191 1203 1144 1193 1217 1232 1145 1168 1204 1148 1132 1112 1201 1262 1112 1192 1189 1159 1190 1170 1111 1174 1169 1202 1138 1266 1183 1203 1151 1195 1185 1181 1211 1216 1244 1163 1165 1242 1189 1205 1216 1149 1169 1267 1149 1196 1145 1184 1213 1145 1140 1193 1183 1205 1153 1172 1189 1233 1244 1225 1201 1186 1179 1171 1213 1204 1193 1125 1162 1178 1220 1145 1248 1197 1134 1186 1237 1188 1228 1210 1179 1209 1223 1241 1208 1253 1256 1211 1245 1164 1240 1273 1195 1184 1248 1223 1210 1234 1173 1182 1195 1191 1122 1234 1207 1224 1277 1236 1203 1208 1232 1208 1205 1208 1181 1171 1201 1144 1273 1191 1236 1199 1233 1162 1178 1186 1193 1220 1255 1193 1225 1214 1127 1204 1176 1264 1210 1229 1144 1212 1162 1161 1227 1164 1214 1238 1168 1208 1167 1218 1214 1247 1183 1255 1214 1159 1201 1205 1216 1168 1214 1221 1223 1222 1187 1119 1122 1175 1214 1154 1212 1163 1214 1202 1190 1216 1200 1197 1249 1121 1149 1211 1238 1182 1173 1205 1219 1136 1205 1189 1174 1176 1135 1120 1178 1163 1229 1193 1218 1194 1236 1178 1207 1222 1186 1150 1140 1154 1215 1188 1185 1278 1228 1188 1204 1105 1222 1246 1174 1170 1191 1181 1159 1211 1217 1152 1242 1169 1201 1194 1198 1188 1130 1178 1108 1187 1171 1137 1174 1184 1217 1157 1226 1180 1199 1220 1240 1153 1130 1198 1229 1198 1202 1209 1155 1217 1229 1202 1180 1229 1148 1198 1178 1180 1196 1122 1175 1223 1191 1142 1163 1165 1189 1175 1250 1162 1229 1221 1224 1173 1160 1241 1154 1166 1182 1226 1174 1200 1212 1224 1198 1189 1189 1219 1188 1139 1175 1145 1184 1194 1237 1211 1156 1208 1163 1213 1197 1229 1193 1211 1221 1210 1190 1174 1157 1157 1168 1167 1198 1190 1230 1175 1249 1276 1255 1154 1204 1214 1255 1266 1181 1194 1166 1174 1210 1242 1206 1238 1238 1246 1285 1230 1189 1282 1253 1231 1243 1298 1242 1237 1166 1272 1299 1173 1216 1193 1264 1215 1303 1210 1274 1305 1341 1293 1238 1270 1275 1302 1333 1330 1357 1293 1301 1375 1351 1295 1357 1374 1337 1388 1397 1347 1396 1392 1377 1412 1348 1408 1438 1344 1357 1366 1335 1368 1368 1329 1362 1440 1364 1422 1415 1410 1412 1408 1351 1343 1377 1484 1464 1391 1358 1455 1459 1373 1418 1389 1345 1377 1397 1375 1398 1353 1416 1332 1418 1368 1413 1285 1305 1400 1262 1331 1319 1327 1338 1378 1235 1391 1339 1247 1340 1324 1325 1325 1307 1273 1318 1295 1287 1186 1260 1334 1301 1301 1286 1292 1266 1239 1249 1232 1304 1246 1236 1194 1213 1317 1244 1243 1278 1224 1246 1276 1271 1182 1260 1279 1226 1165 1217 1207 1245 1265 1207 1238 1175 1186 1231 1207 1225 1248 1178 1253 1274 1189 1241 1234 1255 1235 1256 1237 1217 1313 1198 1194 1189 1315 1191 1236 1184 1228 1248 1248 1252 1265 1285 1287 1256 1236 1252 1286 1216 1235 1248 1228 1271 1232 1278 1277 1283 1249 1227 1219 1311 1232 1230 1321 1222 1293 1260 1226 1223 1255 1301 1234 1226 1278 1189 1220 1226 1309 1258 1240 1264 1200 1227 1265 1292 1227 1232 1215 1214 1227 1247 1255 1208 1227 1258 1229 1235 1228 1262 1258 1278 1242 1211 1251 1256 1259 1307 1212 1214 1240 1213 1196 1271 1195 1206 1186 1228 1200 1250 1297 1185 1248 1193 1214 1231 1149 1242 1228 1257 1217 1216 1171 1176 1189 1214 1214 1155 1207 1228 1284 1203 1204 1212 1212 1198 1158 1179 1182 1238 1250 1156 1256 1165 1160 1205 1254 1223 1168 1205 1232 1198 1275 1241 1238 1207 1159 1147 1233 1212 1228 1178 1253 1211 1240 1221 1217 1147 1241 1182 1270 1236 1229 1189 1256 1205 1213 1138 1172 1242 1126 1236 1140 1236 1211 1201 1202 1183 1217 1151 1215 1225 1223 1225 1222 1226 1240 1168 1177 1279 1188 1168 1220 1158 1129 1187 1264 1218 1218 1192 1159 1167 1144 1236 1226 1205 1238 1228 1248 1249 1178 1251 1213 1185 1236 1255 1179 1207 1180 1181 1294 1260 1192 1133 1156 1173 1144 1193 1161 1187 1242 1209 1237 1200 1199 1164 1204 1220 1183 1148 1169 1181 1145 1197 1190 1220 1239 1182 1180 1191 1154 1204 1094 1246 1203 1209 1217 1192 1223 1120 1180 1221 1155 1150 1208 1171 1164 1190 1159 1193 1143 1119 1161 1209 1227 1190 1128 1174 1214 1198 1186 1172 1171 1164 1175 1234 1201 1221 1162 1187 1220 1166 1160 1241 1233 1139 1173 1268 1193 1154 1236 1171 1185 1179 1165 1217 1218 1189 1215 1199 1241 1262 1211 1149 1166 1189 1160 1212 1210 1200 1232 1195 1247 1181 1142 1161 1120 1240 1213 1198 1213 1199 1214 1186 1175 1139 1205 1250 1171 1227 1157 1170 1203 1207 1229 1170 1203 1161 1139 1191 1229 1192 1185 1217 1131 1257 1196 1183 1217 1166 1254 1168 1240 1247 1218 1179 1219 1277 1220 1204 1225 1144 1184 1249 1164 1224 1230 1221 1184 1210 1184 1209 1194 1130 1171 1182 1254 1218 1255 1106 1213 1191 1194 1216 1224 1181 1153 1168 1196 1157 1249 1213 1171 1194 1212 1190 1191 1231 1219 1172 1153 1179 1160 1177 1177 1183 1142 1185 1160 1110 1158 1228 1137 1260 1198 1175 1161 1215 1217 1208 1173 1137 1249 1187 1239 1172 1211 1199 1200 1098 1118 1211 1181 1193 1156 1153 1148 1129 1180 1196 1223 1206 1153 1138 1218 1164 1149 1138 1196 1214 1176 1162 1195 1197 1250 1177 1215 1206 1191 1218 1182 1185 1227 1216 1235 1206 1195 1238 1188 1184 1209 1199 1134 1213 1278 1209 1260 1251 1235 1259 1184 1243 1218 1238 1231 1197 1269 1256 1177 1260 1237 1200 1197 1235 1190 1283 1240 1136 1259 1213 1233 1225 1215 1265 1235 1177 1157 1285 1228 1277 1254 1243 1302 1184 1229 1196 1250 1251 1219 1244 1246 1230 1197 1251 1236 1254 1249 1269 1243 1216 1264 1230 1285 1221 1351 1285 1242 1228 1220 1311 1239</counts>
			</dataPoints>
		</scan>
	</xrdMeasurement>
</xrdMeasurements>
