<?xml version="1.0"?>
<xrdMeasurements xmlns="http://www.xrdml.com/XRDMeasurement/2.3" xmlns:xsi="http://www.w3.org/2001/XMLSchema-instance" xsi:schemaLocation="http://www.xrdml.com/XRDMeasurement/2.3 http://www.xrdml.com/XRDMeasurement/2.3/XRDMeasurement.xsd" status="Completed" recordIdentifier="{87CC9DA4-55DE-4501-A243-4DDE1650118E}">
	<comment>
		<entry/>
	</comment>
	<sample type="To be analyzed">
		<id>GPSS_Li1p5Mn0p5Sc0p5Cl4_110625_690d9f07f040177efa2b78e6</id>
		<name></name>
		<preparedBy></preparedBy>
	</sample>
	<xrdMeasurement measurementType="Scan" status="Completed" sampleMode="Reflection">
		<usedWavelength intended="K-Alpha 1">
			<kAlpha1 unit="Angstrom">1.5405980</kAlpha1>
			<kAlpha2 unit="Angstrom">1.5444260</kAlpha2>
			<kBeta unit="Angstrom">1.3922500</kBeta>
			<ratioKAlpha2KAlpha1>0.5000</ratioKAlpha2KAlpha1>
		</usedWavelength>
		<incidentBeamPath>
			<radius unit="mm">145.00</radius>
			<xRayTube id="1010048" name="Empyrean Cu LFF HR (9430 033 7310x)">
				<tension unit="kV">40.0</tension>
				<current unit="mA">15.0</current>
				<anodeMaterial>Cu</anodeMaterial>
				<focus type="Line">
					<length unit="mm">12.0</length>
					<width unit="mm">0.4</width>
					<takeOffAngle unit="deg">6.0</takeOffAngle>
				</focus>
			</xRayTube>
			<sollerSlit id="21010002" name="Soller slits 0.04 rad.">
				<opening unit="rad">0.0400</opening>
			</sollerSlit>
			<mask id="22031000" name="Fixed mask 13 mm">
				<width unit="mm">9.00</width>
			</mask>
			<divergenceSlit id="22120001" name="Divergence slit 1°" xsi:type="fixedDivergenceSlitType">
				<distanceToSample unit="mm">50.00</distanceToSample>
				<height unit="mm">1.52</height>
			</divergenceSlit>
		</incidentBeamPath>
		<sampleMovement xsi:type="spinningSampleMovementType">
			<spinnerRevolutionTime unit="seconds">1.0</spinnerRevolutionTime>
		</sampleMovement>
		<diffractedBeamPath>
			<radius unit="mm">145.00</radius>
			<antiScatterSlit id="22090040" name="AS slit 9 mm (PIXcel)" xsi:type="fixedAntiScatterSlitType">
				<height unit="mm">9.00</height>
			</antiScatterSlit>
			<sollerSlit id="21020003" name="Large Soller slits 0.04 rad.">
				<opening unit="rad">0.0400</opening>
			</sollerSlit>
			<filter id="20030001" name="Large beta-filter Nickel">
				<material>Ni</material>
				<thickness unit="mm">0.020</thickness>
			</filter>
			<detector id="7010019" name="PIXcel1D-Medipix3 detector" xsi:type="rtmsDetectorType">
				<phd unit="keV">
					<lowerLevel>4.02</lowerLevel>
					<upperLevel>11.27</upperLevel>
				</phd>
				<mode>Scanning</mode>
				<activeLength unit="deg">5.542</activeLength>
			</detector>
		</diffractedBeamPath>
		<scan appendNumber="0" mode="Continuous" scanAxis="Gonio" status="Completed">
			<header>
				<startTimeStamp>2025-11-08T16:17:44-08:00</startTimeStamp>
				<endTimeStamp>2025-11-08T16:25:51-08:00</endTimeStamp>
				<author>
					<name>AutomatedUser</name>
				</author>
				<source>
					<applicationSoftware version="1.7b (136)">PANalytical Aeris Instrument Suite</applicationSoftware>
					<instrumentControlSoftware version="3.2.00000000 20240306">AERIS</instrumentControlSoftware>
					<instrumentID>950485</instrumentID>
				</source>
			</header>
			<dataPoints>
				<positions axis="2Theta" unit="deg">
					<startPosition>10.00943322</startPosition>
					<endPosition>99.99442286</endPosition>
				</positions>
				<positions axis="Omega" unit="deg">
					<startPosition>5.00471661</startPosition>
					<endPosition>49.99721143</endPosition>
				</positions>
				<commonCountingTime unit="seconds">12.495</commonCountingTime>
				<counts unit="counts">3045 3095 3108 3086 3087 3130 3043 3154 2986 3135 3118 3135 3089 3102 3125 3097 3069 3076 3123 3105 3176 3203 3208 3167 3261 3321 3186 3185 3082 3095 3178 3136 3059 3173 3157 3169 3291 3199 3035 3202 3235 3216 3227 3222 3184 3350 3318 3218 3294 3324 3337 3254 3275 3360 3262 3360 3408 3415 3363 3256 3294 3441 3439 3338 3282 3374 3310 3377 3287 3359 3385 3468 3369 3413 3388 3345 3418 3459 3443 3462 3341 3456 3479 3361 3463 3412 3417 3428 3471 3503 3306 3293 3260 3241 3354 3371 3379 3411 3369 3402 3277 3332 3421 3264 3412 3444 3252 3296 3354 3406 3307 3317 3257 3336 3446 3274 3269 3322 3375 3310 3358 3310 3362 3399 3264 3258 3369 3312 3346 3411 3418 3305 3338 3376 3358 3430 3314 3469 3491 3303 3375 3407 3370 3333 3292 3333 3394 3393 3239 3331 3314 3380 3215 3276 3439 3251 3379 3394 3340 3346 3412 3390 3387 3386 3242 3263 3285 3313 3332 3241 3339 3268 3312 3372 3361 3314 3280 3365 3264 3384 3280 3394 3385 3252 3325 3256 3291 3269 3313 3300 3312 3267 3272 3332 3322 3286 3265 3187 3279 3317 3353 3361 3308 3301 3312 3286 3289 3234 3242 3288 3274 3278 3242 3301 3260 3244 3128 3182 3279 3167 3201 3285 3242 3205 3147 3257 3235 3255 3228 3303 3204 3220 3207 3101 3234 3113 3145 3169 3243 3189 3284 3154 3234 3170 3202 3157 3246 3134 3287 3354 3285 3183 3279 3240 3138 3194 3263 3295 3180 3250 3258 3198 3276 3120 3205 3216 3196 3196 3188 3223 3222 3151 3146 3235 3225 3201 3178 3193 3238 3272 3127 3184 3138 3289 3131 3304 3202 3331 3280 3264 3238 3330 3196 3301 3292 3223 3301 3367 3274 3206 3255 3239 3253 3272 3254 3162 3331 3375 3314 3429 3317 3313 3291 3375 3380 3369 3400 3386 3315 3376 3401 3283 3272 3312 3366 3442 3475 3352 3455 3342 3371 3362 3389 3449 3384 3421 3336 3474 3508 3553 3502 3469 3376 3504 3451 3461 3442 3391 3550 3573 3459 3613 3576 3570 3556 3549 3446 3631 3533 3662 3549 3595 3697 3594 3654 3562 3635 3580 3591 3568 3645 3629 3588 3610 3698 3542 3595 3668 3645 3619 3704 3809 3587 3788 3690 3829 3738 3705 3692 3693 3790 3810 3807 3837 3868 3764 3858 3893 3882 3856 3952 3977 3997 4006 4129 4136 4059 4173 4220 4261 4154 4287 4409 4409 4539 4560 4582 4715 4751 4874 4984 5144 5211 5237 5415 5634 5833 5818 6141 6199 6383 6363 6652 6998 7013 7027 7258 7338 7542 7519 7732 7874 7849 8002 8058 8063 7766 7635 7432 7236 6892 6665 6350 5863 5703 5456 5522 5142 5105 4952 4994 4764 4762 4597 4304 4185 4230 4023 4069 3979 3977 3892 3799 3809 3806 3744 3768 3767 3767 3774 3741 3812 3748 3595 3713 3679 3706 3632 3618 3632 3647 3605 3505 3612 3540 3589 3469 3593 3607 3545 3481 3527 3538 3588 3580 3470 3508 3571 3451 3538 3357 3460 3379 3433 3553 3373 3412 3451 3422 3351 3453 3304 3440 3526 3397 3408 3282 3457 3300 3375 3314 3320 3371 3442 3342 3538 3430 3343 3354 3306 3426 3457 3354 3379 3421 3519 3428 3498 3406 3454 3452 3455 3429 3470 3473 3493 3483 3557 3489 3468 3439 3351 3422 3439 3366 3388 3340 3286 3232 3332 3335 3102 3237 3219 3308 3249 3279 3202 3288 3175 3174 3141 3180 3164 3190 3232 3131 3091 3234 3219 3079 3188 3088 3193 3148 3119 3135 3121 3134 3113 3207 3186 3130 3065 3115 3110 3186 3079 3232 3155 3169 3010 3083 3097 3006 3196 2977 3007 3064 3118 3053 3119 3136 3119 3030 3191 3075 2965 3141 3157 3098 3104 2995 3084 3076 3071 3120 3098 3042 3094 2982 2963 3111 3116 3026 3006 3021 2993 3126 3047 3026 2975 3065 3103 3041 2991 3014 3065 3050 3071 3076 2921 3016 2998 3008 3093 2979 3047 3057 2918 2970 3002 3032 2988 3019 2964 3019 3049 2979 2995 3031 2911 2958 3050 2988 2981 3065 2958 2993 2997 2932 2979 2888 3050 2930 2851 2931 2948 3001 2869 2996 2970 2953 2940 3044 2923 2988 2963 2997 2986 2993 3011 2993 2995 2986 3042 2948 3051 3016 3043 3026 2995 3003 2992 2986 3026 3073 2966 3100 3061 3016 3067 3056 3019 2931 3042 2991 2951 3010 3024 2890 2937 2959 3012 2907 2850 2847 2898 2940 2963 2969 2952 2852 2851 2921 2845 2822 2868 2898 2820 2800 2874 2856 2908 2813 2837 2802 2899 2912 2813 2896 2739 2884 2732 2867 2820 2747 2823 2788 2769 2854 2762 2741 2723 2807 2827 2781 2772 2808 2802 2821 2831 2802 2829 2833 2831 2702 2782 2858 2777 2859 2740 2847 2857 2818 2737 2847 2772 2796 2795 2827 2843 2702 2719 2852 2834 2801 2776 2823 2766 2698 2908 2889 2798 2792 2855 2763 2741 2706 2871 2645 2781 2717 2752 2751 2723 2795 2773 2823 2742 2652 2734 2933 2765 2672 2844 2677 2759 2800 2713 2738 2750 2739 2756 2671 2705 2738 2660 2691 2660 2735 2736 2754 2700 2726 2751 2680 2704 2697 2708 2614 2633 2635 2725 2681 2697 2658 2734 2686 2690 2555 2719 2649 2693 2648 2725 2751 2723 2741 2678 2748 2691 2677 2690 2630 2660 2574 2648 2662 2746 2692 2614 2719 2554 2646 2607 2648 2697 2658 2545 2668 2775 2687 2627 2719 2606 2562 2609 2693 2733 2690 2664 2780 2700 2720 2710 2673 2646 2704 2735 2667 2593 2748 2803 2667 2673 2646 2585 2655 2653 2630 2688 2711 2604 2691 2660 2734 2511 2604 2581 2654 2608 2611 2639 2606 2558 2489 2589 2571 2542 2579 2541 2625 2514 2567 2564 2567 2543 2584 2612 2583 2547 2540 2573 2677 2567 2643 2510 2579 2555 2572 2464 2482 2525 2559 2580 2497 2590 2479 2619 2619 2558 2527 2488 2608 2528 2504 2478 2633 2590 2494 2600 2512 2581 2542 2533 2589 2589 2637 2507 2659 2546 2548 2533 2467 2538 2563 2504 2532 2589 2639 2475 2606 2610 2553 2512 2583 2563 2580 2580 2497 2565 2573 2548 2543 2587 2595 2554 2586 2559 2633 2603 2524 2507 2600 2596 2543 2585 2574 2560 2558 2540 2554 2463 2635 2646 2450 2507 2530 2615 2641 2681 2612 2510 2613 2481 2551 2533 2585 2557 2523 2518 2648 2643 2540 2583 2663 2552 2550 2542 2550 2475 2554 2437 2648 2536 2596 2580 2520 2693 2487 2542 2608 2466 2673 2527 2573 2631 2590 2513 2498 2521 2556 2398 2507 2612 2555 2482 2680 2430 2470 2534 2493 2528 2446 2486 2472 2571 2435 2422 2585 2447 2438 2420 2396 2465 2416 2436 2500 2494 2470 2513 2461 2436 2412 2341 2477 2366 2378 2444 2382 2383 2403 2422 2256 2557 2445 2374 2334 2374 2386 2354 2331 2373 2340 2328 2385 2376 2289 2297 2320 2436 2286 2305 2324 2337 2298 2345 2298 2250 2380 2301 2266 2299 2292 2295 2332 2350 2224 2237 2256 2306 2154 2235 2219 2197 2269 2316 2313 2274 2247 2151 2337 2278 2260 2153 2195 2184 2267 2230 2260 2167 2065 2119 2161 2120 2153 2153 2172 2051 2149 2159 2099 2099 2062 2120 2143 2154 2187 2093 2129 2089 2028 2101 2120 2081 2107 2120 2178 2121 2067 2169 2117 2186 2157 2075 2061 2116 2132 1997 2159 2141 2128 2170 2171 2118 2082 2115 2072 2079 2139 2119 2023 2041 2139 2068 2075 2040 2048 2007 2009 2041 2009 1971 1938 1955 2069 1905 2076 1969 2000 1920 1993 2057 1974 1969 1928 2000 1921 1952 1964 2023 1867 1950 1987 1993 1935 1905 1902 1986 1958 1916 1891 1963 1928 1867 1973 1862 1965 1858 1929 1954 1888 1916 1969 1890 1950 1885 1866 1893 1895 1903 1908 1909 1864 1861 1872 1872 1763 1930 1862 1930 1874 1960 1883 1857 1845 1890 1853 1905 1840 1900 1903 1867 1899 1918 1913 1931 1963 1850 1885 1939 1859 1948 1882 1852 1838 1800 1890 1874 1849 1869 1861 1848 1867 1886 1893 1804 1848 1929 1863 1900 1838 1855 1898 1885 1926 1842 1928 1789 1820 1921 1801 1915 1880 1837 1894 1793 1860 1838 1907 1883 1921 1780 1837 1857 1850 1863 1896 1904 1859 1898 1825 1845 1847 1825 1914 1881 1932 1920 1894 1853 1778 1855 1886 1848 1863 1896 1864 1825 1822 1811 1914 1784 1845 1888 1930 1923 1835 1892 1888 1868 1832 1937 1902 1885 1813 1914 1900 1888 1915 1923 1977 1883 1877 1958 1874 1943 1863 1849 1843 1895 1827 1914 1845 1767 1854 1825 1875 1891 1819 1788 1836 1754 1884 1807 1856 1915 1896 1771 1865 1793 1942 1817 1867 1809 1844 1867 1834 1845 1869 1889 1849 1849 1937 1810 1858 1822 1866 1824 1851 1859 1812 1883 1827 1820 1772 1906 1878 1879 1814 1923 1784 1816 1807 1882 1870 1808 1905 1876 1867 1815 1788 1725 1819 1815 1855 1771 1869 1805 1776 1831 1821 1863 1884 1890 1731 1809 1843 1873 1758 1790 1735 1809 1843 1695 1847 1701 1812 1780 1786 1755 1757 1820 1830 1774 1786 1758 1784 1670 1732 1727 1812 1737 1789 1745 1696 1721 1756 1759 1757 1682 1715 1692 1682 1638 1668 1621 1722 1630 1728 1671 1784 1664 1683 1626 1712 1684 1716 1664 1666 1677 1624 1701 1656 1650 1589 1648 1619 1693 1717 1710 1686 1644 1659 1652 1552 1638 1627 1705 1609 1657 1667 1641 1603 1596 1520 1634 1613 1699 1678 1611 1567 1642 1587 1524 1614 1619 1641 1573 1620 1646 1569 1526 1593 1578 1573 1517 1620 1610 1571 1622 1650 1557 1477 1611 1607 1523 1570 1545 1584 1601 1534 1563 1547 1568 1608 1571 1481 1528 1524 1537 1556 1590 1584 1583 1567 1533 1562 1563 1533 1581 1544 1547 1614 1526 1523 1628 1603 1624 1705 1637 1620 1648 1605 1757 1761 1881 1806 1951 1882 1864 2128 2028 2127 2212 2234 2228 2360 2488 2485 2479 2571 2620 2628 2677 2657 2637 2649 2642 2549 2484 2361 2250 2220 2109 1990 1984 1906 1728 1710 1625 1587 1564 1599 1569 1547 1487 1467 1496 1452 1510 1421 1532 1428 1448 1504 1479 1465 1543 1486 1415 1548 1464 1426 1416 1373 1419 1413 1449 1385 1371 1354 1470 1510 1390 1442 1481 1429 1406 1448 1470 1535 1422 1445 1409 1370 1361 1347 1433 1436 1449 1362 1411 1458 1397 1495 1460 1475 1457 1442 1502 1462 1520 1512 1530 1464 1446 1491 1485 1473 1571 1637 1593 1548 1611 1695 1661 1703 1773 1775 1822 1963 2029 2178 2201 2329 2415 2519 2659 2815 3067 3171 3341 3568 3793 3917 4214 4447 4699 4975 5221 5232 5380 5557 5718 5850 5883 5935 5824 5752 5559 5281 4987 4792 4617 4444 4237 3979 3908 3717 3724 3719 3579 3657 3742 3549 3460 3489 3447 3344 3242 3200 3102 2849 2809 2573 2564 2390 2285 2140 2018 1935 1944 1887 1895 1801 1728 1736 1723 1802 1742 1726 1762 1747 1775 1705 1722 1660 1709 1632 1637 1499 1554 1500 1511 1407 1409 1295 1367 1285 1310 1265 1320 1240 1316 1326 1259 1220 1232 1252 1291 1251 1248 1307 1246 1252 1225 1227 1281 1284 1223 1321 1238 1244 1290 1220 1187 1340 1237 1166 1256 1254 1290 1246 1222 1254 1253 1229 1183 1258 1261 1244 1275 1239 1256 1222 1203 1276 1210 1174 1203 1250 1184 1191 1201 1194 1261 1221 1253 1213 1212 1192 1257 1252 1231 1179 1204 1178 1281 1172 1201 1168 1173 1215 1186 1127 1175 1189 1196 1168 1184 1135 1244 1161 1162 1126 1156 1178 1135 1180 1191 1212 1134 1189 1191 1165 1154 1167 1119 1216 1172 1145 1139 1096 1166 1206 1084 1149 1226 1167 1097 1199 1147 1214 1169 1141 1171 1084 1192 1127 1158 1208 1113 1110 1171 1145 1150 1151 1198 1115 1186 1217 1146 1213 1215 1167 1203 1162 1213 1166 1202 1207 1139 1200 1127 1216 1226 1211 1218 1157 1231 1128 1164 1094 1141 1110 1126 1163 1126 1151 1119 1112 1101 1132 1107 1187 1132 1118 1127 1110 1124 1162 1133 1135 1095 1108 1105 1048 1186 1072 1108 1077 1126 1116 1111 1154 1076 1056 1132 1104 1067 1115 1191 1074 1097 1123 1121 1094 1044 1070 1087 1213 1134 1068 1131 1104 1177 1113 1110 1074 1154 1111 1108 1096 1102 1111 1132 1187 1090 1102 1070 1073 1080 1101 1085 1133 1065 1104 1047 1122 1090 1045 1060 1109 1077 1129 1139 1092 1132 1121 1086 1125 1087 1104 1126 1086 1102 1088 1123 1134 1068 1131 1110 1116 1146 1110 1100 1087 1141 1068 1129 1175 1075 1155 1132 1144 1127 1152 1142 1124 1163 1148 1134 1141 1230 1196 1112 1154 1170 1179 1191 1143 1116 1143 1116 1168 1173 1120 1193 1178 1169 1210 1140 1187 1187 1220 1136 1218 1176 1211 1163 1242 1162 1180 1177 1239 1194 1179 1247 1200 1189 1219 1252 1232 1241 1267 1272 1275 1287 1358 1436 1435 1366 1370 1298 1398 1406 1403 1395 1518 1495 1585 1490 1580 1708 1659 1736 1835 1903 1911 2056 2125 2315 2553 2559 2775 2953 3092 3347 3540 3935 4141 4580 4972 5324 5649 6067 6461 7211 7693 7868 8552 9007 9373 9651 9983 10165 10655 11069 11139 11607 11851 12095 12173 12204 12013 11744 11325 10955 10503 9946 9266 8725 8040 7493 6976 6347 5849 5176 4554 4270 3809 3567 3116 2859 2730 2525 2394 2150 2025 1966 1882 1809 1690 1650 1565 1604 1517 1533 1483 1448 1404 1384 1390 1333 1333 1286 1294 1272 1220 1241 1203 1228 1224 1146 1213 1223 1177 1219 1217 1148 1180 1144 1181 1073 1128 1149 1158 1148 1185 1154 1139 1139 1107 1070 1093 1025 1176 1062 1092 1086 1033 1109 1148 1090 1142 1061 1105 1123 1124 1110 1078 1000 1118 1061 1053 1093 1127 1085 1047 1014 1005 1046 1044 1055 1017 1068 1019 1077 1008 1068 1037 1059 1115 1003 1060 1056 1061 1022 1054 1039 1021 1024 1001 996 1079 986 1053 1008 1054 1027 1071 1058 1033 998 1005 984 974 1006 1030 1027 986 1005 1028 991 1009 1004 1034 1017 997 1030 1033 971 1065 954 1034 984 1020 1065 1062 987 985 1031 942 971 984 1002 1048 1039 1068 969 1018 1036 1005 985 1015 1040 1041 983 1054 984 975 1012 994 1045 1004 963 1007 1039 955 972 1021 977 1051 972 1052 952 937 1050 964 995 967 983 986 957 992 992 952 927 1017 986 965 1001 972 1019 939 976 934 967 996 943 1001 973 975 1007 970 987 977 1000 950 974 970 993 994 1019 1023 1008 942 935 987 1014 1050 1039 1004 985 1032 964 972 967 965 988 970 959 989 933 992 980 990 984 1018 950 953 929 976 995 926 987 945 925 1020 929 985 939 973 1059 985 993 973 976 992 977 1004 953 992 1027 947 1025 1020 1026 954 1025 1048 1037 1005 959 991 1027 1034 1011 1002 1060 1041 1057 1078 987 1006 1024 998 992 1006 963 971 1004 1012 957 1001 999 966 915 922 997 901 944 913 936 934 940 976 974 950 942 922 933 972 966 877 963 975 974 884 973 926 851 901 872 931 924 943 909 903 960 932 900 890 911 881 906 853 850 882 974 910 958 890 877 948 933 941 896 878 863 907 867 917 948 896 905 886 853 875 895 952 900 864 930 974 892 924 871 909 879 871 862 828 892 860 856 884 941 847 932 941 847 893 818 879 892 866 858 814 951 821 856 864 873 892 871 856 912 909 937 864 868 894 807 827 892 878 944 808 880 872 841 831 874 847 888 855 883 870 902 929 874 874 878 864 899 894 920 865 901 905 893 930 913 892 879 857 897 879 901 902 864 890 917 886 803 896 877 870 862 856 870 845 892 861 905 869 883 825 824 913 873 889 881 875 882 847 847 867 833 821 903 852 886 822 901 862 840 841 847 819 846 838 824 863 908 823 840 871 807 842 854 827 815 881 897 854 864 851 788 881 877 840 892 824 838 835 817 872 902 883 875 844 880 883 843 817 885 810 818 835 807 880 829 832 820 849 861 858 872 879 814 864 789 823 852 828 853 847 871 807 878 856 866 845 846 886 852 825 832 845 890 840 857 815 822 865 789 913 794 880 907 841 891 895 866 864 815 819 827 819 852 849 763 829 851 855 853 783 853 846 911 907 867 826 828 857 854 871 866 837 877 829 838 844 817 836 859 816 848 891 843 858 856 913 840 838 872 909 850 904 831 867 855 807 872 868 833 848 889 925 860 753 849 826 874 895 835 891 845 820 852 852 889 832 876 838 894 861 896 965 891 889 836 863 894 945 879 873 869 909 907 864 880 915 884 851 882 876 908 886 872 875 834 859 830 815 815 856 804 811 878 806 825 842 769 872 800 856 783 809 772 862 844 844 870 807 867 848 842 819 800 806 783 832 783 881 828 835 816 862 848 856 849 831 811 911 823 792 833 797 806 811 854 868 886 830 824 819 855 845 816 831 809 825 841 880 813 796 803 807 862 841 823 808 831 820 794 745 834 835 861 797 855 785 860 878 792 880 866 785 814 829 844 841 819 789 805 799 834 887 833 844 824 850 836 898 844 856 817 870 889 872 782 840 844 798 873 839 846 777 853 823 803 806 831 841 859 837 861 873 861 864 822 801 827 761 848 797 811 839 854 845 796 819 772 832 868 793 833 779 810 830 855 843 825 849 888 873 871 830 803 833 867 820 826 845 826 778 869 795 848 826 838 803 835 828 819 805 802 805 821 844 842 849 854 825 832 804 815 806 841 820 842 880 839 838 834 857 866 795 863 803 847 861 891 815 828 837 880 804 850 857 841 814 829 777 817 894 823 861 817 766 813 839 864 852 816 786 775 868 798 816 850 795 815 852 799 875 844 811 817 812 874 792 848 826 887 871 809 808 895 739 809 799 833 848 849 837 830 839 830 816 844 803 837 791 865 815 849 865 907 822 876 898 924 918 848 911 935 911 918 985 967 966 980 1035 1024 1029 1050 1026 1108 1102 1145 1224 1194 1219 1282 1293 1249 1180 1231 1189 1159 1184 1198 1204 1226 1206 1168 1248 1236 1168 1256 1214 1286 1257 1274 1332 1331 1405 1327 1402 1421 1457 1431 1400 1265 1358 1345 1283 1325 1265 1216 1241 1234 1166 1190 1147 1092 1055 1032 1037 1064 1065 933 1017 917 1007 998 949 894 955 869 895 863 889 897 848 881 879 896 808 819 876 846 837 883 836 807 833 869 823 795 817 821 874 783 843 884 807 826 854 875 853 834 821 802 820 871 835 803 844 822 827 820 791 815 816 839 787 798 797 846 803 771 802 762 865 764 829 818 824 817 775 811 805 791 797 826 773 782 785 771 826 830 786 846 831 817 831 822 858 815 820 804 763 838 819 876 801 890 850 811 852 842 840 852 847 846 808 841 796 785 835 783 821 800 822 778 794 798 801 775 799 762 779 759 813 791 816 809 769 840 781 794 798 748 750 803 819 770 771 766 765 859 752 769 832 762 781 778 790 780 745 798 788 831 805 825 751 795 749 802 759 768 794 740 758 774 739 803 799 826 785 768 831 809 795 838 833 809 792 820 839 779 811 802 784 842 779 791 797 824 793 793 775 830 816 804 788 750 782 830 761 779 800 834 780 780 835 840 871 808 825 807 827 808 811 838 814 835 804 781 779 801 820 847 820 800 802 812 807 844 792 822 855 781 850 804 880 805 784 795 770 849 819 806 804 833 838 846 808 815 837 807 853 830 836 788 765 864 897 855 735 841 772 847 789 766 816 791 835 840 846 828 835 822 806 797 836 853 840 833 825 874 824 840 873 830 892 864 848 860 934 863 876 849 858 875 841 861 848 902 890 876 903 894 915 949 940 930 1002 927 921 978 917 1013 986 1057 1073 1127 1023 1112 1223 1202 1283 1218 1338 1442 1501 1549 1643 1686 1836 1985 2054 2273 2463 2533 2736 2977 3203 3384 3469 3669 3886 4037 4137 4279 4346 4598 4583 4676 4760 4938 4798 4801 4518 4280 4351 4098 3967 3806 3764 3607 3697 3633 3590 3625 3456 3526 3393 3528 3377 3263 3288 3294 3250 3260 3204 3058 2993 2954 2893 2776 2587 2624 2446 2494 2332 2204 2170 2106 2074 1877 1730 1701 1662 1559 1455 1401 1337 1320 1325 1254 1128 1158 1113 1124 1140 1054 1083 1088 976 1004 986 944 950 936 883 912 833 852 907 882 888 892 915 874 886 870 926 866 858 887 858 844 881 853 857 857 856 858 851 816 829 835 853 800 780 762 810 810 821 841 801 787 849 801 803 848 811 816 817 789 828 794 783 847 765 823 781 789 769 832 805 795 764 808 813 803 730 808 806 762 753 750 762 747 770 804 783 795 793 730 783 735 815 760 799 760 715 745 771 754 790 716 775 794 807 821 757 771 676 804 764 803 742 770 752 777 787 797 740 802 798 757 768 741 788 741 717 727 771 764 783 807 722 784 773 822 771 757 817 812 780 764 871 826 843 801 811 834 838 804 915 885 868 899 846 986 1000 965 1027 1045 1012 1013 1104 1090 1071 998 1143 1173 1068 1161 1252 1186 1120 1284 1276 1310 1218 1220 1223 1136 1158 1092 1152 1093 1060 1047 1001 1034 995 989 1057 981 888 968 857 859 848 830 828 812 816 804 821 790 792 753 792 794 755 773 727 725 762 740 741 764 715 764 743 734 800 714 720 781 703 677 697 728 752 775 726 711 752 737 737 712 719 733 744 716 744 720 754 745 628 773 716 740 724 763 702 699 687 732 707 751 676 713 704 708 697 774 748 679 708 715 733 730 698 672 776 677 748 723 732 693 700 740 763 690 725 712 736 713 763 742 710 753 685 769 749 745 718 730 784 722 719 709 763 713 692 745 697 742 736 693 653 685 744 690 719 688 711 730 665 715 717 737 742 755 711 742 692 697 714 693 721 691 690 759 710 689 681 737 733 719 653 725 718 715 669 710 715 683 691 682 747 714 686 695 719 752 676 712 725 770 732 679 755 709 705 672 702 729 704 712 709 727 688 680 700 704 693 714 672 663 684 700 665 665 746 702 711 716 703 738 656 680 708 742 755 634 758 652 726 665 715 720 713 720 672 720 722 676 702 724 684 677 712 670 705 664 688 681 722 681 738 694 717 692 718 624 730 641 720 691 699 733 705 722 711 783 721 719 795 758 712 733 799 752 771 756 750 762 734 743 766 729 771 684 742 714 734 740 710 733 754 711 739 730 706 684 677 673 683 700 710 693 651 736 704 735 672 708 685 629 701 667 744 674 667 690 700 632 669 677 693 707 687 660 684 695 713 684 671 715 651 645 695 643 678 670 731 674 675 674 678 683 667 664 612 691 700 705 643 667 706 670 674 664 653 691 681 698 676 713 702 676 681 648 637 731 697 675 629 678 654 674 688 648 635 643 693 664 657 702 652 647 675 680 648 694 676 676 700 715 713 673 691 683 668 711 646 676 673 672 702 676 680 649 706 644 674 623 717 675 668 697 687 690 676 697 676 674 625 725 672 689 719 689 670 687 714 656 699 710 668 709 690 701 653 687 703 637 666 651 675 636 698 697 685 637 681 665 709 689 724 696 638 687 671 645 694 694 670 654 668 649 657 658 673 649 670 669 689 656 650 665 689 726 715 737 639 643 740 676 666 709 624 647 664 664 694 683 644 679 666 727 668 682 697 667 692 642 681 688 687 649 690 655 687 647 655 689 647 642 641 676 620 698 605 637 659 720 639 729 683 696 686 715 680 671 639 683 653 658 716 667 682 698 633 682 710 701 657 710 684 746 712 667 702 653 642 704 718 705 761 708 728 666 693 714 745 755 718 754 706 774 814 758 725 781 765 748 756 726 774 765 730 745 740 732 771 764 758 808 714 762 718 737 681 747 721 716 701 706 716 683 703 719 727 708 726 657 734 687 746 745 762 711 770 708 729 713 757 813 755 812 825 878 855 917 928 912 1024 1027 1009 1026 1002 1061 1071 1135 1069 1088 1121 1197 1147 1156 1095 1151 1228 1221 1244 1196 1290 1237 1166 1252 1238 1229 1193 1232 1210 1250 1261 1281 1193 1151 1163 1118 1195 1085 1110 1156 1131 1108 1117 1049 1113 1041 1051 1068 1002 943 990 1031 906 928 899 903 899 825 922 873 846 857 837 810 809 827 790 860 801 811 762 808 737 791 749 734 787 731 718 752 702 759 732 739 727 735 689 674 660 708 696 712 664 676 680 703 703 662 676 678 661 639 709 675 670 690 654 685 690 687 648 698 668 670 685 701 627 660 700 670 685 629 690 717 698 717 645 632 694 663 622 684 681 697 659 657 659 690 688 694 726 643 645 640 678 668 610 691 673 679 655 672 630 681 667 651 663 694 721 726 691 662 638 672 643 676 626 642 697 676 667 648 687 614 674 666 698 676 636 649 590 667 626 627 675 664 647 703 647 693 632 698 689 672 671 672 654 655 720 656 634 627 668 621 679 668 673 696 702 681 656 698 638 679 652 652 655 646 673 678 682 686 677 646 671 716 678 719 701 666 711 725 659 732 756 724 707 722 712 729 743 699 686 735 742 709 739 760 732 752 808 818 795 845 820 879 878 860 965 966 1000 1063 1023 1121 1110 1181 1123 1167 1181 1262 1264 1247 1272 1295 1319 1323 1408 1438 1430 1499 1541 1623 1651 1660 1711 1760 1697 1716 1636 1650 1521 1453 1420 1386 1325 1363 1318 1315 1280 1288 1292 1190 1250 1211 1176 1138 1109 1117 996 1023 1000 1014 926 960 969 915 988 943 946 915 924 926 938 929 964 1013 1020 959 961 977 995 993 953 997 979 957 933 961 931 920 984 852 927 897 863 902 861 832 820 831 851 824 782 796 785 738 712 796 713 768 696 715 746 750 773 710 701 705 760 711 722 720 753 723 678 649 729 705 690 713 692 738 706 716 708 755 768 758 798 810 764 761 818 837 767 766 782 778 807 756 745 776 709 739 714 741 692 743 728 720 680 723 723 640 692 648 745 672 662 638 647 752 690 653 668 651 656 646 660 647 677 651 612 641 660 679 664 655 669 636 665 673 669 662 646 671 678 644 683 687 699 654 711 698 707 745 768 751 801 757 713 736 728 762 807 801 721 781 708 694 763 729 698 706 714 769 742 699 683 717 670 723 710 717 678 735 687 714 691 704 692 708 715 698 697 703 715 700 719 732 695 732 728 754 725 784 777 773 762 810 704 796 786 783 766 748 729 760 752 803 760 760 745 713 731 678 729 753 763 658 736 719 733 687 667 708 663 703 672 653 652 675 640 650 656 702 662 646 676 663 681 624 644 631 674 649 644 660 595 638 657 636 595 685 647 627 591 665 620 611 673 683 618 603 600 656 645 636 622 614 612 615 627 598 625 633 628 648 663 627 641 649 638 590 672 636 607 608 605 569 630 580 652 624 606 566 573 582 659 618 606 570 662 619 619 636 584 633 638 649 660 606 601 579 615 598 624 590 616 602 662 603 629 663 597 621 640 638 579 636 600 647 625 621 639 599 662 633 625 629 600 592 610 655 626 627 618 654 581 632 620 632 631 608 623 566 576 565 625 642 602 643 618 604 609 621 587 624 589 616 581 612 618 614 596 593 644 633 578 611 628 639 605 613 627 599 617 633 587 569 566 603 575 617 632 571 601 640 624 613 637 652 637 625 633 586 595 627 570 566 604 591 618 637 614 600 607 598 638 613 670 578 614 567 644 613 594 611 600 656 557 587 635 602 558 586 617 599 577 652 583 597 660 636 610 625 600 587 559 614 594 574 612 588 604 609 594 626 625 595 630 644 633 622 633 592 633 597 596 592 637 556 618 600 618 622 571 627 599 649 584 596 592 600 589 585 599 610 601 602 622 572 612 596 569 583 583 604 602 604 595 579 568 566 593 596 545 614 608 597 579 602 584 582 640 609 575 583 667 559 669 611 618 588 607 599 577 622 586 625 622 636 595 563 592 569 630 604 604 593 613 592 576 623 623 607 598 595 576 573 640 633 594 598 618 613 573 592 554 589 610 574 568 592 591 594 580 570 624 619 587 606 637 572 600 610 623 625 595 641 610 610 599 632 581 568 604 603 585 555 579 612 609 615 546 569 565 594 603 577 601 568 594 571 623 538 629 604 605 604 633 566 615 621 638 565 665 580 606 615 585 626 591 640 575 639 602 642 583 585 596 603 592 605 591 646 600 635 642 610 632 580 659 644 669 633 651 641 635 722 672 649 650 702 642 651 649 597 600 681 685 651 638 712 627 703 629 641 591 706 636 665 653 692 658 694 645 651 702 667 712 662 676 697 660 699 660 688 689 632 661 633 668 679 684 636 625 655 644 659 628 672 617 648 597 635 587 616 606 628 597 631 647 627 608 565 554 595 603 564 608 573 593 623 593 592 620 558 561 576 571 563 587 567 577 594 606 629 617 632 601 591 631 633 622 576 628 572 573 572 594 577 639 583 656 593 596 606 553 610 613 597 606 618 635 554 580 582 576 586 598 613 625 647 621 587 568 609 591 608 634 623 638 620 547 580 589 592 542 575 560 559 558 626 624 573 553 590 591 563 535 632 602 545 618 613 609 576 622 601 586 584 632 613 616 533 574 619 557 572 555 592 568 550 581 617 610 613 566 618 560 550 576 569 556 589 592 622 620 567 606 604 571 603 596 552 605 614 607 592 557 566 552 589 616 590 594 607 568 614 560 522 602 569 572 542 568 565 579 593 568 575 600 595 608 557 548 529 562 627 556 597 593 557 570 579 560 556 633 629 559 624 573 591 599 570 592 611 556 628 595 531 596 645 575 616 597 610 597 545 595 600 590 589 566 616 624 619 578 576 674 591 577 586 587 548 617 604 631 627 620 678 594 594 605 666 665 657 671 635 671 659 684 696 719 750 746 728 786 761 732 764 769 781 798 743 810 835 865 817 768 790 791 790 752 848 830 851 821 818 787 879 823 851 870 877 849 858 955 901 907 921 894 875 872 992 940 964 916 909 886 872 830 875 812 872 849 890 888 863 868 885 817 854 843 811 850 799 834 795 757 768 794 709 752 708 709 752 710 664 705 648 677 680 660 631 628 671 634 612 646 656 612 618 630 611 653 650 599 614 590 635 628 633 647 598 634 635 592 606 608 577 612 579 574 590 633 618 627 640 548 604 589 575 558 582 566 569 602 599 582 612 593 593 556 610 563 568 594 569 574 574 592 580 603 560 556 573 580 608 612 580 597 576 546 571 597 569 583 595 572 570 618 564 568 617 573 560 583 574 546 610 584 562 601 596 581 592 574 555 544 572 602 566 620 538 603 596 647 564 607 590 586 572 589 597 594 590 577 552 574 528 560 555 606 560 629 553 564 642 575 568 556 573 578 591 531 567 580 585 544 563 605 583 563 630 564 546 546 588 589 592 592 549 591 526 582 563 574 601 546 538 603 590 603 558 544 543 582 594 606 610 623 565 560 609 554 574 569 572 607 562 567 608 519 581 565 584 573 609 579 532 536 581 574 577 556 565 561 553 563 576 579 562 581 592 537 545 576 580 533 606 595 577 602 566 579 615 599 534 590 588 614 551 558 586 571 582 606 561 553 536 560 537 594 573 615 560 558 603 586 595 566 589 585 554 589 608 592 621 553 559 563 536 568 551 593 595 573 601 577 552 556 596 517 585 558 576 571 581 538 580 573 595 572 567 607 564 570 552 593 554 615 567 601 546 560 640 588 605 548 605 618 570 587 569 582 546 573 529 622 536 523 580 583 611 541 621 536 584 616 568 600 545 534 619 565 572 561 554 658 565 606 556 562 543 571 609 559 530 553 574 568 594 610 580 576 605 558 587 612 590 609 601 508 545 604 588 576 590 550 565 563 564 570 588 539 545 593 593 554 561 571 568 574 575 577 579 554 572 597 568 589 565 544 586 556 538 590 599 531 583 553 569 570 598 565 554 578 570 574 571 529 539 546 577 594 531 576 592 590 583 609 567 535 614 591 571 560 581 588 611 550 588 588 567 557 616 586 588 579 580 550 604 598 597 584 603 586 589 583 589 543 575 560 541 595 569 584 588 564 564 595 542 593 588 545 610 583 595 565 576 585 571 571 623 570 533 551 578 562 544 615 576 560 573 575 576 537 576 608 624 604 563 586 573 595 554 577 601 581 596 507 584 574 614 600 570 591 553 581 605 577 606 578 598 575 544 565 593 581 554 595 567 579 586 547 573 621 577 618 546 567 564 576 559 573 586 569 542 591 553 574 584 561 588 564 564 565 613 601 578 555 542 609 583 584 579 570 566 638 595 605 582 562 592 588 604 600 599 649 622 594 657 560 596 549 538 592 599 628 618 616 603 565 620 551 609 591 619 595 650 621 626 603 647 605 635 605 617 624 609 632 603 652 638 626 664 605 609 639 641 591 639 649 643 616 634 616 593 666 658 669 623 602 639 673 633 645 658 642 611 653 603 591 651 637 657 634 624 621 592 643 577 639 615 608 666 635 610 652 657 650 680 688 703 748 647 691 674 721 679 719 688 692 714 693 723 712 742 678 759 725 770 772 705 765 718 710 802 757 747 751 737 779 743 747 712 730 702 767 756 708 674 709 724 744 732 692 725 722 742 699 660 719 698 766 713 708 679 644 679 646 628 696 723 688 677 682 681 688 656 661 685 719 673 654 730 652 657 663 653 615 641 677 678 623 624 631 630 677 694 630 638 672 605 658 594 633 667 624 633 643 678 674 633 608 689 643 651 632 662 610 617 621 633 624 635 618 653 638 620 604 642 604 594 663 589 606 596 610 587 569 626 612 593 649 590 582 616 646 629 612 610 660 626 605 592 608 566 624 587 645 630 661 651 632 639 572 542 644 613 624 620 620 634 596 595 645 584 608 601 609 586 649 600 635 616 626 575 575 634 611 621 597 598 590 598 565 640 602 632 659 622 595 633 650 629 632 642 583 612 624 622 644 651 670 676 636 711 688 647 653 690 657 730 721 708 694 736 703 707 726 710 772 747 766 778 846 846 889 919 889 878 934 930 911 970 997 998 1035 1061 1027 940 970 1001 1029 1037 1016 1113 999 1062 1092 1084 1083 1204 1145 1139 1173 1157 1214 1168 1185 1182 1164 1142 1188 1136 1105 1104 1047 1078 1096 1051 1051 1009 1091 973 1052 1005 1075 1096 1051 1068 1051 1024 1018 1025 1004 1051 1035 1151 1034 1071 1053 1057 1059 979 1003 1021 1008 962 976 961 909 932 960 957 905 852 877 874 874 880 892 823 866 809 827 813 788 855 867 781 800 787 805 783 732 762 805 786 745 740 702 699 712 726 734 718 701 721 695 638 688 634 681 643 693 602 665 670 665 669 657 627 651 674 687 670 641 649 675 639 639 655 630 637 616 664 602 679 626 668 626 674 651 622 671 633 631 614 656 655 652 594 629 611 649 649 659 637 635 665 623 612 604 599 677 578 604 645 630 638 648 668 634 630 617 633 637 650 621 665 616 639 658 623 611 616 620 669 593 677 630 622 669 577 615 662 665 636 608 643 655 617 625 638 650 601 608 608 621 601 628 591 637 596 650 640 638 633 611 622 636 621 637 687 606 641 655 602 629 641 614 642 627 618 618 628 574 663 629 631 596 620 606 603 679 590 655 629 603 603 622 587 636 594 672 600 626 618 624 604 577 587 586 611 603 635 599 648 564 606 582 613 635 596 594 618 577 586 569 634 617 636 568 655 586 567 571 589 610 581 541 610 596 602 603 574 641 592 567 589 633 573 563 601 606 570 607 603 618 610 590 637 588 587 576 607 561 622 610 565 563 541 610 618 568 535 593 602 584 592 564 562 584 567 614 552 603 562 576 611 619 534 557 591 557 597 602 618 566 576 577 619 570 598 588 608 601 543 591 620 592 569 586 577 603 592 533 588 551 552 599 592 590 596 563 563 558 584 619 570 571 557 600 568 596 526 606 581 604 576 599 606 574 574 584 609 606 591 554 566 540 561 566 564 579 593 590 644 584 588 573 581 582 567 546 584 628 597 594 574 538 602 551 610 557 630 583 592 605 601 612 570 597 583 581 593 555 584 604 564 568 581 549 581 533 574 564 541 562 541 594 597 596 588 665 627 603 584 574 526 630 586 570 576 587 632 575 597 571 554 556 573 580 607 631 567 610 627 612 580 559 556 611 616 614 560 659 589 599 574 538 630 587 629 607 590 586 601 633 566 638 600 578 580 566 604 648 614 602 597 610 604 604 579 559 587 550 579 621 546 610 606 604 588 595 580 583 608 565 584 580 554 605 578 602 623 599 607 553 583 587 573 605 564 564 576 576 628 590 634 604 622 589 615 581 551 571 597 615 583 572 565 569 590 606 579 548 604 557 618 568 586 595 575 559 635 540 593 604 577 613 536 649 557 574 598 563 555 600 571 579 606 575 545 582 588 564 573 563 551 552 593 618 544 579 566 574 593 624 568 581 572 636 600 597 625 620 620 597 575 612 598 588 613 645 603 577 634 582 602 597 633 642 630 675 596 630 604 635 646 598 664 602 590 640 621 572 596 598 615 584 588 600 609 604 643 651 608 626 629 612 563 627 630 664 670 625 638 633 625 589 644 638 652 592 621 648 666 597 595 658 619 636 595 643 607 573 631 607 600 620 594 622 638 599 641 551 596 607 578 603 563 635 560 587 588 577 639 582 566 599 607 561 593 607 577 603 599 557 584 581 595 597 582 618 616 536 606 553 625 622 582 611 594 563 614 590 602 553 560 571 537 614 614 598 576 564 625 590 567 594 586 548 588 593 570 584 575 609 554 578 625 551 580 609 531 578 586 569 604 567 585 590 598 562 607 573 519 622 569 536 588 584 543 599 588 628 533 584 550 520 605 589 556 575 601 593 577 534 542 596 589 582 540 620 608 579 586 561 560 564 594 575 530 577 558 547 572 568 561 575 571 619 597 543 595 566 579 577 564 604 615 614 563 566 570 639 534 582 600 593 583 611 590 603 579 633 545 612 561 587 600 614 586 556 597 546 593 617 628 608 528 597 578 564 594 585 604 633 584 572 654 587 617 612 590 610 659 584 605 638 593 616 617 619 658 609 581 627 649 665 651 614 595 607 644 640 634 668 707 645 638 724 736 657 662 715 733 775 764 798 705 768 832 778 838 810 853 834 847 864 872 834 877 793 853 864 856 862 805 833 875 823 850 843 905 863 849 934 922 902 927 886 912 898 989 982 975 945 1005 947 966 985 900 949 917 998 965 946 929 926 946 948 826 910 953 860 934 830 868 826 893 856 828 870 808 830 777 846 811 806 781 769 818 832 795 791 784 765 728 790 758 842 728 721 717 717 756 757 727 705 731 737 746 740 713 694 758 727 764 657 740 682 703 731 717 739 634 649 678 732 666 631 686 683 637 647 710 668 708 658 666 669 662 691 669 679 637 664 607 642 638 648 673 620 646 621 654 633 674 628 627 638 645 615 607 693 622 586 633 639 661 563 611 584 622 608 634 591 585 612 620 604 648 649 576 618 612 636 582 611 617 611 630 584 599 631 597 577 611 616 660 580 628 625 646 602 666 589 612 624 633 583 636 621 564 573 618 593 630 615 624 654 660 574 597 625 618 613 612 597 621 590 607 619 609 645 584 609 576 622 614 584 592 628 621 584 582 602 638 596 616 616 574 608 587 601 600 600 575 596 597 532 590 591 637 552 603 559 622 559 580 581 559 570 589 551 605 623 563 641 570 605 538 614 583 640 557 573 589 584 590 569 571 545 618 552 551 580 591 594 561 572 587 543 616 598 574 559 564 533 559 522 552 589 582 584 560 583 585 601 586 571 587 582 596 566 577 575 577 588 595 550 530 563 619 524 588 574 569 574 537 601 618 625 579 579 596 506 562 557 540 540 618 582 591 561 547 564 562 580 564 560 563 580 568 603 587 594 611 604 579 584 559 574 557 584 520 524 556 612 589 595 598 597 571 594 531 578 520 585 591 552 578 607 592 535 580 577 596 587 577 585 590 569 608 570 577 584 570 543 553 584 601 548 530 560 574 560 544 538 510 553 607 570 547 528 560 572 569 534 616 611 575 573 579 598 543 622 575 549 575 572 584 570 553 565 575 532 572 532 556 563 545 556 560 593 607 586 552 589 579 561 550 556 573 562 576 613 552 557 562 572 558 566 559 613 534 571 575 576 587 549 571 621 567 598 593 567 529 588 577 588 592 570 593 538 540 582 573 571 535 614 548 547 544 506 571 558 558 566 555 566 574 596 621 540 558 568 568 588 530 638 551 583 561 588 592 530 580 569 542 573 614 548 550 591 543 614 528 551 580 614 566 584 558 537 560 530 576 591 503 593 607 575 561 575 601 549 596 570 596 578 585 575 583 515 546 562 600 568 560 552 529 620 572 614 590 559 570 573 575 536 640 580 571 570 569 558 584 622 526 601 554 578 537 595 555 581 562 576 531 572 554 604 614 565 564 565 635 531 552 549 539 565 579 548 582 558 603 583 563 568 570 542 587 576 595 591 564 610 583 560 568 581 586 574 611 569 534 592 605 611 618 577 615 597 590 591 604 605 645 595 611 594 617 593 603 565 649 653 633 586 626 590 601 651 605 597 586 597 572 597 591 619 561 581 561 593 649 579 615 603 521 587 628 585 632 622 603 641 551 605 609 639 629 633 575 590 612 630 604 647 624 648 622 636 595 641 639 588 597 602 608 610 644 694 614 626 616 614 630 672 634 609 637 654 653 626 664 616 674 650 622 603 709 630 606 604 648 608 665 680 720 664 686</counts>
			</dataPoints>
		</scan>
	</xrdMeasurement>
</xrdMeasurements>
