<?xml version="1.0"?>
<xrdMeasurements xmlns="http://www.xrdml.com/XRDMeasurement/2.3" xmlns:xsi="http://www.w3.org/2001/XMLSchema-instance" xsi:schemaLocation="http://www.xrdml.com/XRDMeasurement/2.3 http://www.xrdml.com/XRDMeasurement/2.3/XRDMeasurement.xsd" status="Completed" recordIdentifier="{4C3E36E5-4DD1-4E53-B93A-217394D73A03}">
	<comment>
		<entry/>
	</comment>
	<sample type="To be analyzed">
		<id>GPSS_Li2Fe0p8Ni0p2Cl4_110625_690d9f07f040177efa2b78f0</id>
		<name></name>
		<preparedBy></preparedBy>
	</sample>
	<xrdMeasurement measurementType="Scan" status="Completed" sampleMode="Reflection">
		<usedWavelength intended="K-Alpha 1">
			<kAlpha1 unit="Angstrom">1.5405980</kAlpha1>
			<kAlpha2 unit="Angstrom">1.5444260</kAlpha2>
			<kBeta unit="Angstrom">1.3922500</kBeta>
			<ratioKAlpha2KAlpha1>0.5000</ratioKAlpha2KAlpha1>
		</usedWavelength>
		<incidentBeamPath>
			<radius unit="mm">145.00</radius>
			<xRayTube id="1010048" name="Empyrean Cu LFF HR (9430 033 7310x)">
				<tension unit="kV">40.0</tension>
				<current unit="mA">15.0</current>
				<anodeMaterial>Cu</anodeMaterial>
				<focus type="Line">
					<length unit="mm">12.0</length>
					<width unit="mm">0.4</width>
					<takeOffAngle unit="deg">6.0</takeOffAngle>
				</focus>
			</xRayTube>
			<sollerSlit id="21010002" name="Soller slits 0.04 rad.">
				<opening unit="rad">0.0400</opening>
			</sollerSlit>
			<mask id="22031000" name="Fixed mask 13 mm">
				<width unit="mm">9.00</width>
			</mask>
			<divergenceSlit id="22120001" name="Divergence slit 1°" xsi:type="fixedDivergenceSlitType">
				<distanceToSample unit="mm">50.00</distanceToSample>
				<height unit="mm">1.52</height>
			</divergenceSlit>
		</incidentBeamPath>
		<sampleMovement xsi:type="spinningSampleMovementType">
			<spinnerRevolutionTime unit="seconds">1.0</spinnerRevolutionTime>
		</sampleMovement>
		<diffractedBeamPath>
			<radius unit="mm">145.00</radius>
			<antiScatterSlit id="22090040" name="AS slit 9 mm (PIXcel)" xsi:type="fixedAntiScatterSlitType">
				<height unit="mm">9.00</height>
			</antiScatterSlit>
			<sollerSlit id="21020003" name="Large Soller slits 0.04 rad.">
				<opening unit="rad">0.0400</opening>
			</sollerSlit>
			<filter id="20030001" name="Large beta-filter Nickel">
				<material>Ni</material>
				<thickness unit="mm">0.020</thickness>
			</filter>
			<detector id="7010019" name="PIXcel1D-Medipix3 detector" xsi:type="rtmsDetectorType">
				<phd unit="keV">
					<lowerLevel>4.02</lowerLevel>
					<upperLevel>11.27</upperLevel>
				</phd>
				<mode>Scanning</mode>
				<activeLength unit="deg">5.542</activeLength>
			</detector>
		</diffractedBeamPath>
		<scan appendNumber="0" mode="Continuous" scanAxis="Gonio" status="Completed">
			<header>
				<startTimeStamp>2025-11-11T13:41:14-08:00</startTimeStamp>
				<endTimeStamp>2025-11-11T13:49:22-08:00</endTimeStamp>
				<author>
					<name>AutomatedUser</name>
				</author>
				<source>
					<applicationSoftware version="1.7b (136)">PANalytical Aeris Instrument Suite</applicationSoftware>
					<instrumentControlSoftware version="3.2.00000000 20240306">AERIS</instrumentControlSoftware>
					<instrumentID>950485</instrumentID>
				</source>
			</header>
			<dataPoints>
				<positions axis="2Theta" unit="deg">
					<startPosition>10.00943322</startPosition>
					<endPosition>99.99442286</endPosition>
				</positions>
				<positions axis="Omega" unit="deg">
					<startPosition>5.00471661</startPosition>
					<endPosition>49.99721143</endPosition>
				</positions>
				<commonCountingTime unit="seconds">12.495</commonCountingTime>
				<counts unit="counts">3202 3264 3241 3226 3299 3239 3267 3280 3339 3317 3264 3240 3299 3297 3310 3290 3234 3260 3220 3287 3330 3238 3265 3299 3254 3199 3358 3320 3346 3274 3204 3327 3233 3390 3351 3341 3305 3383 3334 3320 3404 3324 3366 3322 3331 3407 3378 3316 3448 3358 3362 3381 3324 3271 3340 3476 3291 3503 3429 3355 3487 3489 3393 3461 3385 3395 3557 3443 3445 3500 3484 3458 3449 3431 3476 3506 3506 3590 3648 3526 3425 3571 3617 3526 3510 3590 3491 3503 3506 3492 3467 3537 3465 3495 3551 3542 3581 3380 3482 3377 3478 3478 3457 3463 3482 3372 3457 3391 3556 3351 3408 3562 3431 3384 3389 3408 3300 3439 3451 3500 3429 3502 3304 3466 3466 3385 3536 3476 3376 3399 3429 3356 3386 3306 3429 3440 3486 3402 3422 3411 3444 3485 3325 3372 3437 3416 3496 3366 3422 3512 3387 3554 3446 3429 3419 3408 3413 3418 3515 3473 3396 3364 3338 3399 3507 3426 3419 3480 3431 3426 3467 3412 3387 3520 3445 3479 3396 3378 3381 3263 3363 3368 3489 3332 3301 3347 3381 3412 3515 3291 3409 3327 3418 3410 3344 3448 3383 3333 3432 3301 3289 3407 3436 3328 3307 3435 3270 3309 3287 3471 3406 3467 3423 3385 3435 3423 3332 3303 3389 3472 3330 3300 3391 3370 3361 3342 3437 3391 3241 3266 3349 3412 3334 3398 3369 3355 3347 3304 3490 3296 3214 3338 3316 3249 3256 3350 3318 3258 3372 3266 3333 3445 3307 3357 3333 3273 3351 3366 3336 3345 3395 3307 3324 3391 3320 3331 3336 3348 3341 3357 3337 3330 3384 3349 3384 3308 3444 3403 3265 3385 3349 3381 3332 3352 3232 3439 3424 3338 3364 3382 3339 3465 3393 3437 3406 3458 3348 3429 3353 3397 3336 3389 3371 3360 3360 3394 3360 3385 3390 3385 3391 3336 3441 3339 3491 3536 3459 3545 3434 3515 3515 3495 3413 3452 3472 3576 3499 3491 3481 3516 3371 3547 3585 3440 3367 3522 3572 3511 3449 3536 3528 3590 3438 3485 3651 3426 3718 3524 3607 3586 3642 3700 3616 3651 3690 3557 3581 3575 3661 3676 3648 3684 3733 3779 3786 3658 3792 3754 3814 3762 3776 3734 3659 3735 3762 3683 3761 3765 3728 3809 3733 3776 3758 3808 3894 3820 3871 3822 3785 3791 3861 3706 3735 4002 3957 3870 3959 3840 3900 3921 4028 3821 3954 3973 3911 3924 3977 3893 3875 4045 3866 4106 4082 4040 3956 3938 4053 4113 4162 4089 4089 4207 4044 4120 4263 4250 4310 4245 4336 4332 4435 4487 4533 4652 4579 4872 4787 4845 4939 4952 5183 5129 5369 5444 5415 5379 5433 5390 5443 5555 5429 5506 5357 5434 5333 5427 5254 5270 5193 5134 4878 4856 5028 4879 4827 4732 4578 4698 4448 4510 4490 4288 4305 4311 4258 4354 4163 4179 4127 4107 4010 4101 4036 3938 4089 4032 3980 3922 3905 3799 4046 3800 3910 3803 3834 3756 3799 3843 3860 3849 3865 3742 3799 3709 3634 3635 3737 3690 3752 3775 3806 3684 3617 3724 3649 3758 3584 3715 3677 3559 3591 3634 3674 3699 3698 3734 3631 3652 3726 3683 3679 3696 3785 3790 3621 3750 3728 3750 3704 3696 3670 3661 3794 3668 3639 3671 3665 3714 3581 3696 3798 3640 3610 3572 3527 3646 3497 3580 3556 3374 3534 3506 3462 3508 3494 3419 3270 3318 3331 3512 3459 3416 3361 3330 3426 3517 3501 3398 3320 3482 3590 3469 3422 3419 3400 3372 3394 3404 3444 3434 3303 3351 3424 3325 3390 3504 3436 3415 3373 3423 3358 3444 3390 3387 3353 3447 3321 3345 3379 3418 3314 3313 3350 3244 3235 3393 3346 3509 3423 3391 3348 3385 3322 3409 3475 3377 3373 3321 3479 3369 3349 3385 3382 3415 3273 3319 3441 3375 3424 3372 3475 3422 3368 3302 3354 3499 3491 3361 3558 3530 3713 3520 3585 3649 3663 3587 3680 3604 3655 3562 3669 3647 3693 3586 3738 3617 3570 3678 3606 3537 3628 3572 3596 3466 3544 3629 3461 3463 3441 3513 3468 3316 3464 3367 3509 3400 3329 3391 3378 3270 3293 3326 3419 3365 3320 3458 3388 3363 3327 3351 3370 3247 3248 3256 3254 3256 3424 3388 3289 3328 3370 3266 3400 3124 3223 3308 3282 3272 3184 3472 3320 3339 3304 3244 3339 3281 3294 3229 3223 3166 3281 3358 3227 3364 3321 3230 3221 3275 3229 3269 3314 3160 3225 3261 3167 3309 3224 3198 3257 3214 3251 3378 3345 3262 3180 3345 3147 3265 3170 3162 3222 3236 3186 3185 3295 3256 3212 3196 3225 3215 3120 3280 3260 3255 3318 3263 3377 3322 3312 3209 3237 3320 3198 3250 3294 3212 3289 3102 3272 3100 3196 3164 3217 3198 3194 3287 3199 3348 3267 3185 3216 3181 3258 3207 3125 3220 3210 3186 3220 3296 3213 3297 3255 3234 3251 3197 3138 3197 3140 3125 3315 3133 3191 3172 3195 3098 3256 3164 3248 3162 3142 3258 3187 3143 3173 3211 3274 3158 3211 3264 3153 3225 3182 3080 3221 3240 3177 3116 3237 3202 3228 3172 3156 3188 3115 3172 3201 3203 3052 3129 3122 3157 3157 3192 3282 3112 3149 3211 3094 3247 3149 3197 3202 3192 3132 3070 3183 3079 3157 3119 3184 3151 3215 3106 3164 3143 3176 3240 3081 3122 3261 3230 3164 3127 3212 3120 3098 3159 3173 3202 3136 3156 3112 3052 3153 3124 3126 3046 3122 3185 3161 3043 3031 3185 3045 3091 3179 3031 3100 3149 3077 3090 3155 3064 3133 3106 3138 3229 3051 3112 3140 3049 3131 3138 3190 3062 3078 3042 3145 3072 3096 3079 3111 3186 3142 3139 3083 3151 3042 3084 3138 3071 3157 3100 3100 3105 3142 2981 3092 3210 3011 3189 3230 3137 3142 3215 3149 3092 3201 3145 3151 3151 3236 3223 3148 3144 3128 3211 3209 3235 3131 3133 3236 3012 3156 3113 3152 3127 3200 3193 3165 3107 3079 3161 3170 3169 3127 3104 3090 3158 3074 3232 2989 3110 3113 3016 3019 3204 3128 3116 3110 3058 2998 3030 3105 3167 3099 3211 2943 3108 3126 3141 3153 3088 3096 3109 3114 3207 3208 3183 3123 3179 3086 3129 3098 3161 3089 3162 3171 3183 3122 3034 3137 3099 3070 3098 3165 3146 3039 3183 3177 3091 3124 3076 3114 3098 3169 3272 3166 3057 3174 3190 3152 3059 3187 3184 3123 3178 3111 3148 3150 3113 3115 3125 3185 3201 3134 3196 3100 3068 3101 3149 3092 3178 3101 3072 3124 3122 3153 3090 3149 3213 3125 3120 3123 3084 3222 3154 3172 3055 3063 3070 3242 3099 3157 3082 3194 3051 3158 3063 3166 3116 3240 3024 3061 3041 3248 3123 3072 3100 3047 2953 3105 2936 3054 3067 3052 3114 3093 3025 3077 3125 3098 3124 3016 3038 3020 3101 3001 2982 2950 3023 3080 2915 3014 3033 3079 3007 3012 2926 2970 3075 2973 2973 2954 2964 2920 2925 3005 3001 3026 2912 2956 2992 2831 2877 2935 2935 2873 3046 2840 3006 2990 2890 2968 2783 2845 2894 2920 2933 2821 2783 2820 2913 2857 2900 2831 2885 2798 2812 2881 2861 2877 2861 2934 2682 2821 2807 2816 2763 2903 2699 2793 2729 2849 2812 2794 2788 2760 2794 2764 2781 2806 2719 2707 2880 2698 2824 2749 2766 2849 2723 2788 2767 2723 2775 2663 2795 2791 2720 2705 2741 2639 2785 2743 2683 2701 2686 2731 2679 2666 2684 2606 2685 2617 2655 2710 2613 2635 2595 2652 2614 2603 2682 2584 2705 2655 2720 2613 2632 2620 2698 2619 2747 2602 2682 2645 2533 2608 2573 2450 2666 2655 2645 2564 2615 2634 2620 2600 2651 2600 2626 2587 2622 2653 2659 2646 2638 2563 2527 2530 2544 2484 2599 2527 2521 2523 2617 2613 2604 2552 2640 2572 2654 2614 2485 2613 2570 2686 2726 2588 2631 2579 2615 2599 2587 2664 2624 2617 2681 2703 2762 2740 2772 2794 2803 2828 2720 2799 2735 2690 2681 2795 2820 2776 2752 2856 2823 2819 2842 2744 2769 2805 2857 2753 2726 2729 2707 2709 2709 2607 2650 2727 2597 2674 2583 2685 2599 2692 2638 2630 2668 2615 2602 2565 2567 2479 2481 2520 2512 2680 2534 2619 2585 2638 2483 2512 2600 2587 2646 2514 2542 2390 2539 2555 2590 2480 2532 2541 2638 2439 2500 2575 2635 2558 2632 2470 2565 2590 2537 2622 2610 2488 2596 2573 2430 2461 2587 2541 2467 2496 2589 2609 2509 2618 2585 2507 2544 2542 2609 2579 2513 2519 2593 2610 2482 2509 2489 2511 2614 2497 2600 2525 2537 2557 2541 2568 2482 2534 2590 2585 2586 2512 2586 2584 2596 2552 2587 2521 2610 2514 2534 2489 2536 2468 2618 2543 2670 2526 2615 2623 2550 2551 2544 2580 2557 2482 2530 2617 2535 2572 2497 2553 2547 2465 2585 2594 2538 2620 2653 2630 2640 2617 2601 2595 2570 2474 2598 2573 2574 2563 2507 2575 2584 2431 2560 2481 2490 2569 2605 2513 2509 2557 2547 2459 2505 2488 2469 2444 2492 2522 2374 2531 2448 2517 2499 2488 2565 2487 2541 2473 2526 2459 2509 2548 2460 2520 2465 2536 2450 2445 2490 2529 2491 2451 2518 2452 2553 2484 2408 2373 2402 2319 2422 2427 2407 2427 2408 2410 2458 2507 2427 2380 2363 2325 2435 2321 2399 2356 2413 2371 2390 2321 2422 2403 2360 2350 2364 2445 2365 2399 2299 2419 2350 2319 2398 2432 2366 2334 2283 2392 2298 2296 2341 2354 2350 2347 2370 2408 2349 2395 2368 2243 2327 2375 2249 2314 2336 2243 2304 2311 2257 2411 2280 2306 2303 2316 2265 2172 2257 2226 2264 2261 2337 2251 2219 2243 2202 2255 2237 2307 2305 2333 2301 2269 2249 2242 2250 2293 2220 2204 2198 2202 2217 2173 2149 2242 2174 2240 2264 2247 2231 2229 2251 2305 2170 2138 2247 2227 2156 2262 2197 2210 2181 2215 2243 2226 2248 2176 2273 2163 2176 2113 2214 2128 2171 2157 2257 2154 2230 2154 2106 2195 2171 2226 2171 2207 2180 2235 2157 2222 2267 2255 2208 2209 2153 2237 2276 2186 2152 2294 2242 2186 2232 2236 2272 2301 2270 2270 2279 2285 2445 2402 2303 2362 2364 2482 2388 2434 2516 2460 2587 2637 2643 2653 2587 2631 2653 2726 2704 2797 2782 2705 2813 2841 2797 2766 2791 2898 2819 2890 2880 2700 2846 2718 2808 2808 2869 2798 2733 2701 2660 2709 2736 2741 2742 2655 2639 2680 2512 2500 2570 2542 2450 2421 2434 2403 2404 2344 2381 2370 2219 2318 2236 2378 2248 2212 2239 2240 2245 2168 2207 2128 2174 2222 2152 2132 2108 2158 2156 2132 2119 2228 2181 2180 2171 2180 2077 2072 2074 2180 2089 2114 2111 2218 2048 2110 2085 2080 2141 2105 2046 2090 2075 2029 2115 2171 2148 2179 2107 2151 2151 2193 2265 2132 2188 2188 2256 2376 2378 2350 2455 2314 2418 2426 2411 2567 2625 2631 2609 2717 2860 2878 2898 2912 3021 3088 3061 3128 3105 3299 3202 3502 3329 3402 3327 3380 3368 3335 3386 3244 3319 3270 3237 3113 3153 3088 3108 3055 2999 2923 2923 2871 2748 2766 2730 2740 2622 2570 2484 2366 2449 2389 2423 2243 2263 2215 2122 2193 2214 2181 2123 2057 2123 2075 2123 2120 2056 2048 2046 2098 2007 2006 1915 1950 2078 1951 1922 1989 2065 2006 2016 2029 2018 1998 1964 1910 1933 1998 2052 1981 1990 2038 1912 1949 1952 1968 1952 1993 1959 1958 1927 2007 1986 1951 1956 1960 1994 1952 1931 1988 1951 1968 1909 1958 1933 2000 1907 1994 1998 1948 1936 1963 1894 1976 1886 1904 1965 1929 1913 1893 1909 1904 1901 1827 1821 1916 1927 1888 1901 1943 1795 1882 1849 1861 1899 1917 1874 1844 1846 1901 1869 1918 1838 1761 2003 1871 1907 1846 1886 1915 1850 1902 1822 1881 1853 1855 1875 1893 1877 1827 1930 1850 1959 1964 1898 1930 1983 1903 1858 1855 1864 1878 1915 1887 1896 1878 1949 1914 1883 1821 1901 1869 1947 1959 1907 1916 1818 1825 1861 1893 1835 1903 1980 1865 1893 1924 1932 1866 1860 1820 1826 1871 1827 1834 1826 1924 1930 1886 1837 1928 1907 1880 1934 1909 1811 1897 1856 1868 1902 1972 1909 1869 1954 1919 1981 1934 1902 1903 1875 1899 1909 1933 1949 1940 1967 1937 1906 1921 1943 1893 1929 1956 2014 1933 1866 1941 1905 2014 1886 1951 1941 1939 1982 1968 2018 1969 2056 1948 2055 2043 2075 2110 2103 2030 2116 2009 2028 2059 2026 2081 2042 2086 1994 2018 2054 2006 2030 2070 1893 1985 2052 1901 1964 2019 1928 1958 1978 1974 1924 1986 2068 1945 1920 1935 1891 1850 1869 1974 1942 1942 1882 1969 1970 1809 1905 1824 1885 1872 1907 1927 1853 1829 1932 1877 1902 1920 1919 1892 1879 1886 1867 1905 1943 1952 1926 1949 1946 1904 1919 1920 1952 1897 1980 1921 1960 1987 1886 1994 1992 2041 1931 2004 1969 1977 2006 1949 2003 1956 1912 1978 1977 1992 1996 1903 2051 1942 1979 1928 1904 1971 1903 2027 2022 1922 1916 1962 1941 1874 2048 1972 1947 1962 2022 1965 2023 1966 1995 1899 2088 1951 1962 1923 2045 1916 1935 1895 1992 1913 2097 1889 2007 1985 1968 1973 2043 1968 2002 1991 2073 2062 2072 2085 2044 2220 2102 2033 2198 2074 2149 2225 2102 2222 2265 2246 2249 2317 2424 2441 2484 2543 2607 2673 2820 2738 2877 3042 3069 3232 3331 3194 3389 3448 3531 3704 3753 3804 3923 4097 4135 4393 4418 4581 4609 4902 4846 5077 4922 5203 5301 5449 5417 5651 5589 5647 5645 5758 5698 5653 5786 5583 5558 5614 5519 5472 5319 5462 5285 5150 5044 5134 4939 4796 4550 4583 4475 4240 4260 4087 4032 3822 3665 3673 3590 3434 3316 3123 3140 2945 2923 2849 2694 2625 2608 2446 2532 2407 2325 2299 2281 2304 2229 2177 2202 2100 2081 2037 2060 2142 2086 2089 2025 2079 2083 1987 2032 1929 1965 1993 1884 2001 1925 1829 1960 1851 1887 1907 1818 1834 1855 1840 1849 1869 1912 1820 1826 1914 1758 1823 1841 1830 1806 1734 1850 1877 1732 1831 1858 1855 1827 1889 1885 1782 1792 1846 1802 1843 1898 1753 1756 1776 1763 1820 1785 1810 1856 1781 1719 1739 1856 1786 1843 1810 1752 1804 1762 1765 1858 1746 1798 1800 1740 1754 1779 1793 1731 1711 1780 1757 1801 1791 1785 1705 1649 1730 1705 1738 1770 1690 1702 1765 1657 1692 1716 1718 1732 1753 1724 1728 1756 1770 1759 1721 1698 1736 1706 1780 1755 1614 1688 1678 1703 1720 1709 1726 1675 1658 1849 1761 1728 1754 1632 1722 1701 1682 1710 1692 1759 1645 1707 1717 1651 1711 1707 1651 1671 1685 1681 1769 1682 1710 1701 1611 1683 1722 1595 1622 1674 1622 1630 1634 1741 1709 1729 1679 1638 1638 1767 1622 1631 1732 1632 1732 1710 1589 1629 1729 1679 1679 1683 1707 1680 1669 1709 1689 1796 1662 1688 1723 1699 1635 1681 1693 1732 1662 1751 1738 1679 1710 1733 1715 1712 1705 1731 1724 1702 1682 1706 1750 1714 1658 1719 1643 1658 1683 1685 1726 1666 1632 1631 1717 1678 1674 1751 1637 1694 1728 1678 1795 1662 1694 1628 1740 1708 1714 1709 1669 1711 1661 1690 1683 1775 1718 1793 1720 1777 1711 1718 1761 1733 1730 1721 1728 1766 1819 1858 1733 1784 1834 1815 1716 1825 1830 1784 1867 1836 1831 1650 1703 1790 1798 1724 1723 1678 1822 1787 1766 1754 1843 1728 1632 1689 1675 1761 1630 1701 1734 1613 1752 1678 1661 1683 1679 1676 1738 1684 1698 1684 1629 1640 1686 1692 1692 1681 1659 1664 1677 1671 1636 1673 1589 1640 1735 1733 1653 1614 1683 1643 1655 1660 1602 1751 1663 1657 1615 1726 1678 1684 1594 1627 1650 1702 1673 1676 1743 1740 1683 1695 1718 1685 1673 1731 1676 1684 1695 1723 1684 1767 1734 1692 1790 1734 1723 1718 1772 1733 1729 1763 1724 1733 1774 1723 1676 1757 1708 1781 1721 1685 1679 1679 1759 1666 1698 1724 1683 1635 1714 1652 1641 1584 1646 1591 1639 1665 1657 1633 1604 1559 1622 1558 1563 1645 1667 1697 1611 1627 1660 1504 1662 1545 1586 1596 1586 1608 1663 1604 1598 1619 1577 1585 1619 1514 1550 1603 1575 1628 1531 1672 1563 1575 1571 1679 1606 1702 1567 1649 1592 1588 1588 1574 1602 1582 1615 1566 1592 1547 1636 1688 1563 1599 1621 1518 1581 1593 1554 1646 1640 1587 1512 1584 1507 1510 1630 1638 1666 1524 1609 1580 1511 1598 1602 1541 1603 1511 1589 1586 1546 1561 1499 1534 1556 1562 1592 1606 1631 1611 1595 1522 1672 1573 1606 1542 1549 1593 1625 1575 1570 1590 1646 1554 1583 1566 1583 1518 1586 1577 1565 1645 1585 1561 1574 1499 1588 1555 1615 1664 1586 1623 1559 1623 1609 1629 1560 1593 1569 1498 1642 1559 1692 1663 1598 1590 1679 1630 1587 1545 1549 1559 1591 1542 1573 1571 1557 1669 1551 1539 1631 1539 1656 1581 1573 1574 1597 1600 1582 1590 1565 1625 1653 1590 1618 1549 1552 1503 1614 1527 1641 1595 1616 1578 1612 1573 1528 1538 1608 1628 1614 1603 1566 1554 1600 1526 1546 1500 1599 1543 1549 1607 1626 1662 1553 1580 1619 1615 1567 1566 1528 1588 1477 1499 1529 1590 1600 1574 1494 1659 1569 1545 1548 1525 1563 1507 1617 1565 1541 1566 1460 1583 1535 1618 1532 1567 1492 1622 1574 1555 1553 1624 1610 1554 1664 1638 1589 1643 1577 1603 1544 1547 1531 1613 1650 1602 1673 1519 1591 1599 1542 1540 1613 1489 1582 1537 1639 1549 1561 1592 1538 1609 1600 1517 1499 1525 1520 1589 1547 1637 1566 1466 1515 1614 1591 1569 1568 1509 1534 1562 1585 1582 1619 1557 1521 1609 1487 1533 1593 1591 1585 1568 1556 1524 1581 1570 1591 1590 1552 1686 1483 1617 1529 1603 1601 1540 1699 1675 1616 1675 1577 1621 1607 1628 1707 1721 1624 1619 1676 1662 1674 1685 1619 1680 1586 1656 1595 1704 1672 1688 1577 1681 1576 1685 1674 1638 1764 1574 1685 1678 1660 1654 1550 1637 1549 1695 1595 1656 1626 1593 1603 1551 1615 1566 1648 1569 1592 1529 1552 1573 1550 1518 1611 1564 1579 1581 1661 1565 1498 1560 1604 1563 1537 1528 1565 1577 1583 1553 1562 1635 1505 1608 1654 1524 1567 1532 1514 1546 1598 1548 1499 1476 1529 1557 1530 1554 1542 1518 1513 1457 1546 1557 1544 1571 1527 1536 1574 1602 1484 1524 1590 1502 1644 1591 1543 1551 1503 1500 1505 1570 1547 1535 1557 1548 1582 1435 1540 1583 1520 1521 1559 1576 1523 1555 1507 1562 1606 1559 1568 1535 1548 1568 1616 1494 1573 1596 1566 1545 1658 1627 1581 1650 1550 1570 1673 1615 1643 1609 1612 1551 1561 1605 1572 1536 1612 1602 1548 1507 1574 1545 1627 1509 1546 1606 1550 1557 1566 1501 1568 1555 1549 1506 1564 1617 1488 1524 1483 1498 1546 1480 1542 1504 1494 1565 1575 1587 1483 1544 1536 1534 1445 1543 1489 1480 1532 1517 1562 1574 1506 1510 1554 1556 1551 1565 1561 1512 1544 1558 1547 1582 1641 1531 1537 1617 1636 1618 1592 1546 1543 1614 1554 1574 1552 1601 1595 1545 1591 1619 1588 1628 1633 1643 1645 1669 1613 1682 1697 1659 1682 1692 1675 1688 1691 1677 1671 1728 1760 1734 1814 1789 1803 1822 1808 1832 1843 1807 1752 1898 1826 1935 1856 1822 1853 1848 1931 1837 1864 1905 1833 1864 1878 1908 1940 1885 1934 1837 1729 1866 1917 1809 1814 1807 1800 1854 1782 1754 1745 1781 1729 1758 1680 1704 1780 1731 1668 1684 1615 1722 1679 1686 1679 1631 1594 1544 1604 1618 1570 1605 1618 1556 1520 1580 1555 1514 1545 1540 1589 1553 1493 1532 1589 1524 1513 1518 1430 1534 1523 1511 1493 1501 1475 1515 1561 1530 1490 1513 1466 1576 1505 1510 1474 1573 1522 1605 1491 1499 1604 1538 1515 1519 1470 1531 1513 1554 1538 1530 1506 1611 1501 1527 1489 1501 1513 1580 1476 1419 1511 1518 1524 1501 1537 1521 1537 1566 1489 1495 1527 1547 1443 1464 1513 1550 1422 1485 1491 1552 1505 1529 1545 1486 1491 1499 1560 1515 1546 1495 1542 1573 1494 1528 1511 1597 1526 1553 1469 1506 1455 1423 1428 1516 1517 1566 1516 1486 1505 1524 1478 1423 1477 1531 1466 1496 1494 1524 1479 1474 1488 1513 1493 1554 1493 1451 1453 1503 1526 1434 1482 1516 1419 1521 1543 1496 1458 1516 1558 1503 1555 1490 1500 1509 1458 1500 1491 1413 1532 1451 1436 1510 1420 1492 1461 1480 1483 1477 1610 1432 1516 1421 1479 1435 1467 1477 1453 1522 1502 1508 1430 1428 1480 1405 1462 1501 1435 1549 1469 1545 1514 1455 1442 1471 1488 1464 1558 1461 1538 1459 1420 1458 1558 1554 1502 1539 1547 1477 1542 1517 1482 1526 1507 1484 1575 1460 1552 1490 1520 1495 1506 1564 1496 1447 1441 1522 1470 1527 1517 1434 1487 1499 1485 1464 1458 1491 1492 1501 1528 1488 1520 1490 1512 1445 1479 1513 1522 1532 1507 1518 1401 1439 1536 1431 1526 1498 1494 1493 1541 1528 1449 1489 1509 1504 1517 1488 1532 1511 1588 1525 1526 1413 1537 1424 1476 1468 1509 1510 1454 1533 1460 1551 1512 1527 1503 1519 1507 1428 1526 1498 1563 1454 1614 1532 1534 1561 1479 1496 1520 1578 1538 1576 1553 1578 1537 1622 1565 1568 1591 1545 1572 1581 1602 1595 1598 1649 1649 1544 1731 1624 1659 1745 1809 1890 1822 1864 1841 1885 1856 1921 2026 2012 1971 2086 1974 2063 2049 2062 2083 2148 2132 2293 2266 2271 2384 2312 2384 2483 2412 2415 2494 2494 2535 2574 2721 2742 2665 2774 2900 2889 2945 3028 3052 3094 3096 3236 3232 3377 3191 3297 3342 3255 3319 3231 3237 3282 3144 3179 3137 3130 3010 3048 3023 2929 2803 2879 2758 2700 2710 2568 2506 2593 2508 2493 2286 2283 2219 2237 2244 2157 2174 2017 2125 2018 2011 2004 1955 2058 1915 1850 1869 1892 1881 1843 1803 1815 1811 1725 1758 1748 1684 1722 1714 1703 1723 1790 1744 1705 1669 1544 1600 1666 1654 1647 1654 1566 1571 1614 1579 1611 1631 1491 1595 1619 1540 1669 1551 1585 1516 1516 1556 1469 1566 1538 1539 1510 1553 1589 1488 1500 1513 1594 1538 1525 1507 1489 1443 1576 1512 1519 1526 1495 1542 1510 1565 1506 1504 1455 1528 1534 1530 1524 1496 1474 1432 1536 1455 1480 1453 1501 1456 1420 1460 1536 1484 1485 1430 1509 1498 1542 1454 1555 1561 1449 1499 1516 1517 1485 1483 1502 1472 1524 1490 1441 1486 1516 1524 1517 1455 1555 1519 1499 1540 1475 1491 1539 1491 1526 1528 1443 1511 1434 1549 1535 1498 1472 1518 1434 1453 1541 1544 1500 1464 1454 1417 1597 1487 1528 1499 1500 1585 1481 1553 1478 1557 1592 1523 1564 1628 1564 1512 1508 1640 1600 1560 1601 1535 1613 1581 1536 1508 1562 1572 1598 1617 1687 1578 1555 1689 1558 1633 1738 1731 1664 1678 1679 1624 1665 1614 1611 1699 1724 1679 1700 1691 1740 1668 1672 1799 1600 1700 1681 1722 1607 1759 1686 1676 1720 1740 1593 1665 1644 1617 1589 1621 1658 1743 1621 1617 1669 1574 1570 1578 1629 1613 1626 1616 1629 1564 1529 1559 1593 1614 1556 1591 1594 1599 1576 1545 1541 1582 1539 1591 1604 1505 1552 1464 1520 1503 1504 1576 1513 1561 1489 1434 1540 1593 1534 1498 1498 1446 1512 1468 1502 1491 1465 1507 1469 1537 1526 1504 1582 1463 1560 1505 1452 1583 1512 1451 1497 1480 1486 1525 1523 1438 1454 1443 1441 1469 1503 1508 1452 1401 1481 1508 1468 1398 1434 1480 1427 1472 1491 1470 1380 1497 1490 1465 1447 1517 1472 1487 1444 1471 1437 1394 1423 1405 1454 1384 1464 1427 1367 1485 1351 1463 1369 1439 1430 1434 1378 1412 1456 1445 1428 1430 1436 1423 1393 1441 1411 1344 1464 1521 1406 1413 1440 1451 1455 1374 1495 1399 1491 1464 1438 1374 1448 1449 1368 1384 1411 1378 1418 1460 1418 1398 1419 1443 1474 1386 1334 1470 1525 1394 1344 1429 1414 1451 1480 1404 1421 1405 1461 1443 1387 1473 1433 1384 1418 1437 1395 1406 1458 1436 1370 1386 1542 1446 1478 1434 1436 1449 1370 1331 1365 1420 1370 1354 1479 1425 1403 1431 1440 1425 1389 1328 1352 1454 1406 1399 1402 1402 1442 1448 1447 1499 1405 1394 1403 1364 1416 1441 1383 1465 1443 1332 1370 1385 1390 1397 1372 1382 1343 1421 1434 1400 1373 1376 1351 1330 1389 1385 1421 1405 1388 1399 1412 1377 1374 1392 1381 1351 1429 1409 1364 1412 1369 1434 1415 1432 1364 1382 1358 1377 1432 1329 1420 1376 1374 1366 1432 1375 1392 1398 1408 1405 1351 1357 1389 1386 1397 1402 1320 1457 1364 1427 1425 1358 1394 1312 1380 1304 1446 1381 1343 1387 1389 1424 1365 1385 1350 1435 1404 1363 1375 1351 1368 1312 1387 1404 1302 1484 1354 1378 1421 1404 1382 1417 1336 1474 1345 1400 1385 1402 1450 1386 1416 1322 1402 1404 1341 1345 1405 1414 1440 1383 1362 1359 1421 1449 1377 1381 1389 1429 1445 1415 1460 1412 1437 1378 1407 1397 1376 1469 1482 1467 1515 1421 1379 1450 1457 1381 1407 1440 1389 1406 1383 1408 1409 1437 1362 1395 1427 1489 1407 1413 1365 1361 1470 1372 1407 1432 1418 1400 1448 1383 1309 1368 1414 1471 1423 1449 1415 1366 1432 1444 1419 1407 1373 1384 1393 1439 1400 1374 1378 1399 1465 1387 1399 1351 1374 1389 1441 1354 1366 1367 1409 1438 1396 1387 1334 1442 1408 1440 1465 1414 1406 1404 1341 1452 1319 1369 1405 1396 1374 1331 1390 1434 1323 1396 1412 1386 1307 1415 1296 1447 1376 1334 1425 1402 1471 1369 1421 1429 1401 1434 1410 1361 1368 1326 1402 1298 1326 1395 1343 1355 1379 1379 1306 1461 1414 1381 1371 1379 1363 1358 1329 1329 1392 1399 1303 1333 1400 1358 1443 1364 1458 1446 1445 1392 1411 1345 1361 1338 1354 1479 1381 1400 1377 1400 1440 1398 1382 1368 1433 1381 1395 1382 1381 1374 1461 1358 1357 1383 1392 1305 1363 1405 1375 1414 1427 1407 1435 1354 1370 1359 1420 1415 1357 1417 1327 1448 1396 1386 1400 1392 1363 1390 1398 1505 1405 1410 1411 1449 1474 1473 1444 1438 1421 1480 1479 1426 1460 1417 1496 1364 1448 1472 1473 1457 1475 1491 1390 1452 1463 1503 1432 1508 1391 1411 1465 1403 1470 1487 1399 1405 1444 1494 1417 1384 1456 1441 1432 1397 1461 1433 1424 1447 1472 1427 1436 1440 1491 1488 1540 1385 1481 1436 1493 1490 1476 1511 1580 1491 1540 1499 1512 1503 1542 1536 1447 1555 1461 1542 1524 1521 1540 1509 1519 1524 1659 1640 1589 1584 1533 1592 1586 1528 1616 1608 1652 1536 1615 1553 1580 1477 1521 1645 1548 1587 1511 1548 1497 1531 1463 1586 1520 1538 1575 1553 1515 1525 1491 1499 1465 1515 1464 1538 1478 1432 1500 1480 1492 1466 1382 1437 1501 1405 1441 1445 1393 1408 1418 1421 1443 1413 1405 1375 1390 1475 1387 1410 1424 1431 1405 1448 1322 1396 1390 1328 1364 1455 1423 1376 1391 1385 1347 1376 1300 1422 1377 1365 1362 1337 1373 1346 1355 1399 1397 1350 1329 1396 1456 1326 1384 1406 1296 1395 1359 1371 1420 1341 1391 1322 1388 1388 1333 1358 1364 1361 1386 1319 1333 1328 1394 1354 1390 1365 1354 1448 1367 1322 1368 1317 1397 1338 1319 1440 1431 1377 1295 1448 1335 1359 1391 1390 1396 1316 1349 1365 1380 1304 1329 1389 1426 1348 1375 1373 1390 1359 1371 1432 1341 1351 1363 1358 1392 1374 1388 1351 1357 1367 1355 1403 1356 1378 1353 1404 1383 1365 1366 1395 1415 1376 1392 1288 1357 1295 1371 1428 1341 1381 1422 1365 1331 1402 1418 1381 1395 1419 1387 1385 1347 1384 1420 1383 1404 1318 1411 1336 1374 1417 1362 1354 1359 1294 1379 1380 1398 1382 1370 1329 1316 1369 1449 1396 1474 1429 1374 1316 1477 1333 1394 1379 1450 1447 1401 1379 1450 1447 1401 1459 1472 1441 1492 1474 1405 1439 1468 1454 1407 1484 1441 1440 1540 1498 1466 1497 1444 1524 1561 1481 1522 1535 1515 1537 1580 1543 1520 1498 1607 1594 1562 1554 1515 1656 1604 1613 1660 1639 1713 1690 1733 1699 1708 1734 1643 1714 1696 1717 1685 1755 1747 1665 1726 1762 1760 1679 1717 1685 1801 1591 1661 1725 1732 1752 1706 1626 1684 1629 1670 1595 1648 1609 1547 1629 1608 1573 1585 1576 1516 1570 1483 1482 1590 1552 1504 1485 1471 1517 1529 1513 1463 1452 1544 1500 1497 1451 1415 1487 1493 1408 1478 1449 1423 1467 1448 1399 1416 1396 1382 1426 1451 1431 1405 1386 1406 1340 1392 1389 1378 1357 1370 1385 1334 1339 1349 1353 1330 1385 1372 1365 1352 1420 1371 1424 1364 1366 1297 1397 1342 1329 1364 1331 1326 1374 1301 1317 1331 1346 1340 1357 1373 1250 1360 1357 1267 1334 1357 1360 1324 1364 1394 1402 1334 1333 1406 1349 1350 1356 1332 1385 1326 1374 1351 1332 1367 1378 1342 1311 1283 1339 1310 1345 1343 1341 1376 1363 1345 1353 1340 1416 1377 1343 1388 1344 1302 1386 1319 1442 1328 1427 1368 1309 1335 1387 1317 1326 1428 1393 1484 1421 1428 1347 1404 1362 1424 1397 1383 1380 1357 1393 1385 1340 1438 1484 1437 1452 1457 1415 1411 1381 1427 1393 1473 1486 1447 1435 1492 1456 1416 1441 1450 1484 1436 1447 1455 1415 1517 1455 1449 1433 1440 1531 1481 1490 1447 1455 1485 1440 1426 1472 1457 1393 1409 1435 1437 1467 1428 1492 1469 1446 1442 1375 1440 1404 1401 1373 1363 1388 1404 1390 1330 1414 1390 1440 1338 1407 1377 1332 1413 1413 1396 1356 1367 1345 1348 1329 1317 1343 1373 1416 1336 1385 1357 1351 1329 1420 1413 1326 1401 1370 1315 1336 1376 1420 1335 1348 1375 1392 1337 1293 1328 1341 1336 1288 1382 1363 1330 1342 1338 1369 1317 1247 1348 1334 1394 1353 1319 1255 1327 1355 1324 1308 1290 1360 1336 1310 1334 1258 1345 1325 1380 1316 1366 1277 1320 1324 1258 1317 1354 1357 1383 1341 1357 1311 1310 1336 1335 1309 1316 1300 1301 1304 1287 1306 1286 1318 1289 1243 1320 1239 1266 1284 1329 1322 1387 1363 1267 1290 1300 1290 1332 1365 1331 1332 1269 1317 1355 1307 1322 1252 1269 1275 1351 1347 1350 1333 1323 1281 1314 1343 1341 1349 1300 1349 1299 1391 1321 1313 1354 1326 1392 1256 1349 1295 1350 1347 1308 1255 1256 1314 1330 1284 1389 1303 1359 1283 1351 1267 1352 1317 1298 1311 1314 1384 1258 1305 1327 1288 1310 1280 1259 1265 1265 1279 1326 1273 1337 1317 1342 1318 1373 1340 1352 1292 1274 1333 1262 1319 1292 1338 1311 1295 1305 1251 1325 1344 1295 1398 1273 1245 1276 1334 1365 1341 1249 1350 1338 1265 1258 1278 1355 1244 1295 1350 1302 1320 1334 1343 1268 1228 1336 1346 1249 1304 1297 1312 1378 1320 1319 1249 1399 1363 1322 1229 1352 1256 1274 1303 1331 1265 1272 1282 1295 1343 1284 1346 1319 1298 1296 1322 1326 1340 1287 1346 1317 1330 1304 1317 1328 1309 1369 1376 1362 1296 1269 1290 1322 1333 1276 1350 1327 1300 1283 1322 1364 1314 1281 1290 1256 1292 1325 1310 1360 1289 1263 1285 1321 1327 1274 1319 1324 1295 1273 1316 1348 1318 1316 1312 1328 1337 1340 1283 1258 1264 1365 1411 1312 1336 1338 1314 1342 1298 1283 1319 1335 1296 1353 1343 1353 1234 1307 1303 1327 1251 1322 1292 1370 1326 1258 1397 1308 1275 1341 1294 1303 1325 1304 1307 1314 1311 1245 1287 1343 1334 1346 1329 1306 1317 1273 1286 1283 1276 1330 1324 1342 1249 1358 1322 1261 1313 1341 1332 1302 1298 1291 1311 1332 1295 1264 1291 1273 1271 1295 1308 1287 1254 1245 1280 1344 1325 1316 1340 1303 1335 1291 1293 1225 1369 1241 1295 1281 1315 1336 1344 1254 1271 1313 1352 1307 1294 1281 1347 1278 1325 1304 1242 1283 1349 1268 1249 1288 1277 1325 1309 1220 1264 1342 1358 1322 1303 1315 1387 1246 1414 1335 1305 1332 1327 1304 1291 1333 1346 1293 1368 1301 1257 1352 1325 1379 1307 1280 1308 1348 1251 1290 1347 1327 1329 1339 1293 1315 1327 1274 1363 1314 1254 1295 1295 1280 1223 1361 1381 1302 1281 1291 1294 1318 1303 1319 1325 1318 1314 1341 1407 1353 1366 1333 1370 1377 1364 1367 1384 1384 1389 1450 1370 1392 1356 1369 1298 1369 1371 1316 1300 1363 1351 1265 1405 1323 1344 1355 1345 1373 1350 1376 1378 1385 1368 1331 1325 1366 1362 1280 1372 1305 1327 1386 1276 1397 1326 1327 1271 1344 1400 1331 1305 1363 1321 1320 1243 1277 1341 1285 1291 1308 1287 1290 1246 1305 1301 1334 1374 1321 1259 1306 1318 1284 1242 1334 1290 1254 1263 1353 1315 1307 1249 1310 1281 1239 1320 1283 1336 1278 1301 1263 1267 1281 1302 1355 1292 1305 1353 1321 1331 1361 1346 1247 1289 1211 1297 1329 1309 1296 1351 1281 1337 1236 1283 1259 1220 1302 1273 1297 1286 1309 1352 1228 1278 1266 1263 1355 1254 1267 1301 1324 1315 1352 1322 1371 1273 1286 1337 1309 1343 1341 1294 1348 1256 1319 1268 1265 1176 1302 1273 1312 1343 1335 1310 1289 1260 1250 1285 1337 1317 1288 1239 1248 1253 1318 1294 1282 1337 1274 1283 1266 1306 1330 1269 1249 1230 1293 1307 1334 1281 1289 1333 1326 1367 1293 1323 1269 1349 1288 1285 1298 1277 1271 1238 1305 1254 1295 1286 1282 1306 1283 1302 1285 1228 1317 1241 1268 1303 1248 1261 1305 1261 1269 1264 1310 1267 1246 1230 1272 1283 1307 1209 1319 1259 1290 1274 1263 1303 1262 1330 1319 1340 1271 1285 1286 1299 1301 1369 1331 1315 1349 1310 1256 1255 1305 1364 1392 1360 1234 1352 1343 1322 1300 1349 1330 1318 1341 1311 1345 1318 1308 1327 1299 1358 1386 1301 1331 1342 1366 1306 1317 1313 1313 1308 1353 1357 1396 1452 1400 1403 1352 1349 1387 1323 1377 1344 1375 1335 1332 1337 1386 1357 1359 1349 1378 1312 1441 1347 1390 1392 1393 1415 1367 1452 1389 1364 1417 1401 1362 1367 1433 1459 1431 1365 1398 1421 1353 1421 1377 1426 1390 1426 1347 1432 1350 1376 1434 1408 1429 1362 1390 1386 1337 1380 1385 1376 1362 1394 1421 1385 1339 1351 1361 1375 1343 1359 1357 1245 1373 1402 1373 1325 1324 1378 1316 1359 1315 1420 1410 1401 1327 1433 1383 1374 1354 1342 1348 1325 1316 1388 1328 1370 1345 1384 1335 1278 1305 1366 1357 1390 1318 1284 1276 1325 1330 1293 1376 1285 1250 1294 1273 1347 1341 1350 1240 1336 1297 1317 1276 1273 1290 1295 1275 1297 1281 1320 1329 1307 1260 1373 1291 1230 1301 1222 1281 1287 1271 1289 1262 1263 1253 1272 1246 1324 1247 1276 1343 1242 1245 1332 1302 1308 1324 1333 1269 1241 1229 1309 1231 1342 1363 1316 1286 1266 1323 1246 1301 1252 1251 1352 1289 1308 1249 1299 1284 1291 1300 1285 1316 1309 1232 1332 1328 1257 1302 1243 1276 1245 1285 1243 1274 1322 1272 1218 1264 1266 1300 1240 1200 1222 1243 1236 1313 1263 1260 1331 1275 1250 1306 1272 1247 1186 1260 1259 1324 1256 1266 1231 1318 1282 1212 1230 1303 1269 1270 1294 1308 1331 1289 1256 1272 1231 1235 1311 1273 1274 1347 1345 1281 1367 1214 1264 1289 1285 1357 1317 1271 1271 1252 1357 1346 1285 1302 1221 1288 1272 1281 1256 1262 1288 1276 1280 1299 1269 1291 1203 1316 1306 1362 1311 1275 1281 1295 1262 1279 1308 1371 1232 1246 1379 1324 1277 1353 1356 1245 1324 1361 1294 1251 1294 1272 1270 1263 1271 1322 1278 1257 1347 1363 1285 1330 1253 1316 1211 1270 1274 1295 1323 1320 1268 1236 1265 1254 1281 1271 1334 1259 1346 1238 1232 1266 1289 1346 1217 1292 1266 1293 1305 1264 1276 1291 1254 1275 1189 1258 1241 1261 1305 1235 1297 1220 1303 1271 1268 1255 1316 1306 1267 1260 1314 1240 1266 1256 1304 1271 1345 1348 1300 1305 1303 1302 1230 1261 1314 1311 1290 1274 1211 1303 1347 1243 1320 1297 1284 1270 1289 1300 1291 1164 1227 1344 1279 1309 1319 1332 1251 1246 1267 1270 1199 1277 1292 1310 1284 1296 1293 1320 1276 1301 1258 1269 1313 1299 1267 1244 1258 1266 1291 1277 1215 1255 1280 1242 1260 1239 1310 1291 1360 1240 1255 1204 1280 1202 1322 1224 1313 1224 1329 1234 1239 1298 1284 1225 1272 1270 1253 1252 1340 1311 1281 1240 1250 1302 1301 1245 1282 1294 1318 1250 1294 1197 1287 1266 1312 1313 1310 1311 1299 1362 1229 1234 1323 1290 1280 1292 1249 1274 1271 1305 1235 1302 1324 1241 1200 1337 1239 1260 1222 1339 1299 1257 1271 1260 1316 1152 1342 1221 1263 1194 1230 1320 1295 1276 1298 1281 1255 1272 1282 1285 1297 1258 1278 1265 1287 1300 1330 1255 1270 1260 1327 1254 1286 1277 1278 1232 1308 1216 1307 1347 1262 1242 1271 1278 1219 1363 1337 1303 1229 1313 1301 1287 1249 1264 1281 1245 1293 1324 1272 1282 1299 1310 1244 1298 1279 1330 1279 1277 1347 1253 1232 1252 1247 1315 1199 1334 1269 1313 1265 1278 1361 1414 1238 1295 1299 1277 1293 1257 1297 1318 1232 1276 1306 1286 1272 1273 1291 1264 1340 1295 1220 1272 1246 1300 1287 1329 1201 1299 1242 1318 1233 1329 1287 1280 1313 1255 1226 1368 1284 1264 1300 1308 1305 1316 1276 1310 1279 1260 1299 1211 1262 1313 1269 1253 1250 1279 1306 1286 1250 1206 1308 1222 1322 1321 1264 1273 1283 1290 1239 1331 1321 1258 1341 1258 1333 1324 1282 1288 1338 1173 1290 1303 1326 1275 1274 1303 1285 1259 1296 1298 1279 1335 1265 1367 1264 1248 1238 1291 1335 1295 1326 1248 1315 1383 1249 1292 1292 1270 1239 1276 1300 1287 1306 1321 1255 1315 1267 1360 1283 1310 1304 1345 1258 1283 1356 1333 1303 1260 1298 1376 1359 1307 1284 1313 1260 1346 1357 1339 1289 1278 1313 1336 1350 1299 1285 1337 1314 1352 1271 1365 1302 1336 1288 1339 1357 1251 1327 1296 1345 1345 1367 1296 1346 1309 1307 1304 1339 1341 1364 1359 1278 1339 1337 1343 1405 1313 1354 1297 1329 1352 1284 1306 1295 1394 1280 1301 1292 1368 1346 1334 1407 1325 1316 1407 1355 1354 1296 1317 1289 1357 1400 1351 1325 1341 1385 1353 1311 1344 1349 1394 1308 1307 1351 1314 1401 1327 1385 1414 1287 1399 1401 1290 1385 1411 1379 1390 1331 1287 1301 1278 1319 1311 1324 1344 1346 1355 1230 1279 1329 1263 1311 1333 1223 1314 1288 1240 1317 1343 1302 1278 1343 1320 1313 1330 1326 1319 1265 1353 1300 1349 1280 1278 1267 1314 1269 1308 1305 1345 1338 1292 1295 1267 1380 1305 1263 1367 1339 1257 1264 1310 1267 1332 1273 1321 1284 1318 1234 1328 1305 1320 1293 1285 1322 1383 1303 1275 1305 1220 1318 1361 1305 1250 1304 1253 1247 1306 1267 1319 1318 1301 1282 1308 1304 1232 1311 1326 1331 1275 1305 1317 1258 1332 1334 1261 1292 1320 1316 1265 1323 1315 1305 1330 1257 1367 1307 1292 1296 1315 1235 1338 1280 1298 1363 1278 1303 1334 1270 1326 1329 1266 1244 1364 1326 1349 1373 1428 1286 1366 1337 1279 1304 1398 1339 1344 1364 1303 1349 1305 1348 1359 1330 1361 1338 1412 1349 1339 1334 1363 1349 1342 1425 1355 1358 1325 1370 1370 1361 1331 1400 1390 1395 1339 1434 1359 1405 1383 1387 1413 1329 1428 1440 1345 1416 1385 1424 1401 1369 1392 1401 1412 1409 1408 1422 1398 1407 1424 1486 1394 1481 1394 1548 1413 1511 1457 1443 1470 1457 1479 1418 1496 1531 1538 1485 1510 1462 1473 1507 1534 1485 1437 1508 1492 1541 1531 1462 1513 1597 1522 1523 1466 1548 1568 1473 1560 1501 1525 1476 1482 1520 1449 1520 1493 1424 1526 1479 1495 1445 1440 1561 1531 1437 1563 1473 1419 1482 1420 1501 1484 1402 1440 1476 1507 1449 1450 1448 1428 1442 1460 1383 1426 1383 1493 1319 1456 1363 1419 1341 1442 1331 1433 1369 1383 1394 1440 1386 1398 1297 1369 1367 1324 1351 1408 1389 1425 1290 1382 1308 1357 1321 1406 1335 1373 1313 1299 1317 1351 1322 1324 1310 1360 1331 1311 1317 1355 1273 1354 1337 1258 1376 1286 1410 1344 1343 1307 1297 1272 1345 1304 1355 1332 1330 1373 1292 1300 1288 1330 1329 1279 1278 1326 1319 1277 1265 1296 1275 1296 1256 1296 1279 1295 1281 1297 1287 1254 1297 1254 1307 1287 1376 1363 1317 1332 1343 1372 1342 1279 1319 1231 1265 1280 1318 1288 1304 1266 1294 1295 1302 1294 1321 1362 1375 1300 1295 1332 1294 1308 1340 1338 1308 1327 1302 1272 1256 1353 1304 1394 1365 1366 1303 1283 1282 1265 1247 1239 1264 1250 1303 1325 1254 1232 1236 1315 1333 1231 1345 1279 1318 1318 1360 1287 1367 1274 1353 1295 1292 1322 1222 1332 1327 1307 1291 1287 1328 1335 1233 1317 1237 1325 1382 1263 1275 1285 1283 1256 1258 1278 1251 1253 1322 1296 1258 1319 1245 1337 1329 1274 1336 1310 1350 1317 1268 1272 1282 1348 1303 1335 1213 1285 1242 1304 1349 1339 1296 1300 1238 1229 1303 1256 1258 1274 1295 1262 1264 1267 1179 1283 1227 1242 1200 1274 1327 1246 1279 1209 1245 1294 1264 1312 1276 1252 1372 1239 1215 1300 1216 1266 1266 1294 1292 1342 1278 1263 1285 1292 1331 1271 1301 1188 1275 1282 1285 1293 1236 1260 1220 1274 1291 1305 1310 1253 1293 1211 1311 1248 1242 1281 1247 1282 1249 1177 1280 1227 1267 1336 1253 1320 1294 1218 1310 1248 1234 1279 1223 1222 1264 1242 1343 1275 1260 1296 1261 1269 1310 1250 1299 1268 1250 1309 1199 1218 1220 1255 1278 1234 1311 1310 1308 1229 1293 1307 1234 1241 1227 1125 1256 1245 1279 1299 1309 1369 1283 1241 1254 1340 1301 1299 1184 1242 1189 1263 1264 1289 1296 1241 1270 1270 1287 1231 1208 1246 1269 1247 1186 1277 1198 1275 1255 1197 1289 1231 1236 1326 1251 1256 1256 1262 1241 1223 1285 1240 1286 1277 1198 1206 1221 1221 1221 1287 1237 1262 1271 1314 1289 1228 1232 1261 1264 1294 1260 1241 1316 1237 1238 1268 1283 1265 1301 1233 1295 1277 1315 1235 1294 1197 1320 1331 1221 1195 1212 1265 1262 1220 1303 1276 1350 1269 1326 1216 1237 1192 1275 1229 1332 1235 1229 1323 1311 1229 1260 1232 1188 1256 1335 1217 1221 1259 1230 1231 1253 1285 1284 1264 1288 1290 1244 1261 1283 1281 1260 1250 1215 1269 1283 1237 1251 1232 1274 1309 1149 1252 1198 1301 1254 1203 1280 1203 1268 1256 1203 1334 1211 1294 1323 1245 1210 1244 1243 1308 1224 1345 1251 1291 1225 1288 1293 1247 1201 1252 1311 1215 1308 1243 1270 1290 1264 1293 1285 1219 1274 1306 1281 1277 1268 1198 1275 1257 1309 1238 1254 1274 1207 1279 1350 1290 1294 1291 1301 1222 1313 1240 1279 1268 1243 1236 1203 1239 1317 1251 1303 1292 1250 1265 1305 1281 1290 1268 1341 1292 1282 1274 1246 1227 1153 1321 1268 1234 1205 1251 1274 1254 1276 1264 1240 1294 1329 1261 1284 1254 1249 1228 1246 1259 1285 1262 1229 1281 1218 1286 1307 1252 1257 1304 1240 1246 1244 1263 1263 1282 1257 1191 1254 1297 1269 1257 1268 1258 1319 1263 1214 1236 1285 1330 1256 1326 1250 1235 1299 1267 1275 1272 1255 1255 1304 1222 1311 1257 1294 1263 1273 1292 1252 1314 1218 1197 1239 1281 1260 1237 1257 1337 1241 1293 1241 1301 1247 1302 1329 1281 1292 1239 1268 1250 1263 1185 1265 1222 1328 1311 1319 1302 1277 1334 1250 1260 1258 1210 1288 1282 1215 1262 1193 1311 1256 1276 1290 1232 1265 1242 1270 1356 1273 1337 1217 1338 1293 1273 1285 1244 1305 1260 1270 1245 1257 1255 1311 1286 1275 1245 1295 1319 1233 1211 1311 1259 1307 1241 1260 1253 1209 1232 1243 1293 1282 1255 1339 1224 1318 1224 1245 1270 1285 1206 1252 1203 1268 1266 1250 1275 1241 1246 1269 1239 1179 1262 1260 1255 1276 1281 1244 1252 1224 1227 1296 1243 1204 1207 1254 1316 1220 1247 1276 1238 1267 1248 1297 1231 1246 1258 1250 1281 1267 1297 1233 1255 1272 1203 1279 1205 1237 1207 1276 1259 1254 1247 1215 1186 1230 1283 1283 1295 1269 1296 1217 1277 1328 1265 1258 1255 1256 1256 1341 1264 1248 1278 1266 1295 1241 1231 1352 1217 1295 1213 1238 1255 1251 1264 1245 1283 1251 1346 1287 1220 1183 1270 1269 1233 1264 1315 1261 1265 1251 1285 1284 1319 1222 1279 1219 1174 1253 1270 1261 1262 1261 1254 1271 1215 1229 1234 1284 1287 1308 1331 1289 1268 1278 1265 1290 1310 1193 1275 1323 1316 1332 1245 1255 1227 1301 1325 1308 1294 1249 1278 1319 1311 1319 1319 1258 1323 1309 1260 1285 1306 1293 1302 1255 1347 1287 1283 1297 1307 1314 1266 1288 1327 1270 1347 1345 1325 1325 1285 1300 1282 1280 1324 1344 1361 1327 1353 1329 1297 1254 1366 1346 1388 1339 1315 1301 1376 1384 1405 1429 1396 1339 1343 1370 1335 1409 1403 1329 1331 1371 1361 1468 1392 1437 1423 1418 1402 1450 1376 1467 1418 1453 1438 1400 1395 1393 1387 1414 1401 1348 1412 1463 1410 1345 1371 1440 1398 1383 1300 1358 1386 1365 1414 1337 1382 1384 1356 1375 1365 1362 1439 1389 1302 1403 1363 1374 1330 1320 1396 1392 1387 1346 1335 1364 1340 1353 1373 1373 1318 1373 1304 1306 1311 1344 1422 1365 1312 1332 1264 1337 1300 1319 1380 1333 1302 1334 1334 1327 1284 1315 1299 1308 1335 1271 1326 1266 1307 1231 1382 1285 1284 1328 1308 1350 1304 1307 1368 1312 1252 1286 1275 1382 1252 1306 1305 1280 1294 1238 1252 1297 1296 1240 1234 1231 1357 1257 1227 1229 1214 1287 1250 1286 1266 1338 1249 1287 1262 1270 1284 1219 1296 1208 1280 1322 1201 1257 1280 1296 1253 1277 1247 1254 1295 1313 1231 1240 1233 1261 1188 1224 1252 1371 1257 1258 1311 1273 1230 1236 1216 1245 1309 1236 1270 1244 1333 1278 1234 1268 1247 1293 1262 1226 1238 1215 1233 1168 1264 1219 1269 1234 1313 1233 1218 1323 1216 1265 1226 1263 1192 1244 1244 1245 1220 1232 1313 1223 1253 1249 1217 1280 1257 1313 1309 1257 1267 1283 1242 1252 1238 1245 1270 1374 1282 1241 1304 1230 1230 1194 1218 1186 1232 1285 1238 1291 1233 1222 1297 1201 1245 1209 1208 1240 1277 1255 1221 1259 1272 1261 1293 1247 1263 1188 1216 1229 1198 1248 1294 1276 1293 1169 1208 1257 1220 1259 1274 1258 1243 1210 1223 1285 1300 1282 1213 1199 1271 1229 1208 1222 1254 1276 1201 1229 1244 1263 1323 1300 1211 1275 1170 1224 1252 1238 1269 1221 1285 1321 1303 1283 1194 1264 1210 1233 1268 1224 1286 1168 1260 1198 1281 1231 1300 1258 1262 1271 1249 1215 1256 1250 1239 1206 1225 1223 1253 1311 1196 1276 1273 1192 1271 1268 1220 1208 1190 1233 1232 1267 1205 1236 1237 1266 1285 1199 1245 1201 1244 1203 1226 1257 1226 1207 1245 1286 1249 1221 1270 1216 1244 1219 1208 1198 1217 1230 1242 1220 1178 1258 1227 1245 1197 1278 1255 1357 1250 1242 1152 1208 1262 1293 1228 1240 1259 1291 1328 1194 1201 1239 1284 1278 1239 1220 1188 1238 1261 1231 1253 1276 1259 1284 1152 1214 1181 1259 1228 1268 1250 1186 1203 1215 1208 1243 1299 1261 1224 1224 1234 1234 1219 1182 1234 1222 1217 1208 1205 1209 1189 1221 1229 1236 1186 1282 1231 1291 1290 1242 1239 1254 1224 1236 1192 1203 1274 1201 1217 1274 1217 1220 1239 1201 1224 1140 1229 1308 1231 1269 1254 1227 1229 1219 1241 1228 1185 1233 1240 1285 1192 1208 1258 1285 1221 1232 1259 1209 1267 1248 1268 1213 1287 1163 1200 1228 1257 1190 1194 1243 1220 1167 1206 1222 1268 1212 1239 1167 1227 1215 1243 1237 1207 1243 1218 1253 1250 1207 1283 1234 1155 1223 1244 1255 1233 1229 1219 1227 1292 1213 1227 1227 1244 1244 1247 1270 1266 1281 1244 1167 1311 1252 1268 1255 1200 1234 1260 1264 1241 1212 1173</counts>
			</dataPoints>
		</scan>
	</xrdMeasurement>
</xrdMeasurements>
