<?xml version="1.0"?>
<xrdMeasurements xmlns="http://www.xrdml.com/XRDMeasurement/2.3" xmlns:xsi="http://www.w3.org/2001/XMLSchema-instance" xsi:schemaLocation="http://www.xrdml.com/XRDMeasurement/2.3 http://www.xrdml.com/XRDMeasurement/2.3/XRDMeasurement.xsd" status="Completed" recordIdentifier="{8EF473B4-24C1-4504-9FB2-8DC4E3730BE2}">
	<comment>
		<entry/>
	</comment>
	<sample type="To be analyzed">
		<id>GPSS_Li1p70Ni0p80Zr0p10V0p10Cl4_121325_693cb366f4d05ae3d69752bd</id>
		<name></name>
		<preparedBy></preparedBy>
	</sample>
	<xrdMeasurement measurementType="Scan" status="Completed" sampleMode="Reflection">
		<usedWavelength intended="K-Alpha 1">
			<kAlpha1 unit="Angstrom">1.5405980</kAlpha1>
			<kAlpha2 unit="Angstrom">1.5444260</kAlpha2>
			<kBeta unit="Angstrom">1.3922500</kBeta>
			<ratioKAlpha2KAlpha1>0.5000</ratioKAlpha2KAlpha1>
		</usedWavelength>
		<incidentBeamPath>
			<radius unit="mm">145.00</radius>
			<xRayTube id="1010048" name="Empyrean Cu LFF HR (9430 033 7310x)">
				<tension unit="kV">40.0</tension>
				<current unit="mA">15.0</current>
				<anodeMaterial>Cu</anodeMaterial>
				<focus type="Line">
					<length unit="mm">12.0</length>
					<width unit="mm">0.4</width>
					<takeOffAngle unit="deg">6.0</takeOffAngle>
				</focus>
			</xRayTube>
			<sollerSlit id="21010002" name="Soller slits 0.04 rad.">
				<opening unit="rad">0.0400</opening>
			</sollerSlit>
			<mask id="22031000" name="Fixed mask 13 mm">
				<width unit="mm">9.00</width>
			</mask>
			<divergenceSlit id="22120001" name="Divergence slit 1°" xsi:type="fixedDivergenceSlitType">
				<distanceToSample unit="mm">50.00</distanceToSample>
				<height unit="mm">1.52</height>
			</divergenceSlit>
		</incidentBeamPath>
		<sampleMovement xsi:type="spinningSampleMovementType">
			<spinnerRevolutionTime unit="seconds">1.0</spinnerRevolutionTime>
		</sampleMovement>
		<diffractedBeamPath>
			<radius unit="mm">145.00</radius>
			<antiScatterSlit id="22090040" name="AS slit 9 mm (PIXcel)" xsi:type="fixedAntiScatterSlitType">
				<height unit="mm">9.00</height>
			</antiScatterSlit>
			<sollerSlit id="21020003" name="Large Soller slits 0.04 rad.">
				<opening unit="rad">0.0400</opening>
			</sollerSlit>
			<filter id="20030001" name="Large beta-filter Nickel">
				<material>Ni</material>
				<thickness unit="mm">0.020</thickness>
			</filter>
			<detector id="7010019" name="PIXcel1D-Medipix3 detector" xsi:type="rtmsDetectorType">
				<phd unit="keV">
					<lowerLevel>4.02</lowerLevel>
					<upperLevel>11.27</upperLevel>
				</phd>
				<mode>Scanning</mode>
				<activeLength unit="deg">5.542</activeLength>
			</detector>
		</diffractedBeamPath>
		<scan appendNumber="0" mode="Continuous" scanAxis="Gonio" status="Completed">
			<header>
				<startTimeStamp>2025-12-17T13:23:28-08:00</startTimeStamp>
				<endTimeStamp>2025-12-17T13:31:35-08:00</endTimeStamp>
				<author>
					<name>AutomatedUser</name>
				</author>
				<source>
					<applicationSoftware version="1.7b (136)">PANalytical Aeris Instrument Suite</applicationSoftware>
					<instrumentControlSoftware version="3.2.00000000 20240306">AERIS</instrumentControlSoftware>
					<instrumentID>950485</instrumentID>
				</source>
			</header>
			<dataPoints>
				<positions axis="2Theta" unit="deg">
					<startPosition>10.00943322</startPosition>
					<endPosition>99.99442286</endPosition>
				</positions>
				<positions axis="Omega" unit="deg">
					<startPosition>5.00471661</startPosition>
					<endPosition>49.99721143</endPosition>
				</positions>
				<commonCountingTime unit="seconds">12.495</commonCountingTime>
				<counts unit="counts">2418 2400 2255 2277 2380 2330 2303 2343 2280 2303 2304 2210 2274 2270 2309 2346 2344 2384 2288 2341 2238 2246 2257 2285 2297 2283 2282 2327 2274 2290 2294 2249 2351 2365 2210 2243 2257 2424 2361 2341 2311 2245 2272 2258 2305 2264 2245 2321 2309 2301 2390 2293 2363 2295 2343 2407 2225 2305 2223 2256 2419 2353 2299 2353 2383 2407 2286 2338 2285 2316 2340 2400 2391 2368 2310 2335 2319 2245 2270 2293 2389 2361 2257 2275 2339 2304 2312 2359 2401 2381 2250 2273 2345 2300 2349 2316 2363 2276 2335 2309 2314 2246 2426 2308 2324 2415 2399 2391 2355 2345 2335 2335 2344 2424 2295 2413 2357 2352 2413 2372 2440 2306 2370 2375 2321 2311 2345 2418 2376 2341 2403 2438 2460 2358 2317 2358 2337 2320 2319 2407 2399 2329 2345 2445 2405 2409 2504 2477 2443 2337 2311 2446 2342 2286 2394 2451 2425 2412 2411 2358 2401 2371 2347 2371 2343 2411 2418 2391 2414 2389 2447 2431 2455 2408 2399 2346 2462 2436 2382 2379 2333 2453 2370 2381 2319 2370 2373 2401 2346 2325 2326 2442 2334 2338 2431 2399 2401 2453 2362 2374 2328 2339 2334 2331 2315 2285 2337 2241 2405 2276 2350 2451 2464 2460 2365 2341 2385 2399 2334 2266 2432 2342 2341 2322 2338 2318 2278 2213 2251 2344 2322 2296 2282 2341 2302 2257 2310 2325 2357 2355 2320 2298 2307 2282 2312 2216 2343 2331 2339 2290 2282 2322 2261 2336 2222 2307 2313 2407 2288 2268 2314 2317 2317 2322 2287 2314 2376 2233 2198 2194 2202 2197 2278 2278 2301 2277 2205 2324 2291 2268 2234 2204 2232 2327 2211 2314 2254 2300 2267 2250 2284 2203 2247 2265 2189 2259 2254 2291 2248 2155 2220 2185 2318 2208 2235 2156 2215 2264 2065 2163 2338 2186 2224 2206 2206 2134 2234 2173 2233 2190 2189 2210 2198 2180 2226 2221 2217 2088 2165 2212 2231 2296 2168 2125 2222 2190 2195 2086 2253 2243 2202 2165 2264 2195 2239 2182 2134 2180 2244 2098 2127 2180 2185 2281 2225 2196 2173 2066 2343 2175 2207 2129 2220 2091 2244 2169 2175 2260 2203 2144 2173 2176 2143 2265 2092 2274 2097 2174 2189 2152 2121 2185 2185 2217 2152 2091 2158 2230 2147 2157 2029 2086 2189 2200 2199 2110 2238 2160 2129 2185 2132 2196 2189 2245 2081 2153 2132 2184 2167 2236 2237 2197 2184 2097 2183 2251 2097 2281 2175 2190 2160 2165 2204 2228 2212 2214 2201 2172 2158 2182 2223 2067 2156 2181 2104 2147 2232 2184 2227 2177 2262 2256 2247 2198 2316 2320 2177 2179 2267 2180 2292 2213 2230 2271 2310 2211 2367 2158 2322 2228 2265 2298 2280 2253 2285 2272 2379 2375 2321 2410 2366 2469 2471 2584 2490 2461 2440 2605 2532 2488 2545 2536 2596 2469 2506 2415 2407 2433 2348 2435 2316 2344 2360 2245 2295 2280 2326 2383 2328 2378 2261 2353 2444 2243 2265 2377 2371 2255 2237 2277 2337 2360 2344 2317 2307 2363 2344 2317 2283 2350 2377 2217 2321 2412 2277 2306 2413 2388 2334 2394 2406 2373 2462 2312 2416 2482 2489 2385 2530 2499 2622 2464 2551 2662 2507 2554 2513 2511 2566 2564 2531 2484 2501 2553 2635 2490 2672 2535 2656 2650 2545 2551 2491 2612 2526 2438 2536 2540 2583 2463 2529 2511 2553 2565 2568 2446 2547 2455 2526 2439 2228 2392 2288 2205 2224 2139 2175 2072 2096 2034 2024 2007 2068 2041 2028 1930 2072 2031 2004 2011 2017 1975 1939 2091 1964 1931 1954 1974 1951 1967 2006 1975 1993 1876 1902 1904 1983 1938 1925 1902 1970 1949 1959 1926 1957 1895 1961 1895 1902 1887 1869 1888 1806 1929 1889 1817 1897 1857 1853 1979 1889 1837 1824 1883 1848 1947 1909 1862 1910 1919 1876 1870 1863 1919 1847 1898 1859 1973 1949 1810 1847 1863 1894 1881 1905 1885 1878 1825 1884 1855 1887 1884 1894 1822 1871 1867 1875 1873 1956 1837 1859 1821 1765 1897 1855 1800 1764 1851 1848 1893 1811 1863 1902 1804 1838 1814 1762 1854 1881 1791 1833 1808 1837 1784 1788 1792 1800 1775 1789 1851 1779 1829 1830 1731 1807 1854 1757 1859 1881 1834 1741 1739 1853 1813 1826 1746 1849 1898 1834 1792 1806 1712 1745 1838 1803 1823 1757 1765 1769 1802 1810 1777 1782 1865 1681 1801 1808 1819 1791 1742 1775 1757 1849 1708 1735 1742 1805 1780 1787 1767 1697 1830 1721 1786 1805 1794 1834 1816 1726 1761 1724 1752 1686 1783 1864 1727 1740 1753 1749 1798 1707 1745 1804 1746 1775 1785 1657 1700 1789 1735 1800 1717 1718 1733 1732 1667 1685 1714 1702 1627 1658 1793 1682 1826 1685 1748 1733 1710 1683 1724 1695 1747 1765 1705 1803 1698 1732 1664 1711 1699 1669 1737 1707 1703 1671 1779 1608 1707 1738 1689 1745 1676 1755 1682 1659 1786 1791 1678 1684 1720 1754 1712 1648 1696 1604 1709 1690 1690 1634 1607 1660 1708 1679 1776 1655 1656 1645 1712 1655 1611 1647 1666 1668 1675 1719 1645 1713 1681 1625 1692 1640 1684 1652 1685 1708 1631 1660 1725 1724 1701 1678 1637 1686 1697 1667 1679 1704 1699 1712 1648 1639 1682 1659 1667 1657 1715 1727 1628 1677 1640 1590 1631 1678 1683 1763 1635 1590 1635 1573 1565 1651 1655 1640 1610 1668 1621 1683 1743 1649 1682 1546 1526 1661 1581 1581 1669 1645 1644 1632 1606 1583 1624 1596 1652 1621 1594 1650 1577 1557 1682 1576 1639 1582 1581 1712 1675 1613 1663 1581 1567 1613 1520 1626 1534 1625 1576 1658 1549 1487 1584 1616 1578 1669 1538 1603 1621 1628 1486 1562 1522 1495 1610 1625 1596 1602 1624 1507 1515 1570 1604 1585 1561 1585 1536 1514 1604 1595 1592 1571 1567 1533 1613 1508 1482 1567 1616 1563 1619 1576 1591 1579 1671 1548 1555 1578 1612 1599 1598 1602 1550 1561 1609 1543 1575 1614 1561 1589 1544 1619 1569 1671 1546 1597 1521 1592 1646 1619 1551 1517 1546 1572 1586 1523 1571 1495 1587 1604 1515 1569 1507 1617 1595 1568 1512 1656 1627 1540 1590 1562 1499 1615 1529 1564 1495 1525 1553 1531 1514 1568 1605 1592 1575 1623 1471 1561 1576 1534 1584 1595 1610 1560 1539 1523 1644 1586 1588 1599 1502 1575 1621 1585 1582 1526 1570 1516 1570 1548 1556 1653 1602 1551 1595 1527 1620 1562 1542 1609 1578 1571 1501 1601 1557 1493 1646 1543 1528 1499 1533 1509 1618 1461 1608 1573 1531 1571 1507 1537 1483 1539 1541 1522 1527 1596 1496 1579 1568 1549 1548 1517 1528 1558 1554 1589 1549 1525 1527 1532 1541 1531 1462 1556 1536 1469 1467 1558 1483 1512 1503 1503 1463 1556 1528 1553 1523 1456 1478 1484 1506 1463 1506 1582 1493 1509 1499 1521 1492 1477 1501 1458 1484 1532 1486 1488 1533 1473 1479 1487 1537 1472 1548 1461 1536 1509 1505 1512 1478 1453 1492 1422 1457 1450 1500 1428 1422 1484 1480 1483 1464 1431 1474 1438 1546 1447 1582 1394 1525 1432 1432 1450 1328 1455 1464 1450 1407 1435 1465 1463 1495 1421 1422 1404 1420 1528 1421 1524 1439 1498 1435 1509 1437 1445 1432 1370 1367 1407 1443 1356 1427 1403 1415 1403 1428 1406 1482 1406 1349 1439 1405 1387 1454 1386 1452 1421 1340 1423 1382 1468 1445 1459 1377 1419 1448 1364 1418 1411 1409 1369 1403 1392 1430 1446 1403 1374 1389 1359 1474 1388 1369 1345 1324 1360 1393 1267 1387 1258 1326 1349 1358 1379 1329 1378 1349 1372 1374 1297 1359 1339 1345 1308 1370 1316 1395 1317 1396 1373 1387 1347 1301 1326 1301 1390 1344 1384 1374 1371 1355 1255 1315 1346 1336 1314 1372 1358 1313 1309 1314 1297 1309 1342 1292 1290 1360 1318 1389 1414 1364 1375 1324 1319 1281 1306 1252 1327 1285 1352 1342 1296 1300 1357 1310 1316 1287 1273 1246 1380 1259 1326 1356 1248 1319 1299 1284 1359 1339 1313 1294 1356 1257 1315 1301 1325 1309 1248 1306 1349 1272 1293 1340 1330 1354 1304 1321 1304 1322 1259 1295 1336 1295 1341 1292 1320 1375 1321 1342 1329 1361 1256 1294 1269 1240 1246 1253 1320 1385 1322 1297 1309 1289 1317 1274 1328 1329 1290 1351 1267 1243 1369 1299 1197 1285 1284 1268 1308 1331 1211 1251 1263 1254 1277 1275 1260 1208 1222 1306 1220 1358 1307 1297 1260 1258 1313 1294 1223 1254 1309 1243 1296 1311 1318 1214 1306 1327 1250 1300 1230 1262 1288 1242 1287 1295 1243 1275 1233 1288 1287 1298 1244 1245 1252 1303 1307 1247 1300 1282 1302 1281 1257 1280 1234 1217 1273 1306 1345 1249 1236 1289 1274 1302 1309 1272 1278 1242 1245 1265 1186 1285 1248 1245 1290 1279 1236 1296 1247 1313 1188 1290 1310 1298 1186 1184 1334 1241 1291 1281 1305 1218 1283 1224 1302 1274 1284 1265 1339 1312 1246 1275 1284 1253 1290 1360 1196 1261 1314 1293 1227 1287 1248 1327 1240 1264 1356 1297 1271 1319 1284 1261 1227 1329 1284 1284 1223 1239 1309 1272 1250 1316 1217 1215 1229 1263 1289 1177 1308 1262 1267 1194 1331 1278 1171 1204 1315 1204 1227 1247 1195 1289 1205 1164 1244 1205 1258 1178 1256 1290 1301 1309 1236 1208 1277 1273 1222 1200 1223 1267 1244 1199 1177 1141 1207 1244 1231 1200 1247 1167 1237 1202 1232 1216 1194 1175 1153 1307 1224 1213 1220 1165 1222 1190 1201 1138 1216 1208 1205 1221 1222 1130 1241 1258 1219 1165 1248 1142 1203 1120 1230 1171 1195 1152 1253 1215 1155 1264 1145 1233 1188 1258 1134 1132 1204 1133 1087 1178 1181 1168 1137 1166 1186 1162 1219 1152 1202 1162 1165 1162 1166 1145 1136 1150 1116 1163 1184 1221 1116 1147 1103 1138 1099 1165 1170 1159 1159 1094 1126 1166 1133 1134 1136 1134 1088 1122 1156 1137 1147 1166 1147 1168 1190 1190 1140 1158 1079 1171 1172 1127 1198 1137 1111 1145 1123 1164 1133 1133 1079 1137 1174 1203 1204 1171 1131 1141 1156 1189 1151 1180 1153 1131 1173 1139 1187 1165 1175 1146 1139 1142 1151 1099 1159 1149 1132 1143 1174 1132 1169 1187 1102 1105 1183 1118 1160 1134 1064 1067 1114 1188 1098 1101 1067 1212 1110 1131 1083 1151 1077 1115 1104 1130 1111 1159 1114 1111 1092 1072 1170 1157 1143 1123 1117 1171 1099 1107 1122 1170 1133 1156 1198 1095 1073 1166 1159 1178 1186 1153 1173 1120 1175 1146 1207 1092 1151 1150 1200 1197 1139 1080 1050 1144 1123 1164 1149 1183 1142 1209 1142 1134 1270 1122 1120 1190 1173 1240 1138 1232 1230 1202 1246 1239 1301 1246 1287 1269 1364 1288 1348 1376 1487 1405 1506 1453 1454 1517 1479 1488 1540 1503 1482 1559 1497 1401 1533 1440 1433 1478 1405 1421 1460 1443 1455 1399 1354 1352 1310 1379 1374 1342 1267 1365 1350 1310 1335 1341 1353 1403 1377 1372 1317 1384 1403 1473 1481 1440 1481 1458 1540 1571 1561 1650 1551 1661 1688 1677 1715 1663 1698 1736 1745 1751 1823 1853 1878 1863 1867 1954 1969 1944 2006 2009 1964 2023 2045 2032 1930 1997 1977 2002 2018 1924 1986 2019 1999 1956 2077 1930 2044 1983 1959 1962 2020 1953 2024 1916 1870 1908 1972 1979 1890 1865 1853 1833 1786 1748 1693 1719 1722 1722 1664 1602 1597 1513 1577 1519 1560 1477 1465 1469 1405 1362 1398 1460 1376 1398 1385 1417 1410 1345 1385 1316 1307 1330 1310 1367 1327 1370 1341 1271 1309 1329 1286 1309 1347 1236 1255 1205 1190 1234 1255 1259 1219 1221 1272 1122 1243 1266 1237 1237 1179 1248 1167 1190 1176 1218 1204 1163 1213 1124 1163 1176 1216 1206 1164 1231 1164 1194 1204 1220 1172 1223 1125 1201 1177 1175 1177 1140 1108 1200 1154 1210 1156 1133 1116 1132 1144 1173 1183 1118 1190 1135 1159 1154 1205 1067 1170 1136 1116 1144 1151 1167 1200 1128 1161 1197 1097 1148 1153 1182 1145 1169 1122 1155 1195 1195 1157 1113 1102 1126 1136 1142 1081 1118 1111 1037 1091 1065 1094 1144 1126 1077 1159 1091 1074 1063 1050 1142 1134 1123 1143 1134 1093 1145 1152 1160 1143 1170 1210 1121 1179 1221 1154 1133 1137 1146 1180 1156 1188 1168 1176 1124 1145 1098 1187 1178 1117 1090 1123 1127 1093 1083 1106 1132 1116 1127 1121 1090 1136 1125 1142 1066 1054 1156 1106 1106 1082 1087 1072 1160 1145 1167 1145 1108 1159 1099 1097 1165 1159 1094 1094 1090 1110 1205 1140 1137 1128 1203 1125 1130 1190 1240 1097 1114 1161 1164 1124 1158 1151 1111 1144 1189 1176 1136 1124 1078 1146 1132 1184 1164 1202 1162 1152 1204 1182 1187 1093 1180 1175 1153 1170 1147 1196 1086 1096 1091 1189 1127 1136 1132 1122 1145 1073 1144 1129 1158 1046 1133 1133 1079 1145 1093 1116 1183 1139 1134 1098 1068 1161 1127 1127 1138 1124 1130 1105 1151 1085 1110 1101 1098 1042 1133 1049 1114 1112 1163 1126 1182 1187 1105 1163 1105 1061 1103 1151 1116 1111 1090 1140 1066 1168 1150 1128 1125 1104 1130 1082 1173 1089 1114 1135 1099 1103 1162 1103 1222 1184 1185 1145 1213 1241 1248 1352 1267 1298 1280 1410 1430 1439 1418 1557 1488 1608 1601 1634 1565 1692 1599 1719 1658 1686 1721 1725 1685 1831 1764 1716 1720 1692 1630 1716 1696 1643 1579 1546 1563 1427 1527 1449 1434 1370 1440 1384 1330 1392 1356 1351 1273 1352 1280 1331 1295 1349 1401 1399 1379 1411 1378 1423 1395 1427 1403 1412 1422 1552 1516 1523 1569 1519 1542 1580 1526 1586 1566 1560 1643 1611 1779 1718 1699 1815 1752 1782 1702 1776 1792 1820 1809 1860 1883 1860 1911 1897 1913 1835 1895 1885 1915 1918 2029 1965 2040 1979 2036 2055 1909 2104 2056 2103 1944 2069 1934 2030 1960 1926 1912 1917 1868 1888 1774 1789 1791 1844 1840 1803 1756 1766 1640 1709 1654 1606 1617 1552 1545 1577 1619 1526 1513 1529 1488 1579 1550 1631 1657 1572 1587 1637 1572 1499 1597 1546 1473 1525 1449 1409 1387 1468 1443 1371 1339 1404 1369 1378 1356 1363 1274 1342 1286 1348 1385 1386 1296 1316 1361 1347 1390 1326 1363 1357 1336 1382 1335 1355 1346 1364 1369 1411 1349 1421 1398 1401 1473 1485 1526 1458 1528 1488 1606 1476 1567 1530 1496 1582 1575 1512 1547 1610 1618 1630 1544 1683 1570 1720 1647 1710 1690 1651 1567 1596 1641 1685 1654 1711 1618 1589 1578 1601 1622 1547 1603 1569 1682 1567 1676 1591 1538 1532 1639 1501 1530 1555 1507 1411 1405 1413 1442 1314 1331 1349 1302 1228 1326 1188 1238 1226 1218 1165 1147 1139 1175 1133 1114 1164 1135 1144 1141 1164 1154 1105 1103 1104 1105 1046 1084 1098 1167 1085 1152 1058 1076 1029 1114 1071 1091 1130 1103 1076 1030 1078 1095 1039 1029 1071 1135 1111 1118 1082 1031 1044 964 1051 1037 1054 1010 1078 1067 1029 1077 1019 1009 1021 1021 1014 1007 1064 1030 1069 1045 1000 1045 1055 1043 996 1056 1001 1004 1018 1035 1010 1000 999 1020 1023 1034 1001 1014 1025 1031 996 1029 1015 1041 1053 993 1010 962 1036 1008 1023 1055 1007 1034 1006 1003 1007 984 1021 978 1046 948 957 984 1019 1001 1044 989 1015 1005 1009 954 978 970 1022 962 1000 954 1011 1014 963 866 958 986 975 992 999 996 973 937 951 940 981 955 945 932 933 967 971 970 1025 952 915 992 971 988 990 919 959 951 1014 934 970 898 974 993 958 963 944 958 1019 952 994 997 985 967 956 973 1005 983 901 976 910 956 962 946 932 985 905 959 949 945 961 933 919 890 883 977 971 982 890 958 897 869 907 987 894 915 904 921 856 849 900 930 944 894 919 912 941 871 951 892 890 882 857 907 909 873 913 893 872 879 889 855 939 941 856 931 890 940 931 975 899 899 947 892 967 914 941 952 905 870 919 872 922 938 923 889 921 938 911 915 839 922 910 878 965 958 900 884 893 907 862 866 851 883 910 816 855 884 893 941 891 838 909 898 931 882 914 925 871 836 913 876 871 891 872 847 854 827 817 823 829 810 839 888 855 907 875 884 894 919 886 848 837 821 826 886 826 828 828 839 828 870 878 812 759 829 829 808 779 801 854 842 829 793 852 873 777 821 825 816 872 824 825 842 875 831 799 833 754 845 776 817 792 715 732 784 786 805 766 821 816 762 886 755 782 807 821 779 832 780 761 768 777 783 780 784 754 812 812 810 821 790 812 746 826 805 824 805 772 801 759 786 795 811 790 790 817 777 787 770 829 746 759 778 785 787 810 776 730 767 753 792 713 789 762 793 809 763 765 793 759 768 808 754 723 754 751 746 773 786 771 765 715 754 764 753 742 819 739 740 806 765 779 762 769 776 735 752 759 694 771 736 708 761 808 736 779 785 792 725 694 754 760 711 724 755 778 780 712 736 776 797 735 768 753 857 785 787 765 732 773 758 775 746 781 749 769 752 731 733 779 803 773 754 800 785 782 711 752 722 713 752 722 705 743 748 761 752 727 733 737 725 744 739 771 701 714 758 775 691 827 726 737 740 798 778 757 728 769 722 723 717 743 749 719 758 806 750 693 774 779 769 758 751 743 779 768 764 751 752 782 740 770 727 743 726 755 753 779 787 761 787 700 771 779 773 743 756 756 782 772 802 737 765 775 773 727 789 747 766 751 768 764 782 783 786 771 809 775 755 801 802 773 757 775 750 729 822 748 774 756 774 703 763 767 782 744 750 755 764 785 750 755 786 807 805 798 769 828 831 813 716 795 734 729 748 736 795 756 786 758 764 760 754 752 776 769 795 749 824 736 800 776 810 766 774 771 800 753 734 835 792 752 763 729 831 771 744 787 732 780 741 783 740 750 745 813 767 742 714 777 769 768 772 779 819 765 767 800 806 799 772 766 751 804 742 759 758 754 813 723 782 779 758 827 785 729 769 787 750 776 743 762 763 745 754 798 740 758 761 820 795 762 733 705 797 749 756 819 765 735 727 761 756 731 804 770 736 743 769 751 771 757 735 768 760 766 778 757 733 816 722 733 753 777 780 761 760 792 762 754 768 738 777 781 785 780 761 769 756 755 836 738 817 751 809 845 804 775 731 742 764 788 752 789 820 805 745 779 772 768 798 748 830 740 747 764 807 732 821 749 755 756 701 810 743 832 787 789 747 739 833 762 774 791 755 781 741 794 795 759 770 776 767 740 790 780 781 815 793 779 848 823 788 794 819 865 788 842 810 805 774 818 787 808 770 788 829 818 855 783 823 799 784 801 823 796 797 784 802 797 793 887 815 804 803 860 814 772 804 808 860 833 845 877 851 805 795 833 809 835 787 793 822 787 815 852 806 784 833 780 839 805 817 785 812 839 812 850 818 789 823 842 792 808 802 807 801 864 772 807 874 823 802 827 856 762 838 799 857 827 834 851 856 877 855 815 863 760 817 832 869 835 864 822 855 869 897 878 836 878 807 843 818 852 822 856 819 793 816 780 822 837 863 819 834 884 806 886 875 796 842 844 882 843 856 839 873 838 893 870 832 829 842 872 913 890 910 901 838 842 869 886 872 938 919 850 875 883 849 827 869 906 885 882 818 888 864 857 952 827 868 912 883 862 902 868 866 831 869 837 925 904 884 908 901 921 879 919 917 887 877 907 818 895 866 889 858 884 889 839 856 888 863 929 861 826 875 922 816 892 854 902 861 906 840 875 867 900 818 887 902 896 835 948 871 858 832 875 835 921 821 841 852 878 869 836 854 853 847 924 861 834 824 892 893 904 865 865 882 911 860 911 841 855 816 930 811 872 881 843 857 867 899 826 857 817 843 818 861 860 826 861 858 835 854 813 851 821 798 845 840 797 853 806 839 858 878 800 828 851 866 798 911 839 830 863 813 816 837 881 816 863 827 883 847 864 846 870 822 868 854 870 829 855 835 832 883 889 863 791 853 835 909 848 901 883 858 832 887 922 866 860 805 898 843 868 880 826 853 862 903 880 866 933 926 858 877 890 905 897 908 915 946 953 960 943 964 922 870 896 953 897 1003 915 963 955 993 968 925 930 943 1014 1017 999 976 968 1024 961 991 1010 933 988 1050 995 961 1035 1087 993 1027 1014 1022 1053 1071 1046 1039 984 1050 1052 1015 1066 1043 1067 1070 1103 1022 1088 1100 1094 1064 1134 1133 1106 1135 1107 1108 1125 1095 1138 1154 1153 1155 1226 1264 1225 1258 1159 1204 1152 1213 1268 1252 1154 1256 1233 1254 1230 1192 1188 1186 1204 1211 1214 1300 1204 1191 1231 1276 1221 1239 1206 1221 1179 1120 1221 1225 1225 1275 1220 1262 1179 1173 1138 1197 1199 1139 1178 1135 1095 1204 1171 1181 1185 1178 1200 1210 1183 1113 1140 1125 1088 1114 1037 1141 1088 1139 1118 1116 1117 1122 1155 1082 1091 1061 1128 1054 1085 1071 1052 1058 1084 1055 1056 1054 989 1018 1064 1047 1062 1073 1044 1015 978 1026 976 1032 1032 1087 1018 1003 1013 1005 1005 925 946 1047 1047 1112 995 916 980 1018 957 981 997 1015 1053 989 990 954 1009 938 936 964 1026 1072 996 1023 953 1040 950 951 980 1048 1037 1035 995 963 1002 1004 1018 996 1048 1027 1053 998 1002 983 1019 1017 1122 1054 1076 1091 1113 1061 1088 1177 1152 1134 1119 1148 1116 1121 1168 1096 1114 1152 1117 1072 1124 1161 1125 1164 1214 1149 1193 1119 1107 1171 1102 1146 1123 1093 1190 1157 1133 1096 1150 1132 1168 1141 1115 1162 1183 1147 1155 1146 1140 1140 1116 1215 1122 1162 1166 1249 1171 1173 1164 1236 1136 1203 1194 1238 1245 1252 1239 1256 1232 1186 1291 1251 1233 1279 1221 1243 1192 1261 1311 1287 1341 1337 1279 1315 1348 1225 1205 1170 1227 1242 1180 1177 1181 1143 1130 1157 1177 1228 1106 1152 1081 1135 1123 1055 1069 1155 1078 1058 1098 1110 1061 1099 1063 1049 1127 1083 1088 1083 1034 1089 1094 1023 1076 1104 1088 1069 1086 1056 1092 1017 1120 1073 1058 1023 1031 1023 1060 1021 1041 1024 1023 1015 1078 984 1002 1033 1022 1006 1065 1008 979 913 975 1000 959 955 991 905 908 936 927 899 878 910 902 921 948 929 886 889 919 970 934 925 915 874 913 907 877 895 958 903 936 922 902 917 929 913 975 878 891 877 910 884 877 891 899 926 875 968 875 871 850 891 865 881 874 887 859 928 915 857 923 875 867 910 930 868 858 914 859 872 879 866 905 895 924 857 890 966 915 904 940 883 898 887 897 947 952 928 941 952 982 925 905 928 888 863 883 941 883 950 956 962 893 933 961 883 959 986 950 975 893 931 912 901 898 936 944 952 947 904 937 981 922 986 954 935 991 943 979 1019 986 950 903 928 969 919 916 899 987 924 1041 1032 990 1001 927 1008 963 1072 963 1005 1004 1009 1003 1031 995 1006 993 1028 1002 1060 960 971 942 1006 986 993 919 1039 990 955 975 1023 950 966 1023 940 925 964 953 943 992 1022 930 931 929 995 947 888 994 894 932 929 927 932 960 920 966 977 936 955 971 990 962 922 910 913 923 982 966 944 872 881 946 901 942 866 963 918 893 877 952 952 863 914 933 938 900 888 921 842 875 878 892 883 871 871 902 904 874 898 849 863 905 848 815 866 782 881 860 873 883 889 837 833 879 797 874 856 857 874 872 846 840 823 868 912 824 893 821 923 774 871 843 855 872 875 870 801 902 890 900 857 940 859 827 791 805 828 846 857 875 888 887 885 885 958 865 821 867 862 913 882 850 914 898 900 864 825 883 833 881 870 879 933 880 831 861 862 885 854 951 858 875 890 869 873 901 854 845 921 867 833 924 868 914 867 820 850 866 838 889 871 882 849 945 853 869 888 825 799 890 809 939 803 889 881 839 845 885 831 857 894 861 864 833 862 819 873 825 857 854 906 839 850 828 917 837 825 934 801 900 841 876 913 862 864 864 855 877 862 870 861 848 955 849 827 824 852 868 869 852 841 924 863 874 909 890 871 832 871 874 876 852 860 838 951 878 804 844 847 845 907 838 867 819 857 853 912 896 928 868 895 871 929 859 854 895 924 962 918 869 866 889 898 882 911 902 951 894 863 910 856 881 879 885 863 854 895 900 892 918 885 863 862 875 919 917 923 906 873 890 887 943 964 850 901 930 920 912 875 860 905 898 944 854 929 878 922 881 923 921 941 889 950 935 907 943 939 902 976 900 923 918 871 943 917 980 964 905 962 917 872 973 876 949 942 968 971 882 919 960 948 986 926 966 996 950 1001 970 916 929 999 976 986 985 971 907 977 1007 1018 1002 968 997 941 991 988 979 923 1004 1018 1007 953 950 1024 987 1014 967 1004 994 999 1033 992 990 1004 1054 996 967 1006 1003 1010 1060 1031 952 998 1022 1111 1049 1038 1023 1007 1016 1031 988 1018 1005 1000 1010 972 965 991 980 942 1074 1024 1011 1048 1039 1011 1035 1016 1022 1008 1036 959 963 1000 1058 1033 971 973 1023 1014 1051 1065 999 1020 1043 1012 992 959 1032 921 995 1020 1083 955 943 1001 980 1039 986 1008 1039 966 963 1018 982 1010 960 965 1030 995 992 1016 976 1013 997 1004 981 953 1045 1043 945 1016 961 1001 994 965 969 950 980 971 1006 1003 945 887 1022 986 930 948 911 896 925 996 993 917 945 947 938 974 911 955 990 994 973 1007 972 988 924 927 936 933 915 917 955 957 921 958 954 957 931 916 960 961 927 980 926 961 989 1012 937 922 892 944 974 942 934 931 889 965 946 980 936 929 901 905 945 927 933 908 881 941 872 911 941 952 910 928 876 878 916 918 931 923 950 907 881 936 930 918 875 904 909 907 991 951 933 877 982 903 950 912 943 955 925 895 886 904 946 882 891 919 893 898 1009 996 917 982 930 942 974 939 979 946 927 926 896 948 919 951 928 918 937 947 878 942 903 924 981 877 956 962 973 940 911 915 958 977 968 943 963 993 945 906 995 993 957 960 974 967 985 889 1002 967 1049 981 949 964 958 1001 934 1000 994 1001 1024 1072 1006 963 984 1001 1049 1027 973 938 956 964 1020 979 1052 985 1007 1047 988 993 1010 1014 1019 954 963 1072 1025 996 959 992 981 1023 963 969 1010 999 1005 997 964 944 985 964 947 1012 1056 995 995 1023 981 959 993 1011 935 1009 994 997 886 973 923 909 927 1004 946 956 1017 935 980 986 930 968 955 971 911 918 938 917 978 903 942 971 950 954 939 964 942 910 938 909 956 920 938 973 920 944 897 859 921 970 904 942 963 961 977 925 933 968 998 907 1033 977 999 942 917 931 888 925 921 911 929 945 909 999 952 980 947 982 961 921 950 930 965 927 980 919 922 965 972 948 982 910 967 924 964 925 919 961 972 986 971 958 941 919 949 920 1016 941 1016 917 929 975 1030 960 943 1013 969 1031 953 962 952 1001 974 957 961 959 996 964 967 942 956 933 911 997 898 970 938 990 995 915 993 1037 976 925 928 997 968 968 974 1003 937 1002 956 982 967 951 998 979 952 1001 908 1004 975 966 1020 963 989 998 1036 1011 991 965 940 972 933 933 997 977 1018 1030 1004 1004 955 941 1027 962 1049 1027 951 996 968 1005 1015 980 921 971 966 975 983 988 1023 967 960 980 967 1004 969 981 1016 951 1049 949 1022 1017 984 953 996 1026 992 1001 1029 952 1031 964 1008 977 999 988 965 963 967 996 1005 978 1011 1018 1058 1003 1023 953 1079 983 983 1003 1037 973 998 970 1001 1005 1022 953 1013 1032 1026 968 920 949 1044 954 965 988 949 1003 987 979 994 992 1003 994 984 1004 932 1046 1024 995 1032 1007 963 977 1010 1001 1034 1011 995 963 987 951 947 950 947 974 957 930 1011 928 953 999 918 948 995 959 932 965 1002 987 940 954 1000 961 1022 964 911 985 988 1002 935 986 971 1004 1021 914 995 936 939 954 985 952 889 966 987 946 999 928 1004 1017 979 958 960 972 983 927 941 892 914 963 958 976 925 888 960 957 920 954 956 997 978 982 992 970 977 965 975 922 949 995 1018 943 945 920 956 944 899 976 940 943 914 923 958 998 926 938 1013 980 945 941 962 939 885 936 933 913 1012 996 938 945 1034 949 979 970 915 988 942 914 906 970 965 962 939 890 969 920 911 944 997 988 994 991 979 954 914 948 959 987 949 935 947 935 943 917 955 959 994 925 937 942 971 954 981 944 993 907 946 973 922 945 941 929 914 958 919 874 941 904 966 923 965 954 949 922 903 918 900 970 940 983 978 900 912 950 953 965 904 973 984 967 1001 889 898 899 962 936 955 895 905 964 935 901 925 984 941 916 925 1005 936 901 906 875 970 929 912 906 986 874 917 944 886 953 925 932 935 954 916 965 897 935 927 900 912 914 942 915 1007 966 938 973 934 926 972 951 922 959 922 932 948 873 930 918 975 940 978 922 963 967 939 953 943 960 938 978 969 896 909 954 859 915 942 934 945 892 927 972 941 948 963 969 958 877 974 913 957 961 948 939 897 982 906 865 981 935 932 908 960 929 916 910 927 967 928 910 991 889 909 929 945 947 926 929 952 959 898 920 926 911 918 931 982 948 915 932 923 908 961 874 896 942 959 926 915 914 910 946 963 961 926 947 933 901 954 961 939 965 932 886 968 927 917 962 951 937 990 886 895 917 966 935 916 956 886 977 902 965 942 951 883 934 885 929 936 940 919 918 928 947 932 908 876 938 934 921 893 966 882 990 926 961 861 897 932 976 933 938 970 982 904 933 968 1000 949 947 964 989 969 976 896 893 973 916 929 925 875 946 899 948 931 946 951 898 911 964 940 953 916 934 956 914 941 951 909 908 972 908 931 904 943 945 882 916 957 928 958 906 921 921 923 952 918 935 935 896 877 935 958 936 910 973 935 942 956 961 944 975 942 911 948 921 944 868 913 932 928 913 921 924 950 939 940 881 901 980 971 890 964 950 919 911 987 928 864 940 898 956 883 976 964 964 938 953 888 988 917 940 907 894 932 979 978 919 922 927 948 871 977 913 970 952 960 889 944 899 940 968 909 996 913 962 879 941 961 897 938 929 873 935 985 951 929 891 952 919 955 944 962 930 971 971 954 968 948 919 955 948 927 951 967 938 944 916 946 976 892 937 923 895 936 979 922 950 957 925 912 931 918 945 919 889 909 958 920 962 994 945 928 1027 937 1015 939 934 1005 1008 931 946 921 929 984 927 947 964 978 984 907 931 928 941 961 903 936 882 951 936 942 963 971 971 934 930 960 919 987 909 978 921 945 1001 1044 928 929 997 998 964 1023 990 960 993 950 974 1044 1049 999 932 1000 994 934 990 993 963 942 1038 892 1008 999 979 972 979 1027 992 1014 1057 1070 1034 1011 1016 1036 1004 1009 983 990 1045 980 917 1067 1047 1009 995 948 1030 1026 1021 1019 972 1025 1013 1046 978 1051 962 1014 990 1013 1008 1012 981 1054 1028 1025 992 1066 1045 1060 974 1077 1011 952 1043 991 997 1019 1015 1038 977 1024 1026 1046 990 1023 1011 998 1058 1010 983 969 1087 994 1031 1005 965 953 1010 1033 1021 1003 1024 987 1034 1001 997 1011 1035 1023 1001 990 1017 965 997 1026 968 1093 1037 1048 1086 991 1003 1005 951 954 1038 1048 1006 1020 1013 1056 936 1027 971 976 993 1010 1005 959 980 1078 1006 984 981 945 981 995 1047 1009 1043 967 1011 1061 968 1024 978 964 995 933 1028 932 977 982 1020 1037 975 955 997 974 942 999 969 996 952 949 980 976 986 957 1000 987 1040 993 994 975 977 941 945 1010 986 997 981 992 998 959 980 1018 936 1007 1004 980 958 966 932 967 965 987 907 1008 1004 962 976 968 993 936 1032 937 1009 963 951 1000 983 1015 1032 958 954 1021 925 973 962 963 977 1000 964 977 931 1013 999 960 938 1025 1015 1028 912 996 924 1000 972 941 1034 966 954 1002 967 974 996 987 960 1035 983 1049 931 965 980 981 983 974 991 983 964 938 1058 924 1012 965 946 982 995 950 974 997 942 1007 1000 1018 979 967 971 966 1043 923 995 1026 972 1034 987 1015 1029 999 965 996 972 991 982 1088 989 1050 1011 1023 987 993 953 1012 916 1020 1010 1038 1000 1042 1013 1006 980 979 1020 1005 1015 970 1080 914 989 946 989 1007 1031 1064 1042 968 1014 994 1009 953 1020 1013 1019 991 1001 954 1029 999 986 1033 1049 943 1057 1015 974 1029 977 991 966 968 1028 991 1027 1029 1052 1062 1017 972 1032 1021 1043 1007 1024 1029 1105 1006 983 1010 969 974 973 950 1038 1004 1014 1000 1048 1016 940 1038 1087 1000 972 1045 1062 1010 1022 979 986 1021 1069 995 1055 1053 1021 1056 1011 1034 969 1085 1014 985 960 957 980 1012 1065 984 1076 989 1050 1024 1049 970 957 986 997 1024 1009 988 1001 1010 1014 994 990 971 981 1057 1036 1056 995 962 1024 971 1016 995 1051 971 1022 1005 1010 947 993 1008 968 985 1015 1001 963 1000 979 992 1056 1011 1014 982 1025 1063 1007 986 1029 972 1074 958 983 977 973 983 1055 994 967 1026 1009 985 988 1011 996 1010 969 1041 998 962 984 1001 1003 965 968 991 977 1002 998 982 988 1002 971 945 984 992 1055 1015 970 1000 1069 1009 953 1000 984 1040 964 1011 946 1048 995 950 1025 1011 998 1037 1065 1004 983 1012 983 1025 989 1034 1042 1070 1032 1002 963 968 1068 1054 1041 977 1054 983 1019 990 1008 997 1004 990 978 1045 1086 1027 1037 1070 1019 1012 1060 1039 1025 1066 1036 1055 947 977 1038 1028 1085 991 1006 1043 1053 978 986 964 986 1040 1017 1031 1057 1078 1026 1037 1027 1014 1005 1062 997 946 1012 966 1004 977 1005 964 1020 1000 1002 959 1003 1009 988 1017 952 1009 1013 1063 1003 984 985 979 1003 1050 993 1028 997 1002 1038 980 1070 1009 1014 1012 1036 988 952 1034 994 1019 1038 1001 998 958 1021 993 1060 1023 1004 1005 1027 961 984 1015 1050 1036 981 1017 986 1088 1026 996 1030 1002 959 982 1000 1007 956 1063 1046 1012 1033 998 999 973 981 970 1063 1017 1006 1013 1042 1021 1068 998 1060 1065 1042 999 1020 980 1036 1025 1035 1003 1027 1060 1044 1022 969 1009 993 1056 1033 1048 1012 1024 1010 1049 933 1042 1046 1021 989 983 1021 1049 1046 991 1011 1009 1050 1008 967 967 931 992 983 996 1005 1040 1020 971 1060 1021 1070 1061 1076 1054 1054 1052 1013 995 1059 1075 1074 1072 1032 1085 1024 1025 1038 1047 1015 1070 1110 1102 1030 1021 1074 1008 1104 1067 1003 1046 1061 1035 1055 1048 1100 1068 1132 1094 1058 1092 1073 1106 1088 1073 1103 1031 1086 1101 1085 1076 1098 1049 1126 1066 1079 1042 1065 1105 1011 1077 1118 1010 1079 1013 1071 1029 1052 1044 1059 1092 1026 1085 1115 1084 1132 1052 1079 1085 1002 1081 1049 1093 1040 1072 1091 1008 1012 1078 1053 1115 1009 1069 1076 1146 1081 1071 1069 1036 1121 1112 1046 1024 1063 1112 1080 1108 1047 1046 1033 1072 1062 1016 1066 1117 1098 1003 1024 1044 1019 1075 1052 1078 1107 1075 1019 1048 1080 1040 1092 1070 1046 1048 1098 1071 1055 1047 1039 1047 1021 1029 1094 1067 1107 1107 1046 1040 1022 1068 1043 1037 1044 961 1095 1073 1081 1085 1047 987 1087 1152 1052 1089 1019 1084 1082 1076 1063 1114 1108 1079 1111 1070 1094 1044 1090 1040 1070 1067 1064 1047 1171 1009 1033 1066 1060 1058 1054 1089 1033 1090 1096 1078 1046 1011 1055 1136 1107 1084 1025 1072 1067 1025 1073 1004 1051 1029 1097 1129 1047 1052 1104 1092 1078 1112 1059 1116 1122 1015 1061 1052 1057 1042 1038 1103 1095 1110 1101 1125 1042 1036 1077 1086 1091 1136 1016 1067 1070 1143 1156 1054 1091 1084 1110 1100 1136 1049 1100 1097 1142 1117 1168 1130 1115 1099 1061 1029 1028 1154 1111 1125 1110 1123 1091 1154 1144 1130 1120 1152 1141 1135 1157 1202 1135 1133 1153 1151 1141 1153 1137 1165 1204 1187 1198 1172 1164 1196 1204 1134 1168 1179 1164 1171 1127 1157 1121 1196 1084 1114 1084 1163 1206 1143 1197 1215 1149 1166 1171 1096 1137 1170 1168 1128 1128 1158 1174 1110 1165 1132 1179 1117 1102 1103 1115 1044 1139 1159 1065 1135 1081 1185 1111 1176 1137 1148 1085 1139 1160 1125 1151 1131 1148 1135 1144 1122 1114 1051 1102 1083 1174 1108 1068 1109 1131 1100 1169 1072 1105 1159 1129 1114 1103 1108 1069 1118 1087 1114 1117 1150 1047 1057 1074 1086 1044 1121 1092 1179 1059 1138 1097 1116 1072 1164 1087 1140 1051 1067 1087 1079 1062 1107 1123 1081 1101 1087 1118 1107 1107 1102 1108 1065 1070 1126 1052 1080 1073 1125 1117 1066 1139 1022 1165 1058 1112 1069 1166 1047 1063 1101 1070 1089 1051 1091 1024 1153 1056 1060 1132 1074 1125 1128 1105 1075 1115 1071 1122 1167 1107 1140 1076 1060 1121 1100 1140 1065 1103 1072 1148 1114 1102 1093 1100 1074 1114 1070 1115 1020 1092 1093 1141 1069 1075 1088 1109 1094 1088 1100 1133 1097 1076 1050 1118 1068 1191 1098 1075 1047 1050 1135 1085 1133 1080 1116 1042 1018 1054 1091 1065 1074 1055 1012 1098 1135 1073 1082 1143 1048 1059 1088 1121 1052 1069 1087 1055 1108 1082 1055 1097 1125 1109 1030 1151 1060 1122 1116 1128 1087 1125 1138 1054 1116 1049 1158 1147 1059 1077 1138 1069 1162 1113 1139 1058 1106 1156 1079 1055 1069 1119 1149 1063 1178 1071 1137 1146 1108 1051 1105 1100 1147 1165 1049 1163 1079 1141 1126 1166 1109 1124 1166 1171 1052 1155 1070 1124 1150 1157 1143 1181 1089 1178 1165 1177 1134 1167 1164 1147 1178 1136 1219 1155 1147 1158 1142 1115 1192 1172 1172 1168 1196 1171 1194 1151 1195 1204 1239 1164 1128 1158 1236 1188 1241 1204 1251 1234 1134 1208 1203 1180 1230 1178 1207 1183 1230 1211 1276 1166 1239 1248 1296 1187 1251 1283 1230 1190 1218 1224 1277 1186 1268 1284 1239 1264 1260 1164 1233 1234 1183 1208 1176 1206 1226 1235 1249 1231 1236 1198 1164 1176 1234 1183 1227 1239 1274 1242 1192 1177 1176 1267 1129 1211 1140 1200 1175 1187 1196 1207 1156 1201 1219 1254 1195 1212 1213 1177 1172 1134 1168 1104 1172 1163 1219 1154 1196 1170 1151 1206 1205 1098 1188 1142 1212 1196 1180 1098 1222 1161 1219 1173 1161 1242 1185 1193 1133 1171 1210 1216 1268 1204 1161 1229 1138 1227 1154 1229 1166 1141 1211 1157 1178 1284 1117 1172 1165 1170 1223 1129 1177 1147 1198 1199 1154 1177 1147 1176 1130 1188 1169 1194 1194 1160 1225 1117 1109 1162 1095 1145 1126 1126 1143 1126 1119 1152 1106 1132 1147 1112 1186 1230 1135 1110 1161 1157 1209 1118 1119 1088 1146 1188 1123 1071 1175 1187 1140 1186 1183 1189 1186 1122 1175 1135 1119 1098 1139 1143 1148 1133 1091 1155 1044 1085 1158 1157 1214 1138 1102 1160 1187 1146 1090 1084 1139 1125 1146 1096 1125 1082 1136 1127 1169 1120 1124 1044 1147 1203 1118 1076 1166 1125 1117 1097 1171 1126 1096 1179 1117 1115 1092 1152 1151 1187 1112 1137 1068 1090 1114 1087 1138 1176 1061 1037 1074 1101 1086 1121 1081 1165 1148 1068 1167 1097 1135 1130 1121 1114 1186 1227 1099 1085 1095 1081 1086 1144 1163 1109 1099 1198 1099 1139 1157 1122 1090 1086 1095 1133 1080 1125 1123 1118 1144 1078 1132 1086 1136 1134 1172 1095 1063 1099 1129 1106 1113 1104 1151 1138 1075 1093 1080 1066 1142 1086 1101 1104 1174 1090 1201 1103 1111 1098 1061 1100 1059 1113 1048 1118 1163 1097 1134 1135 1092 1118 1155 1141 1147 1167 1074 1120 1101 1096 1078 1101 1135 1120 1059 1067 1054 1151 1085 1100 1145 1148 1151 1095 1155 1096 1068 1099 1085 1055 1178 1134 1118 1089 1106 1145 1127 1163 1158 1144 1116 1060 1085 1171 1119 1155 1078 1094 1077 1106 1121 1104 1211 1062 1129 1075 1081 1119 1107 1068 1167 1059 1092 1191 1050 1139 1075 1085 1160 1107 1063 1091 1017 1152 1118 1069 1124 1081 1155 1098 1174 1093 1083 1071 1026 1097 1051 1072 1069 1112 1058 1088 1173 1120 1110 1112 1089 1118 1168 1167 1136 1082 1120 1102 1141 1112 1112 1098 1123 1111 1080 1118 1048 1143 1099 1078 1163 1053 1087 1107 1110 1132 1118 1115 1118 1093 1097 1102 1114 1061 1064 1115 1148 1063 1155 1080 1106 1125 1095 1113 1136 1121 1203 1076 1098 1064 1112 1125 1111 1097 1145 1142 1125 1020 1161 1094 1110 1100 1141 1101 1094 1109 1124 1155 1117 1051 1134 1177 1118 1148 1148 1095 1097 1182 1117 1074 1152 1063 1053 1122 1085 1115 1076 1126 1113 1158 1077 1078 1123 1106 1112 1105 1169 1073 1131 1126 1174 1159 1123 1162 1116 1149 1103 1132 1107 1102 1073 1107 1136 1070 1137 1081 1129 1102 1150 1136 1128 1112 1168 1184 1147 1056 1067 1169 1151 1079 1077 1106 1132 1020 1152 1102 1148 1107 1111 1107 1150 1101 1107 1135 1140 1126 1110 1117 1154 1160 1119 1096 1104 1166 1102 1080 1108 1125 1107 1136 1150 1116 1177 1172 1113 1202 1084 1035 1118 1150 1107 1154 1077 1094 1082 1084 1147 1142 1127 1133 1061 1125 1138 1197 1164 1140 1152 1082 1141 1095 1118 1140 1144 1133 1102 1170 1164 1144 1167 1104 1182 1142 1150 1172 1183 1165 1149 1153 1124 1148 1163 1161 1219 1236 1122 1211 1196 1155 1139 1168 1143 1181 1153 1122 1163 1177 1181 1167 1219 1189 1206 1241 1197 1129 1182 1160 1171 1201 1177 1154 1197 1130 1173 1256 1165 1147 1165 1193 1211 1220 1169 1166 1235 1206 1200 1183 1162 1198 1178 1156 1215 1205 1165 1176 1206 1181 1206 1164 1139 1206 1161 1196 1172 1137 1121 1170 1238 1187 1179 1116 1155 1166 1162 1191 1173 1210 1204 1155 1224 1168 1158 1139 1176 1132 1133 1154 1178 1117 1194 1198 1181 1113 1100 1198 1249 1246 1206 1163 1198 1169 1194 1201 1186 1144 1174 1172 1206 1150 1173 1148 1136 1207 1152 1109 1134 1176 1157 1124 1165 1118 1175 1210 1131 1166 1179 1164 1166 1184 1168 1169 1150 1174 1156 1182 1179 1176 1243 1120 1223 1110 1138 1187 1127 1124 1167 1229 1147 1182 1140 1179 1118 1138 1144 1213 1181 1097 1144 1168 1221 1198 1157 1190 1102 1141 1165 1232 1225 1247 1216 1200 1182 1140 1179 1218 1129 1195 1191 1170 1156 1149 1139 1203 1189 1190 1130 1168 1206 1204 1191 1206 1195 1255 1145 1119 1161 1154 1176 1178 1187 1158 1245 1195 1207 1163 1205 1152 1167 1229 1239 1221 1137 1222 1170 1112 1110 1266 1179 1236 1172 1199 1202 1190 1249 1156 1196 1182 1171 1207 1195 1122 1230 1164 1192 1196 1202 1192 1238 1197 1155 1241 1230 1228 1155 1201 1154 1233 1202 1202 1206 1146 1164 1179 1187 1214 1197 1220 1174 1246 1235 1220 1169 1192 1224 1118 1188 1221 1147 1153 1129 1230 1185 1147 1198 1115 1214 1161 1240 1198 1186 1139 1191 1204 1228 1214 1143 1252 1098 1205 1195 1138 1240 1134 1203 1253 1203 1172 1179 1226 1209 1182 1169 1231 1194 1231 1175 1187 1171 1232 1169 1197 1195 1138 1096 1187 1221 1245 1232 1197 1172 1230 1138 1169 1154 1227 1249 1185 1173 1130 1194 1175 1128 1151 1186 1175 1223 1213 1186 1079 1191 1163 1187 1170 1163 1106 1219 1195 1247 1202 1186 1267 1147 1224 1202 1163 1149 1200 1134 1167 1134 1145 1130 1145 1180 1205 1186 1179 1218 1182 1140 1141 1219 1223 1159 1144 1260 1168 1059 1189 1174 1201 1183 1150 1247 1154 1203 1186 1121 1153 1222 1212 1150 1166 1158 1197 1203 1153 1142 1162 1151 1204 1193 1183 1210 1128 1177 1167 1187 1169 1132 1163 1116 1240 1133 1173 1202 1088 1209 1174 1213 1157 1143 1208 1100 1151 1160 1132 1174 1152 1144 1190 1170 1156 1145 1193 1181 1142 1106 1193 1193 1148 1195 1214 1172 1144 1169 1198 1232 1209 1211 1182 1233 1167 1195 1260 1169 1154 1167 1165 1215 1216 1247 1228 1175 1258 1146 1213 1183 1179 1213 1185</counts>
			</dataPoints>
		</scan>
	</xrdMeasurement>
</xrdMeasurements>
