<?xml version="1.0"?>
<xrdMeasurements xmlns="http://www.xrdml.com/XRDMeasurement/2.3" xmlns:xsi="http://www.w3.org/2001/XMLSchema-instance" xsi:schemaLocation="http://www.xrdml.com/XRDMeasurement/2.3 http://www.xrdml.com/XRDMeasurement/2.3/XRDMeasurement.xsd" status="Completed" recordIdentifier="{24FE1B88-3B34-4893-AA73-E8D1F21F44EC}">
	<comment>
		<entry/>
	</comment>
	<sample type="To be analyzed">
		<id>GPSS_Li1p5Mn0p4Ni0p3V0p2Ta0p1Cl4_111825_691cd5d8f3837ac4a0a99fd8</id>
		<name></name>
		<preparedBy></preparedBy>
	</sample>
	<xrdMeasurement measurementType="Scan" status="Completed" sampleMode="Reflection">
		<usedWavelength intended="K-Alpha 1">
			<kAlpha1 unit="Angstrom">1.5405980</kAlpha1>
			<kAlpha2 unit="Angstrom">1.5444260</kAlpha2>
			<kBeta unit="Angstrom">1.3922500</kBeta>
			<ratioKAlpha2KAlpha1>0.5000</ratioKAlpha2KAlpha1>
		</usedWavelength>
		<incidentBeamPath>
			<radius unit="mm">145.00</radius>
			<xRayTube id="1010048" name="Empyrean Cu LFF HR (9430 033 7310x)">
				<tension unit="kV">40.0</tension>
				<current unit="mA">15.0</current>
				<anodeMaterial>Cu</anodeMaterial>
				<focus type="Line">
					<length unit="mm">12.0</length>
					<width unit="mm">0.4</width>
					<takeOffAngle unit="deg">6.0</takeOffAngle>
				</focus>
			</xRayTube>
			<sollerSlit id="21010002" name="Soller slits 0.04 rad.">
				<opening unit="rad">0.0400</opening>
			</sollerSlit>
			<mask id="22031000" name="Fixed mask 13 mm">
				<width unit="mm">9.00</width>
			</mask>
			<divergenceSlit id="22120001" name="Divergence slit 1°" xsi:type="fixedDivergenceSlitType">
				<distanceToSample unit="mm">50.00</distanceToSample>
				<height unit="mm">1.52</height>
			</divergenceSlit>
		</incidentBeamPath>
		<sampleMovement xsi:type="spinningSampleMovementType">
			<spinnerRevolutionTime unit="seconds">1.0</spinnerRevolutionTime>
		</sampleMovement>
		<diffractedBeamPath>
			<radius unit="mm">145.00</radius>
			<antiScatterSlit id="22090040" name="AS slit 9 mm (PIXcel)" xsi:type="fixedAntiScatterSlitType">
				<height unit="mm">9.00</height>
			</antiScatterSlit>
			<sollerSlit id="21020003" name="Large Soller slits 0.04 rad.">
				<opening unit="rad">0.0400</opening>
			</sollerSlit>
			<filter id="20030001" name="Large beta-filter Nickel">
				<material>Ni</material>
				<thickness unit="mm">0.020</thickness>
			</filter>
			<detector id="7010019" name="PIXcel1D-Medipix3 detector" xsi:type="rtmsDetectorType">
				<phd unit="keV">
					<lowerLevel>4.02</lowerLevel>
					<upperLevel>11.27</upperLevel>
				</phd>
				<mode>Scanning</mode>
				<activeLength unit="deg">5.542</activeLength>
			</detector>
		</diffractedBeamPath>
		<scan appendNumber="0" mode="Continuous" scanAxis="Gonio" status="Completed">
			<header>
				<startTimeStamp>2025-11-22T12:20:02-08:00</startTimeStamp>
				<endTimeStamp>2025-11-22T12:28:09-08:00</endTimeStamp>
				<author>
					<name>AutomatedUser</name>
				</author>
				<source>
					<applicationSoftware version="1.7b (136)">PANalytical Aeris Instrument Suite</applicationSoftware>
					<instrumentControlSoftware version="3.2.00000000 20240306">AERIS</instrumentControlSoftware>
					<instrumentID>950485</instrumentID>
				</source>
			</header>
			<dataPoints>
				<positions axis="2Theta" unit="deg">
					<startPosition>10.00943322</startPosition>
					<endPosition>99.99442286</endPosition>
				</positions>
				<positions axis="Omega" unit="deg">
					<startPosition>5.00471661</startPosition>
					<endPosition>49.99721143</endPosition>
				</positions>
				<commonCountingTime unit="seconds">12.495</commonCountingTime>
				<counts unit="counts">2944 2976 2928 3013 2952 2989 2956 2855 2971 2874 2969 2894 2883 2999 2851 2982 2942 2964 2925 2930 3032 2923 2985 2969 2954 2904 2844 2948 2996 2930 3042 3052 3024 2945 2989 2963 2964 2906 3051 2926 3008 2966 3023 2908 2971 2908 2928 2951 2999 3045 2905 2943 2966 2911 2968 2944 3067 2965 2899 3038 2967 3034 2927 3008 2989 2983 2938 3005 2879 3019 3047 3029 3009 2939 3007 3057 2975 3028 2957 3029 3041 2980 3053 2962 3086 2930 3137 2909 3019 2991 2973 2923 2985 3058 3034 2954 2958 2871 2998 3072 2949 3065 2964 3014 3106 3083 3061 2972 3065 2987 3092 2994 3003 2976 3044 2966 3006 3021 3062 3160 3156 3034 2993 3066 3087 2976 3028 3030 3073 3036 3093 2983 2991 3038 3086 3044 3091 3030 3067 3024 3046 3122 3031 3218 2970 3024 3020 3115 2916 2998 2945 3171 3032 3027 2941 2976 3059 3055 3047 3035 3107 3097 2969 3179 2974 3002 2985 3148 3019 3086 3094 3055 2956 2994 3115 2990 3058 3118 3061 3028 3120 3062 2996 3076 3029 3102 3057 3043 3063 3077 3097 3078 3003 2975 3046 3006 3037 3044 2941 3009 3119 3014 2923 3044 3058 3149 2952 2970 2956 3063 3025 2995 3009 3103 3030 2934 3033 2997 2997 2934 3233 2992 3070 2898 3074 2965 3078 3045 2970 2990 3051 2987 3149 2988 2954 2974 2986 3061 3025 3049 3024 2961 3054 3003 2963 3070 2968 3068 3028 3057 2972 2939 2994 3012 3034 3050 2951 2998 3044 3011 2911 2994 3015 3040 3053 2909 2991 3113 3064 2980 2960 3095 2989 3022 3060 3006 3075 2914 3007 2966 2961 3006 2973 3021 3063 2991 3013 3042 3050 3085 3067 2969 3082 3001 3105 3028 2993 3051 3037 3125 3075 3083 3037 3067 3067 3039 2920 3121 3190 3072 3134 3052 2956 3053 3108 3061 3091 3082 2965 3012 3107 3150 3153 3046 3081 3133 3157 3083 3136 3173 3156 3282 3124 3235 3235 3146 3229 3236 3289 3252 3224 3351 3240 3300 3192 3320 3220 3269 3239 3248 3271 3225 3260 3297 3278 3235 3249 3295 3247 3225 3341 3228 3297 3342 3232 3326 3252 3307 3285 3409 3361 3354 3391 3362 3339 3361 3457 3386 3343 3366 3420 3453 3397 3472 3472 3400 3450 3409 3388 3356 3483 3541 3462 3489 3491 3567 3536 3584 3440 3429 3561 3423 3640 3566 3547 3526 3634 3629 3570 3675 3579 3583 3745 3713 3689 3698 3723 3728 3748 3803 3767 3825 3822 3830 3838 3760 3774 3901 3995 4135 3920 4120 4210 4172 4357 4308 4396 4466 4474 4602 4619 4624 4764 4768 4816 4850 4973 4984 5069 4929 5174 5022 5180 5200 5040 5338 5312 5262 5346 5262 5229 5339 5318 5334 5371 5264 5215 5387 5255 5236 5256 5235 5250 5208 5095 5236 5219 5302 5417 5234 5248 5397 5300 5289 5341 5102 5286 5254 5337 5253 5371 5390 5576 5530 5411 5615 5702 5441 5493 5401 5443 5442 5410 5473 5333 5268 5175 5400 5123 4974 5212 5108 4991 4713 4861 4635 4831 4485 4475 4504 4436 4280 4425 4188 4242 4106 4181 4093 4053 4149 3925 4010 3847 3711 3869 3862 3831 3762 3764 3798 3651 3651 3590 3575 3522 3498 3466 3451 3536 3402 3425 3468 3395 3379 3419 3464 3401 3452 3401 3288 3385 3247 3361 3443 3387 3546 3300 3516 3295 3391 3313 3357 3343 3240 3284 3251 3287 3298 3401 3378 3280 3203 3269 3296 3294 3372 3254 3243 3251 3381 3188 3231 3353 3238 3262 3223 3241 3207 3254 3352 3308 3306 3238 3272 3232 3221 3279 3207 3292 3240 3169 3159 3156 3229 3141 3287 3232 3336 3186 3204 3242 3250 3139 3264 3233 3316 3232 3241 3187 3214 3241 3210 3122 3142 3204 3240 3123 3144 3157 3120 3152 3200 3283 3262 3229 3143 3155 3133 3227 3207 3247 3296 3122 3128 3221 3150 3226 3272 3201 3236 3156 3243 3277 3116 3403 3167 3311 3258 3146 3250 3149 3309 3347 3277 3330 3364 3280 3215 3288 3231 3110 3277 3256 3326 3324 3180 3208 3175 3225 3203 3236 3239 3168 3106 3196 3198 3246 3195 3189 3204 3114 3156 3180 3112 3125 3171 3121 3150 3109 3099 2994 3206 3078 3082 3024 3059 3087 3094 3091 3134 3070 3067 3112 3017 3142 3066 3200 3071 3080 3175 3069 3135 3069 3113 3161 3040 3176 3028 3118 3063 2992 3161 3037 3178 3038 3125 3055 3030 3017 2978 2950 3173 3115 2949 3027 3039 3025 3095 2988 3046 3004 3027 3080 3134 3143 3108 3033 3055 2968 3098 3059 3063 3074 3079 2957 2983 3015 3087 2972 3149 3106 3071 3102 3101 3104 3030 3023 3122 3090 3001 3042 3038 2959 2883 3092 3034 2860 3056 3014 3073 3044 2950 3008 3098 2949 2950 2985 2978 2982 3029 2952 2971 2967 2910 2971 3006 3023 2994 2985 2979 3016 2992 2997 2920 2919 2977 3030 3057 2969 2975 2925 2886 2960 3062 2955 2969 2966 2903 2967 2932 3006 3022 3040 2925 3071 3050 3028 2954 2997 2957 2976 3011 2944 2968 3056 2973 2861 2958 2935 2845 2960 2931 3007 2937 2959 2923 2964 2954 2945 2939 2921 2925 2965 2968 2991 3080 2852 2870 2973 2919 2903 2936 2952 2983 2925 3059 2829 2975 2891 2959 2924 2876 3000 2948 2966 3013 2910 2896 2977 3018 2906 2935 2924 2909 2856 2886 2808 2848 2926 2856 2893 2908 2977 2855 2851 2862 2905 2918 2936 2964 2930 2830 2862 2943 2935 2932 2997 2916 2911 2919 2781 2985 2919 2936 2937 2850 2884 2883 2845 2853 2912 2905 2873 2906 2836 2903 2784 2885 2812 2960 2909 2864 2762 2837 2862 2894 2802 2943 2802 2892 2931 2793 2851 2915 2893 2876 2885 2879 2933 2829 2840 2927 2846 2854 2947 2843 2778 2775 2805 2779 2718 2837 2820 2900 2864 2843 2911 2861 2906 2785 2944 2918 2870 2880 2933 2922 2783 2839 2834 2879 2861 2757 2826 2848 2882 2874 2860 2888 2848 2894 2852 2917 2830 2833 2845 2840 2786 2804 2917 2831 2852 2893 2803 2780 2908 2882 2788 2811 2706 2810 2797 2787 2836 2848 2900 2901 2946 2848 2917 2874 2941 2879 2880 2841 2835 2883 2884 2773 2807 2922 2793 2822 2871 2878 2906 2825 2850 2963 2927 2874 2895 2825 2795 2818 2828 2939 2871 2937 2918 2843 2916 2740 2870 2887 2833 2850 2807 2904 2892 3001 2760 2921 3022 2923 2830 2861 2993 2885 2821 2810 2974 2932 2887 2899 2940 2915 2898 2833 2737 2965 2918 2883 3078 2913 2813 2882 2886 2987 2986 2943 2929 2887 2935 3000 2954 2911 2830 2853 2934 2850 2878 2940 2884 3003 2924 2924 2984 3030 2887 2981 2863 2907 2888 2913 2837 2873 2876 2918 2864 2910 2963 2878 2998 2874 2963 2867 2842 2960 2904 2894 2905 2823 2856 2969 2898 2976 2763 2972 2877 2847 2873 2944 2912 2958 2881 2966 2908 2903 2912 2886 2836 2922 2952 2896 2915 2717 2921 2868 2826 2914 2940 2904 2821 2775 2984 2818 2950 2822 2930 2787 2842 3040 2848 2926 2895 2898 2805 2912 2871 2958 2753 2858 2812 2770 2939 2851 2828 2801 2819 2747 2836 2742 2902 2810 2824 2845 2839 2844 2911 2854 2744 2823 2790 2888 2820 2810 2838 2823 2790 2689 2676 2623 2810 2714 2691 2679 2645 2663 2653 2685 2712 2693 2614 2684 2602 2701 2596 2663 2593 2728 2531 2633 2641 2619 2653 2670 2579 2604 2587 2655 2602 2637 2561 2526 2562 2532 2582 2535 2698 2601 2561 2492 2614 2622 2472 2519 2575 2570 2540 2434 2518 2477 2536 2460 2522 2608 2557 2533 2481 2529 2477 2459 2496 2422 2384 2445 2495 2451 2487 2480 2453 2427 2436 2376 2413 2426 2341 2426 2413 2353 2528 2569 2511 2457 2489 2480 2470 2511 2510 2456 2369 2475 2444 2436 2469 2453 2400 2453 2412 2358 2421 2478 2444 2449 2382 2439 2524 2528 2462 2477 2532 2549 2494 2387 2479 2581 2609 2518 2492 2457 2380 2498 2511 2471 2393 2531 2499 2461 2460 2522 2442 2549 2555 2413 2380 2478 2395 2414 2417 2400 2383 2437 2353 2433 2360 2402 2322 2417 2366 2404 2504 2428 2445 2370 2421 2394 2392 2475 2478 2381 2403 2311 2387 2419 2389 2294 2378 2346 2382 2430 2406 2433 2392 2357 2322 2329 2431 2373 2398 2422 2331 2430 2316 2404 2380 2326 2466 2366 2425 2343 2372 2388 2274 2413 2403 2355 2402 2321 2246 2248 2353 2361 2342 2366 2409 2344 2457 2364 2358 2336 2345 2380 2305 2325 2279 2384 2389 2364 2398 2341 2397 2362 2438 2323 2356 2352 2370 2316 2370 2384 2342 2372 2396 2450 2346 2408 2351 2320 2417 2362 2370 2340 2370 2386 2354 2430 2354 2478 2321 2388 2362 2315 2418 2412 2417 2392 2435 2437 2358 2387 2359 2336 2463 2281 2415 2435 2396 2317 2310 2371 2306 2275 2428 2383 2374 2397 2464 2322 2334 2393 2410 2385 2387 2381 2323 2294 2320 2318 2379 2343 2333 2391 2352 2382 2351 2382 2286 2368 2347 2288 2420 2301 2382 2364 2318 2391 2315 2325 2351 2344 2360 2316 2335 2296 2295 2225 2326 2312 2192 2297 2251 2251 2297 2323 2310 2276 2191 2252 2344 2304 2270 2293 2241 2325 2251 2259 2262 2241 2274 2306 2300 2214 2271 2241 2246 2249 2245 2247 2168 2245 2288 2283 2258 2284 2194 2225 2255 2216 2293 2223 2149 2268 2194 2225 2226 2174 2291 2306 2182 2198 2221 2194 2154 2226 2188 2116 2203 2150 2148 2230 2175 2271 2114 2197 2120 2227 2103 2134 2107 2153 2193 2084 2202 2202 2135 2265 2137 2146 2043 2139 2153 2178 2064 2099 2125 2165 2218 2155 2106 2234 2092 2063 2086 2096 2117 2131 2101 2151 2108 2131 2151 2105 2136 2081 2044 2132 2075 2100 2172 2114 2153 2057 2140 2143 2247 2111 2178 2135 2125 2145 2167 2130 2089 2197 2154 2116 2132 2206 2198 2294 2269 2331 2318 2329 2292 2376 2403 2438 2527 2483 2592 2647 2653 2728 2743 2738 2801 2767 2840 2828 2943 2914 2931 2902 2949 2928 3131 3055 3132 2999 2993 3070 3060 3165 3111 3196 3132 3259 3230 3163 3196 3146 3135 3161 3132 3091 3086 3116 3040 3019 2910 2920 2903 3026 2995 2826 2929 2797 2851 2835 2753 2796 2778 2713 2692 2765 2723 2688 2533 2665 2615 2508 2549 2562 2425 2526 2351 2379 2373 2394 2342 2381 2291 2262 2310 2339 2277 2281 2288 2198 2245 2217 2234 2170 2200 2155 2186 2122 2114 2053 2164 2052 2168 2190 2171 2211 2120 2052 2080 2088 2051 2045 2061 2025 2107 2180 2138 2146 2209 2122 2206 2282 2279 2209 2268 2301 2345 2448 2389 2475 2485 2640 2672 2582 2598 2718 2759 2767 2795 2955 2962 2916 2976 3093 3026 3078 3063 3150 3191 3099 3084 3134 3178 3123 3190 3081 3037 3099 3136 3069 3163 3242 3180 3341 3156 3108 3309 3418 3459 3381 3502 3565 3535 3625 3714 3768 3692 3712 3836 3680 3701 3580 3539 3497 3420 3405 3265 3450 3186 3098 3045 3068 2985 2955 2934 2894 2742 2701 2629 2573 2634 2490 2587 2438 2419 2341 2388 2266 2285 2294 2293 2171 2137 2178 2158 2104 2065 2059 2015 2040 2049 1982 2029 1918 1980 1929 2032 1979 1974 1869 1974 1890 2002 1869 1991 1866 1871 1916 1956 1883 1897 1843 1902 1906 1953 1879 1855 1878 1871 1832 1871 1746 1928 1823 1950 1817 1837 1896 1868 1810 1868 1795 1889 1772 1756 1757 1805 1737 1829 1806 1794 1756 1800 1867 1784 1798 1778 1787 1819 1846 1862 1845 1834 1770 1798 1777 1796 1760 1786 1852 1821 1718 1814 1762 1814 1838 1780 1692 1733 1795 1860 1778 1786 1807 1758 1744 1778 1818 1729 1702 1767 1801 1810 1814 1783 1746 1821 1797 1805 1745 1771 1753 1746 1706 1731 1730 1748 1768 1835 1734 1798 1794 1792 1757 1712 1705 1791 1719 1740 1763 1750 1774 1750 1783 1718 1684 1670 1704 1686 1774 1692 1698 1699 1791 1722 1722 1735 1652 1713 1780 1718 1742 1720 1864 1709 1721 1677 1780 1757 1723 1668 1753 1678 1792 1721 1800 1801 1729 1707 1726 1810 1668 1789 1678 1664 1780 1686 1772 1781 1807 1733 1765 1680 1790 1704 1681 1764 1719 1761 1836 1755 1772 1701 1764 1755 1749 1794 1734 1694 1702 1776 1761 1848 1727 1716 1772 1672 1738 1853 1790 1736 1668 1694 1843 1761 1700 1841 1751 1792 1780 1679 1731 1774 1733 1758 1789 1789 1786 1708 1748 1721 1764 1736 1712 1774 1679 1745 1790 1788 1717 1823 1778 1746 1741 1666 1687 1713 1704 1735 1779 1743 1773 1782 1831 1743 1744 1754 1757 1766 1750 1773 1840 1838 1735 1755 1726 1793 1794 1789 1753 1726 1789 1804 1832 1793 1821 1783 1754 1825 1748 1827 1870 1795 1845 1781 1825 1837 1831 1783 1771 1770 1810 1809 1782 1806 1842 1801 1901 1816 1788 1835 1826 1886 1910 1844 1899 1901 1864 1878 1982 1819 1810 1954 1882 1921 1917 1963 1880 1908 1977 1942 2028 1971 1984 1963 2061 1995 1966 1974 1952 2085 2016 2133 2083 2079 2127 2147 2129 2232 2270 2367 2378 2410 2573 2614 2637 2830 2809 3000 3010 3222 3209 3370 3464 3584 3637 3820 3921 4120 4193 4142 4397 4503 4611 4649 4824 4910 5002 5266 5279 5275 5477 5759 5593 5829 5834 5883 5811 5938 5908 5998 5999 5903 6031 5876 5880 5772 5954 5654 5789 5717 5625 5608 5578 5600 5688 5720 5788 5724 5832 5795 5959 6130 6001 6087 5903 6048 5992 6054 5806 5967 5751 5823 5531 5463 5418 5364 4938 4994 4802 4694 4597 4338 4278 4279 4142 4068 3972 3894 3720 3746 3550 3589 3299 3257 3200 3144 3064 3006 2819 2754 2755 2671 2557 2578 2436 2464 2321 2279 2274 2317 2279 2202 2104 2103 2102 2114 2069 2075 1982 1972 1993 2021 1981 1959 1978 1936 1915 1944 1886 1893 1959 1860 1846 1803 1871 1838 1808 1806 1729 1794 1816 1776 1802 1770 1709 1741 1666 1711 1862 1756 1683 1787 1744 1718 1824 1754 1694 1781 1753 1820 1761 1764 1833 1794 1774 1809 1809 1835 1751 1748 1751 1782 1748 1821 1719 1705 1773 1765 1740 1810 1807 1707 1746 1744 1744 1670 1732 1805 1755 1786 1741 1741 1824 1839 1825 1770 1835 1722 1800 1827 1838 1848 1915 1750 1859 1845 1783 1863 1825 1820 1812 1812 1824 1839 1797 1832 1800 1767 1744 1722 1753 1736 1799 1707 1782 1782 1811 1688 1723 1769 1769 1755 1741 1748 1765 1760 1692 1684 1818 1706 1746 1635 1659 1795 1738 1752 1724 1731 1734 1733 1703 1718 1747 1712 1709 1705 1775 1693 1777 1706 1719 1656 1802 1782 1691 1739 1698 1767 1700 1767 1693 1861 1701 1720 1732 1708 1683 1704 1736 1711 1658 1726 1688 1724 1746 1749 1745 1693 1716 1779 1707 1729 1675 1752 1733 1637 1651 1805 1850 1655 1718 1725 1712 1757 1745 1772 1703 1668 1713 1777 1710 1749 1745 1773 1715 1728 1823 1754 1734 1691 1703 1796 1773 1784 1733 1720 1739 1754 1735 1741 1704 1724 1735 1764 1706 1747 1772 1678 1778 1826 1801 1635 1710 1789 1752 1678 1819 1763 1752 1775 1717 1714 1772 1708 1849 1772 1695 1792 1807 1816 1828 1687 1766 1743 1750 1697 1731 1768 1726 1813 1760 1763 1785 1631 1672 1636 1630 1717 1758 1642 1704 1699 1683 1660 1626 1762 1696 1633 1611 1670 1609 1718 1657 1676 1676 1762 1639 1529 1652 1626 1570 1583 1618 1611 1559 1600 1638 1552 1517 1623 1527 1534 1539 1570 1567 1558 1600 1573 1630 1562 1512 1564 1595 1580 1555 1609 1608 1568 1562 1610 1598 1606 1571 1563 1581 1631 1534 1630 1511 1528 1439 1475 1563 1519 1533 1515 1554 1628 1526 1658 1488 1581 1546 1670 1578 1582 1556 1586 1518 1613 1551 1558 1588 1517 1550 1580 1540 1550 1588 1617 1505 1562 1600 1600 1579 1561 1532 1582 1632 1577 1504 1480 1523 1563 1528 1519 1519 1455 1524 1496 1515 1450 1584 1514 1528 1524 1583 1563 1551 1493 1574 1530 1509 1548 1459 1523 1539 1481 1545 1463 1591 1512 1531 1445 1478 1455 1520 1490 1478 1488 1485 1488 1526 1418 1447 1475 1474 1468 1459 1401 1515 1451 1412 1383 1515 1464 1453 1411 1475 1462 1470 1425 1497 1500 1413 1460 1365 1453 1472 1483 1435 1503 1402 1368 1431 1426 1404 1504 1479 1490 1317 1503 1490 1433 1427 1428 1419 1475 1422 1467 1421 1492 1446 1472 1371 1459 1399 1470 1374 1469 1416 1442 1412 1451 1446 1424 1406 1429 1362 1388 1384 1461 1460 1430 1422 1386 1393 1424 1413 1384 1402 1384 1443 1431 1522 1430 1381 1462 1432 1452 1362 1432 1428 1440 1429 1449 1374 1470 1402 1426 1413 1381 1415 1346 1428 1415 1359 1429 1433 1391 1497 1410 1391 1365 1368 1386 1418 1349 1426 1352 1473 1440 1329 1448 1404 1402 1369 1404 1393 1432 1386 1388 1380 1431 1375 1439 1438 1371 1400 1458 1371 1381 1370 1488 1355 1318 1459 1378 1355 1421 1363 1445 1337 1390 1364 1371 1400 1344 1405 1409 1402 1306 1406 1434 1391 1364 1422 1451 1405 1411 1379 1375 1354 1395 1417 1370 1412 1384 1339 1376 1403 1430 1396 1379 1393 1378 1387 1355 1405 1378 1361 1404 1355 1374 1349 1382 1358 1454 1394 1435 1440 1386 1316 1419 1429 1372 1383 1390 1393 1387 1380 1368 1357 1346 1368 1426 1371 1383 1306 1358 1353 1458 1453 1355 1410 1268 1452 1398 1383 1382 1402 1399 1369 1408 1283 1401 1367 1349 1323 1369 1405 1408 1348 1460 1304 1355 1378 1316 1357 1383 1396 1396 1344 1429 1381 1400 1442 1377 1458 1358 1473 1458 1338 1333 1361 1375 1399 1441 1349 1394 1367 1431 1436 1429 1358 1411 1426 1351 1385 1388 1426 1431 1406 1365 1375 1429 1413 1497 1370 1404 1429 1289 1407 1411 1399 1439 1428 1457 1360 1438 1330 1420 1426 1389 1434 1449 1434 1382 1401 1420 1386 1346 1420 1443 1376 1401 1449 1373 1395 1362 1385 1436 1456 1397 1348 1380 1353 1349 1320 1407 1346 1408 1407 1358 1380 1334 1371 1308 1324 1437 1422 1364 1359 1446 1376 1438 1382 1366 1375 1352 1386 1305 1376 1381 1304 1307 1390 1341 1410 1368 1380 1373 1324 1358 1373 1326 1353 1363 1413 1356 1351 1439 1339 1389 1346 1382 1347 1413 1327 1365 1383 1375 1296 1409 1371 1366 1372 1302 1322 1384 1381 1279 1384 1373 1340 1348 1416 1315 1444 1393 1337 1347 1355 1413 1333 1339 1394 1362 1273 1393 1358 1369 1400 1436 1355 1431 1430 1358 1356 1356 1381 1362 1336 1401 1304 1337 1358 1373 1455 1412 1437 1419 1301 1411 1423 1387 1433 1332 1370 1438 1360 1460 1362 1415 1351 1401 1416 1434 1439 1367 1389 1422 1408 1407 1324 1374 1391 1398 1403 1466 1405 1393 1376 1305 1380 1379 1450 1418 1355 1453 1422 1479 1560 1510 1485 1547 1502 1516 1595 1602 1540 1636 1505 1599 1591 1566 1550 1600 1597 1657 1646 1651 1592 1613 1668 1655 1631 1629 1653 1684 1673 1694 1680 1655 1737 1756 1662 1768 1679 1704 1696 1693 1715 1677 1737 1732 1583 1646 1658 1747 1640 1636 1692 1631 1745 1671 1639 1650 1545 1683 1658 1508 1538 1553 1615 1599 1588 1586 1521 1656 1624 1614 1523 1576 1575 1633 1593 1590 1517 1551 1567 1536 1560 1644 1573 1610 1644 1599 1549 1597 1576 1584 1602 1557 1600 1629 1571 1580 1608 1589 1571 1576 1508 1513 1564 1558 1495 1502 1534 1588 1557 1528 1532 1560 1524 1512 1508 1509 1560 1512 1552 1457 1508 1446 1345 1433 1453 1453 1441 1468 1497 1419 1425 1433 1375 1413 1376 1408 1385 1452 1458 1416 1403 1444 1453 1426 1358 1420 1411 1371 1428 1467 1434 1416 1402 1403 1344 1372 1419 1374 1383 1348 1390 1406 1452 1403 1422 1432 1392 1391 1456 1335 1437 1373 1332 1411 1397 1345 1336 1423 1372 1385 1435 1377 1369 1458 1424 1444 1454 1351 1383 1359 1368 1443 1381 1361 1369 1403 1350 1472 1452 1450 1421 1473 1392 1398 1386 1377 1444 1412 1381 1399 1372 1330 1445 1404 1388 1378 1377 1396 1454 1341 1321 1424 1351 1393 1402 1404 1406 1383 1478 1393 1413 1364 1405 1407 1424 1390 1441 1433 1357 1389 1430 1449 1487 1377 1402 1408 1428 1396 1332 1453 1412 1438 1371 1398 1341 1417 1345 1341 1383 1405 1363 1374 1446 1425 1351 1410 1433 1438 1462 1369 1425 1437 1389 1418 1448 1395 1398 1362 1363 1369 1421 1402 1398 1409 1400 1363 1328 1409 1393 1387 1348 1384 1477 1434 1406 1382 1407 1401 1354 1412 1393 1391 1425 1387 1451 1360 1442 1457 1404 1414 1391 1404 1400 1373 1384 1378 1363 1417 1389 1364 1360 1433 1400 1425 1426 1436 1386 1435 1412 1377 1378 1451 1437 1422 1408 1477 1394 1428 1384 1410 1368 1453 1430 1450 1453 1418 1300 1356 1432 1437 1509 1491 1485 1374 1447 1415 1467 1454 1491 1471 1503 1472 1484 1459 1493 1484 1490 1503 1503 1517 1478 1493 1487 1603 1500 1645 1611 1702 1572 1655 1613 1645 1685 1746 1724 1725 1857 1971 1939 1930 1992 2090 2245 2192 2250 2309 2303 2423 2363 2498 2541 2524 2686 2491 2651 2728 2669 2652 2766 2671 2771 2878 2804 2866 2876 2812 2973 2807 2983 2904 2968 2915 2965 2828 2935 2975 2992 3052 2999 3026 3032 2960 3045 3000 3000 3048 2925 2853 2872 2892 2724 2802 2818 2825 2697 2649 2737 2537 2603 2576 2478 2502 2480 2374 2342 2358 2470 2222 2318 2299 2332 2287 2260 2218 2231 2344 2288 2247 2303 2363 2389 2506 2516 2543 2520 2568 2667 2636 2667 2590 2692 2657 2739 2674 2729 2712 2831 2828 2747 2773 2770 2726 2760 2650 2622 2614 2560 2554 2515 2519 2480 2399 2348 2355 2265 2173 2244 2136 2117 2138 2049 1924 2032 1964 1947 1924 1917 1876 1868 1847 1781 1713 1791 1837 1708 1794 1735 1774 1802 1721 1715 1623 1680 1709 1711 1710 1650 1647 1562 1613 1662 1563 1622 1526 1612 1582 1577 1671 1545 1491 1590 1508 1594 1522 1514 1582 1568 1491 1508 1602 1564 1481 1492 1508 1533 1462 1474 1504 1409 1416 1464 1482 1468 1421 1445 1458 1458 1455 1403 1502 1470 1463 1414 1402 1502 1423 1462 1459 1459 1429 1443 1437 1482 1425 1395 1411 1472 1434 1451 1417 1450 1452 1416 1384 1433 1452 1432 1468 1446 1409 1473 1481 1511 1500 1472 1512 1478 1532 1561 1539 1564 1574 1546 1562 1528 1573 1701 1649 1626 1628 1589 1636 1601 1611 1631 1674 1580 1649 1718 1654 1725 1744 1649 1660 1654 1691 1663 1749 1680 1698 1706 1728 1681 1734 1687 1699 1716 1659 1625 1761 1743 1691 1651 1658 1656 1706 1687 1707 1702 1652 1637 1666 1675 1616 1555 1718 1700 1676 1652 1551 1621 1618 1605 1711 1641 1696 1658 1624 1727 1656 1665 1667 1662 1645 1723 1772 1716 1718 1753 1771 1702 1678 1771 1723 1789 1691 1686 1779 1754 1754 1731 1687 1746 1706 1714 1660 1659 1661 1694 1716 1631 1598 1625 1574 1556 1630 1584 1622 1520 1638 1494 1542 1499 1498 1585 1519 1489 1377 1514 1443 1468 1443 1478 1440 1437 1457 1410 1398 1409 1362 1362 1374 1373 1402 1314 1355 1350 1376 1425 1412 1363 1396 1391 1387 1411 1372 1414 1421 1383 1340 1385 1397 1469 1366 1390 1327 1337 1315 1392 1375 1414 1363 1342 1414 1379 1312 1378 1337 1294 1395 1382 1400 1372 1401 1337 1365 1292 1320 1359 1376 1298 1345 1396 1323 1352 1355 1353 1397 1306 1356 1365 1407 1271 1312 1327 1284 1348 1337 1348 1246 1311 1279 1343 1294 1343 1282 1348 1339 1378 1371 1337 1341 1295 1281 1330 1333 1365 1325 1328 1371 1345 1365 1335 1275 1329 1234 1316 1333 1320 1318 1290 1331 1324 1312 1282 1361 1377 1332 1291 1389 1320 1300 1369 1278 1368 1356 1359 1335 1340 1327 1296 1353 1388 1350 1292 1367 1362 1382 1341 1412 1350 1317 1364 1397 1347 1381 1420 1427 1403 1380 1308 1301 1400 1364 1358 1336 1341 1387 1355 1400 1332 1382 1391 1393 1339 1403 1349 1393 1384 1387 1421 1420 1356 1372 1318 1412 1390 1352 1491 1455 1435 1438 1422 1473 1483 1455 1433 1471 1522 1371 1408 1427 1386 1501 1477 1485 1447 1415 1463 1469 1475 1376 1425 1478 1441 1379 1373 1389 1400 1438 1397 1448 1435 1306 1421 1380 1396 1461 1421 1371 1375 1393 1429 1370 1370 1399 1342 1401 1380 1378 1363 1378 1322 1369 1326 1343 1396 1393 1392 1352 1359 1303 1379 1344 1330 1379 1349 1331 1372 1354 1286 1374 1350 1362 1333 1328 1358 1334 1343 1370 1368 1347 1311 1359 1320 1365 1383 1341 1379 1307 1385 1357 1332 1356 1371 1324 1365 1344 1321 1310 1370 1375 1419 1348 1308 1324 1296 1320 1324 1348 1350 1414 1317 1324 1364 1295 1385 1347 1318 1403 1304 1403 1343 1357 1338 1378 1418 1368 1387 1384 1381 1370 1403 1375 1327 1335 1365 1302 1428 1401 1402 1354 1344 1322 1329 1310 1425 1374 1337 1330 1318 1363 1336 1390 1333 1321 1341 1350 1384 1354 1323 1375 1367 1280 1347 1296 1310 1364 1319 1284 1388 1346 1422 1330 1277 1409 1284 1434 1275 1322 1332 1283 1273 1312 1338 1279 1259 1298 1284 1302 1291 1297 1277 1391 1304 1337 1304 1310 1339 1235 1289 1335 1278 1324 1356 1323 1347 1347 1368 1363 1330 1303 1293 1271 1279 1357 1384 1304 1341 1274 1275 1305 1323 1306 1270 1344 1277 1240 1302 1274 1259 1357 1299 1281 1387 1271 1283 1284 1350 1324 1309 1323 1323 1299 1326 1231 1333 1261 1247 1328 1279 1292 1316 1321 1351 1350 1361 1325 1295 1350 1294 1321 1332 1262 1322 1339 1303 1372 1281 1295 1332 1328 1378 1316 1359 1295 1315 1304 1366 1327 1293 1331 1303 1365 1338 1361 1278 1328 1325 1329 1370 1317 1358 1345 1384 1332 1278 1272 1306 1242 1302 1342 1265 1360 1265 1304 1359 1288 1320 1294 1287 1234 1365 1383 1295 1328 1346 1360 1433 1341 1328 1302 1347 1350 1308 1306 1323 1310 1353 1375 1353 1283 1358 1425 1461 1382 1397 1410 1418 1396 1445 1347 1385 1385 1457 1465 1371 1421 1479 1415 1457 1408 1405 1408 1447 1462 1413 1434 1398 1437 1458 1383 1473 1435 1468 1443 1453 1487 1450 1452 1450 1449 1461 1416 1470 1445 1509 1491 1484 1371 1434 1412 1477 1465 1375 1399 1402 1418 1370 1355 1436 1324 1413 1396 1413 1422 1451 1495 1447 1401 1372 1439 1333 1404 1372 1408 1397 1475 1390 1431 1404 1403 1474 1424 1454 1447 1487 1482 1477 1480 1547 1511 1583 1562 1470 1602 1541 1626 1609 1637 1608 1616 1574 1523 1523 1576 1534 1586 1587 1635 1557 1577 1492 1517 1602 1495 1479 1483 1540 1421 1512 1487 1380 1401 1403 1463 1367 1469 1375 1393 1388 1298 1368 1321 1372 1278 1265 1278 1322 1337 1268 1277 1370 1347 1256 1392 1361 1272 1296 1298 1262 1333 1319 1294 1319 1293 1283 1267 1263 1273 1232 1252 1248 1292 1301 1244 1183 1277 1340 1249 1255 1253 1247 1261 1249 1199 1178 1232 1217 1305 1193 1204 1252 1253 1270 1298 1229 1301 1258 1281 1218 1235 1210 1245 1266 1203 1241 1274 1202 1250 1253 1201 1201 1155 1284 1208 1176 1281 1298 1277 1304 1227 1260 1256 1248 1292 1248 1200 1239 1289 1308 1205 1218 1242 1251 1268 1241 1291 1285 1228 1194 1307 1308 1242 1185 1255 1309 1307 1282 1306 1288 1247 1255 1282 1280 1294 1263 1247 1265 1280 1300 1275 1309 1299 1370 1437 1370 1427 1376 1411 1368 1412 1397 1473 1436 1538 1480 1487 1461 1521 1600 1474 1568 1413 1547 1509 1532 1548 1628 1535 1499 1573 1569 1552 1538 1635 1529 1589 1594 1603 1576 1627 1608 1577 1612 1601 1579 1621 1608 1688 1568 1619 1630 1689 1601 1633 1630 1623 1696 1668 1563 1540 1677 1603 1576 1658 1541 1590 1606 1537 1499 1553 1527 1489 1477 1472 1484 1492 1498 1470 1504 1426 1386 1399 1436 1472 1436 1435 1388 1410 1503 1448 1419 1392 1367 1391 1340 1387 1438 1422 1435 1379 1493 1388 1415 1462 1413 1516 1332 1474 1468 1430 1460 1399 1458 1490 1560 1486 1519 1504 1535 1460 1516 1467 1530 1542 1523 1452 1476 1511 1450 1507 1559 1458 1456 1469 1414 1457 1424 1412 1447 1445 1495 1440 1397 1380 1402 1396 1467 1366 1318 1326 1338 1406 1280 1306 1342 1302 1350 1297 1330 1314 1281 1302 1299 1302 1263 1279 1317 1296 1316 1324 1317 1326 1240 1320 1285 1293 1307 1269 1278 1282 1258 1257 1317 1303 1279 1289 1228 1222 1320 1314 1290 1267 1198 1308 1303 1324 1255 1307 1338 1290 1271 1270 1318 1347 1344 1309 1358 1279 1363 1332 1391 1348 1264 1286 1342 1295 1335 1311 1281 1327 1355 1361 1381 1384 1334 1366 1330 1350 1407 1397 1348 1373 1344 1264 1315 1289 1285 1335 1395 1414 1361 1340 1314 1350 1363 1351 1431 1312 1400 1327 1352 1365 1353 1286 1376 1326 1298 1359 1370 1332 1268 1295 1407 1295 1308 1268 1303 1367 1328 1392 1351 1324 1388 1352 1328 1308 1403 1366 1333 1337 1343 1310 1388 1394 1388 1298 1322 1344 1288 1298 1291 1334 1389 1231 1354 1315 1336 1306 1322 1334 1320 1347 1308 1335 1336 1318 1352 1351 1346 1413 1317 1331 1286 1354 1297 1289 1301 1245 1343 1343 1360 1344 1322 1324 1343 1270 1313 1388 1325 1276 1292 1327 1275 1254 1240 1358 1280 1324 1300 1302 1288 1230 1273 1264 1265 1316 1229 1279 1311 1267 1305 1297 1216 1315 1291 1259 1324 1302 1256 1234 1222 1260 1242 1236 1235 1247 1231 1231 1260 1290 1245 1193 1228 1274 1237 1265 1275 1306 1204 1342 1254 1247 1278 1314 1280 1245 1329 1227 1247 1248 1252 1277 1267 1253 1220 1283 1231 1250 1280 1254 1240 1213 1253 1222 1239 1160 1192 1238 1192 1218 1240 1189 1199 1245 1212 1256 1202 1189 1267 1208 1245 1203 1252 1307 1213 1215 1229 1200 1226 1218 1212 1240 1163 1239 1224 1170 1140 1203 1183 1244 1163 1224 1186 1242 1163 1211 1173 1243 1214 1168 1236 1197 1194 1199 1208 1251 1140 1241 1178 1194 1272 1188 1237 1222 1189 1266 1280 1214 1237 1202 1170 1172 1243 1166 1229 1161 1220 1193 1208 1176 1121 1219 1212 1212 1177 1199 1224 1177 1193 1253 1242 1225 1175 1257 1133 1210 1210 1307 1265 1215 1201 1195 1163 1170 1205 1239 1198 1177 1223 1201 1181 1198 1178 1165 1158 1192 1155 1228 1101 1152 1118 1231 1169 1169 1199 1188 1224 1174 1218 1224 1164 1214 1180 1220 1230 1203 1215 1165 1246 1215 1211 1170 1202 1190 1171 1208 1220 1148 1147 1114 1159 1210 1181 1194 1175 1130 1189 1191 1226 1221 1156 1271 1179 1170 1224 1201 1191 1222 1180 1233 1153 1157 1213 1233 1170 1135 1187 1247 1158 1195 1127 1204 1179 1155 1165 1174 1167 1161 1187 1127 1198 1182 1182 1238 1200 1213 1187 1236 1168 1134 1226 1199 1232 1151 1184 1159 1161 1218 1182 1202 1208 1177 1218 1107 1193 1280 1124 1194 1210 1252 1219 1226 1166 1224 1201 1176 1197 1167 1155 1181 1164 1191 1259 1197 1142 1197 1215 1256 1165 1213 1152 1166 1173 1123 1221 1251 1188 1177 1244 1223 1242 1099 1193 1177 1222 1199 1172 1156 1132 1173 1222 1208 1230 1154 1088 1153 1215 1129 1138 1152 1144 1179 1178 1225 1191 1236 1143 1217 1160 1167 1221 1225 1160 1191 1189 1237 1217 1201 1182 1172 1191 1153 1224 1170 1206 1246 1220 1145 1179 1178 1249 1186 1192 1164 1236 1242 1146 1219 1210 1199 1233 1260 1212 1234 1262 1209 1174 1270 1187 1172 1199 1187 1209 1126 1206 1212 1163 1255 1198 1185 1193 1199 1166 1154 1219 1242 1237 1217 1150 1169 1247 1194 1249 1235 1237 1210 1298 1264 1208 1196 1210 1177 1245 1186 1232 1235 1225 1223 1234 1209 1233 1270 1227 1187 1207 1233 1208 1268 1270 1257 1255 1199 1219 1210 1272 1247 1188 1219 1274 1185 1238 1219 1232 1153 1210 1215 1183 1222 1187 1209 1220 1243 1216 1180 1212 1181 1193 1183 1186 1243 1199 1203 1212 1196 1201 1172 1222 1234 1176 1219 1225 1124 1198 1159 1154 1164 1234 1206 1197 1216 1211 1217 1172 1215 1194 1169 1236 1262 1176 1211 1171 1212 1214 1171 1181 1202 1249 1192 1181 1236 1155 1211 1252 1177 1188 1206 1225 1139 1227 1164 1216 1171 1229 1229 1162 1168 1191 1232 1205 1219 1157 1147 1195 1221 1170 1176 1198 1225 1222 1200 1214 1238 1142 1200 1266 1167 1163 1189 1205 1164 1215 1196 1191 1149 1176 1199 1175 1180 1260 1169 1129 1148 1184 1132 1167 1185 1184 1156 1192 1144 1162 1122 1171 1090 1229 1088 1178 1217 1173 1132 1138 1178 1191 1186 1155 1179 1155 1145 1212 1266 1198 1164 1168 1217 1200 1180 1147 1159 1166 1117 1125 1166 1212 1147 1147 1159 1159 1144 1203 1190 1213 1182 1188 1176 1180 1211 1212 1216 1270 1158 1218 1213 1135 1136 1194 1196 1220 1097 1194 1206 1178 1161 1187 1177 1182 1184 1142 1175 1159 1087 1158 1183 1179 1166 1176 1170 1181 1212 1125 1175 1209 1183 1164 1214 1116 1239 1168 1197 1172 1156 1202 1260 1116 1188 1131 1174 1257 1194 1231 1238 1194 1198 1142 1220 1187 1209 1231 1222 1287 1237 1248 1239 1228 1220 1268 1279 1238 1225 1342 1254 1201 1317 1257 1231 1252 1297 1238 1338 1280 1307 1314 1269 1197 1358 1259 1319 1271 1242 1291 1309 1262 1292 1296 1270 1268 1346 1267 1295 1255 1283 1367 1343 1303 1328 1236 1283 1267 1295 1256 1245 1248 1303 1382 1344 1226 1260 1337 1294 1279 1292 1300 1350 1285 1311 1247 1359 1283 1303 1208 1276 1277 1317 1327 1281 1273 1295 1295 1288 1301 1254 1291 1235 1252 1271 1282 1226 1315 1280 1276 1217 1286 1245 1295 1241 1273 1274 1270 1292 1294 1306 1323 1292 1190 1280 1242 1283 1285 1241 1231 1280 1269 1267 1265 1265 1314 1298 1255 1301 1279 1293 1312 1261 1317 1331 1308 1326 1324 1293 1306 1323 1285 1272 1324 1304 1272 1255 1257 1226 1202 1263 1275 1222 1277 1229 1242 1319 1227 1293 1177 1282 1234 1277 1310 1272 1251 1212 1219 1192 1270 1165 1216 1279 1233 1217 1227 1235 1161 1190 1277 1242 1267 1171 1253 1269 1196 1242 1212 1142 1188 1234 1224 1174 1195 1188 1174 1205 1177 1226 1166 1146 1158 1156 1183 1140 1184 1244 1238 1184 1197 1175 1242 1163 1201 1146 1233 1246 1166 1180 1159 1257 1148 1164 1134 1147 1207 1178 1169 1168 1188 1129 1129 1212 1180 1171 1174 1128 1148 1155 1199 1109 1154 1207 1183 1188 1248 1173 1154 1103 1128 1154 1149 1202 1144 1131 1166 1186 1168 1194 1139 1125 1158 1190 1245 1130 1244 1141 1165 1138 1156 1152 1115 1218 1146 1178 1141 1175 1138 1169 1155 1172 1188 1181 1182 1107 1131 1125 1165 1134 1174 1205 1169 1165 1150 1173 1141 1165 1201 1151 1208 1113 1158 1177 1186 1163 1151 1157 1243 1183 1183 1149 1127 1127 1187 1122 1200 1135 1110 1150 1170 1108 1157 1175 1107 1228 1150 1223 1182 1204 1162 1234 1140 1128 1164 1175 1206 1164 1179 1205 1178 1107 1191 1221 1152 1184 1204 1152 1113 1159 1154 1155 1195 1081 1198 1196 1162 1134 1173 1188 1160 1143 1244 1161 1175 1162 1186 1163 1174 1172 1205 1111 1214 1151 1101 1162 1141 1133 1180 1180 1163 1155 1179 1161 1160 1166 1222 1114 1168 1193 1193 1158 1229 1200 1188 1179 1215 1184 1139 1164 1134 1166 1187 1089 1143 1190 1170 1186 1132 1205 1134 1141 1199 1173 1180 1093 1186 1144 1210 1155 1192 1175 1169 1158 1187 1142 1179 1187 1085 1140 1094 1144 1198 1130 1139 1208 1153 1142 1143 1095 1070 1143 1132 1127 1131 1205 1201 1182 1169 1134 1153 1145 1108 1144 1185 1149 1079 1172 1121 1153 1223 1187 1127 1127 1139 1175 1187 1158 1122 1156 1162 1111 1101 1125 1193 1168 1139 1246 1161 1143 1122 1153 1110 1113 1184 1170 1199 1185 1186 1200 1169 1173 1195 1218 1163 1164 1159 1121 1171 1240 1240 1173 1179 1185 1187 1165 1159 1182 1211 1124 1147 1124 1183 1159 1199 1164 1183 1149 1105 1108 1218 1113 1194 1118 1163 1120 1169 1147 1121 1155 1155 1205 1115 1128 1166 1137 1166 1193 1113 1172 1145 1146 1132 1143 1197 1073 1132 1178 1158 1225 1183 1097 1135 1152 1128 1109 1167 1107 1214 1173 1179 1210 1136 1113 1122 1133 1147 1154 1114 1182 1176 1163 1147 1150 1141 1189 1161 1128 1161 1154 1119 1151 1143 1174 1151 1186 1109 1114 1122 1200 1101 1175 1143 1238 1122 1141 1111 1160 1133 1169 1136 1172 1163 1154 1185 1198 1175 1190 1160 1155 1149 1152 1120 1207 1200 1198 1125 1162 1181 1182 1129 1187 1156 1144 1195 1188 1189 1175 1168 1185 1225 1204 1176 1156 1215 1159 1186 1196 1141 1149 1148 1189 1180 1147 1164 1227 1150 1104 1213 1170 1238 1156 1187 1221 1247 1100 1211 1172 1219 1230 1207 1188 1205 1175 1253 1188 1202 1250 1203 1193 1181 1198 1143 1160 1141 1223 1217 1211 1162 1169 1189 1133 1217 1286 1177 1220 1219 1152 1144 1189 1138 1194 1199 1222 1209 1241 1279 1244 1156 1189 1224 1234 1151 1220 1242 1203 1267 1219 1228 1217 1247 1273 1247 1199 1224 1183 1259 1210 1269 1185 1196 1255 1259 1243 1187 1251 1223 1265 1225 1269 1243 1261 1258 1193 1245 1226 1317 1187 1180 1186 1202 1252 1223 1182 1170 1251 1233 1216 1154 1202 1203 1218 1196 1201 1213 1220 1218 1207 1230 1232 1185 1263 1221 1252 1149 1300 1213 1179 1193 1241 1163 1202 1174 1174 1235 1135 1288 1169 1258 1220 1194 1261 1180 1229 1231 1232 1231 1236 1185 1252 1202 1221 1235 1306 1222 1223 1236 1194 1222 1200 1282 1202 1267 1163 1211 1263 1196 1204 1223 1201 1257 1242 1266 1228 1256 1227 1212 1179 1227 1189 1188 1246 1219 1232 1179 1175 1237 1197 1249 1244 1225 1179 1248 1213 1258 1179 1277 1192 1222 1317 1223 1247 1200 1164 1295 1262 1318 1237 1235 1212 1171 1215 1243 1173 1252 1241 1270 1234 1287 1318 1258 1298 1271 1303 1279 1303 1252 1314 1254 1292 1177 1249 1303 1303 1281 1256 1246 1242 1296 1294 1220 1275 1339 1254 1259 1246 1304 1244 1248 1262 1237 1249 1284 1295 1249 1290 1237 1275 1253 1220 1216 1243 1265 1261 1225 1230 1241 1220 1184 1286 1199 1244 1197 1260 1260 1289 1314 1217 1227 1310 1205 1213 1250 1271 1227 1203 1269 1244 1220 1314 1237 1249 1222 1289 1306 1308 1283 1312 1286 1262 1347 1230 1323 1327 1326 1341 1339 1383 1318 1374 1343 1388 1355 1333 1367 1437 1386 1346 1334 1414 1437 1343 1401 1420 1440 1366 1382 1413 1451 1432 1416 1358 1367 1423 1370 1391 1379 1441 1434 1403 1430 1459 1436 1399 1378 1404 1379 1400 1384 1427 1485 1360 1520 1387 1424 1425 1399 1415 1488 1348 1379 1448 1383 1364 1435 1361 1429 1493 1400 1414 1365 1455 1420 1418 1376 1341 1427 1445 1452 1398 1421 1429 1353 1420 1381 1384 1376 1387 1467 1385 1388 1429 1397 1399 1341 1393 1367 1304 1348 1398 1371 1332 1364 1331 1307 1408 1287 1364 1360 1352 1279 1311 1292 1282 1319 1364 1287 1317 1317 1290 1280 1244 1292 1290 1304 1232 1256 1373 1318 1263 1276 1343 1263 1386 1292 1284 1241 1341 1268 1294 1362 1242 1331 1311 1345 1414 1327 1289 1349 1318 1424 1380 1390 1419 1398 1385 1361 1437 1450 1482 1520 1457 1534 1548 1545 1616 1659 1593 1541 1517 1487 1560 1495 1572 1540 1548 1485 1469 1523 1509 1393 1475 1533 1476 1538 1431 1462 1487 1438 1409 1441 1414 1466 1393 1447 1432 1433 1431 1450 1392 1359 1400 1302 1387 1313 1347 1364 1334 1271 1312 1284 1247 1300 1306 1274 1270 1291 1317 1254 1313 1309 1279 1235 1292 1255 1195 1285 1305 1243 1287 1183 1239 1234 1270 1233 1283 1297 1249 1286 1176 1196 1215 1260 1278 1251 1206 1273 1234 1188 1210 1219 1188 1225 1189 1221 1178 1265 1266 1209 1307 1237 1209 1178 1199 1220 1235 1217 1150 1178 1219 1243 1186 1182 1248 1219 1225 1250 1191 1203 1213 1232 1197 1140 1260 1171 1245 1198 1184 1244 1168 1158 1280 1190 1197 1153 1214 1191 1182 1123 1220 1208 1174 1186 1227 1222 1252 1173 1160 1190 1158 1201 1228 1229 1213 1244 1163 1234 1127 1177 1183 1214 1123 1223 1216 1206 1187 1164 1200 1252 1183 1190 1130 1192 1206 1214 1251 1226 1200 1180 1203 1190 1241 1180 1218 1228 1258 1251 1215 1224 1179 1221 1251 1140 1260 1194 1205 1148 1228 1160 1192 1211 1187 1216 1194 1202 1187 1199 1179 1148 1191 1242 1194 1158 1223 1186 1275 1156 1218 1186 1222 1192 1213 1149 1128 1198 1198 1176 1216 1170 1257 1187 1215 1198 1147 1242 1199 1178 1174 1182 1188 1206 1200 1150 1178 1187 1200 1199 1187 1246 1205 1164 1260 1185 1179 1182 1129 1182 1116 1208 1232 1208 1212 1195 1202 1188 1204 1192 1181 1205 1160 1249 1175 1227 1166 1181 1216 1166 1181 1230 1224 1246 1203 1242 1198 1205 1242 1208 1187 1154 1204 1126 1212 1219 1161 1249 1211 1208 1174 1275 1172 1192 1229 1143 1198 1236 1282 1237 1223 1214 1164 1221 1201 1147 1167 1202 1225 1142 1235 1152 1243 1151 1268 1230 1221 1253 1203 1190 1214 1167 1243 1218 1180 1216 1202 1255 1201 1204 1286 1133 1252 1199 1256 1199 1260 1198 1219 1269 1282 1179 1228 1191 1219 1175 1181 1225 1232 1227 1208 1237 1223 1171 1212 1186 1191 1205 1153 1281 1236 1222 1147 1174 1186 1197 1211 1211 1208 1197 1245 1259 1190 1207 1136 1238 1212 1215 1161 1142 1146 1145 1175 1123 1200 1154 1208 1119 1179 1169 1159 1218 1158 1222 1102 1169 1232 1215 1201 1205 1185 1249 1254 1164 1211 1151 1259 1191 1180 1168 1091 1147 1144 1184 1162 1189 1162 1156 1153 1155 1167 1148 1156 1223 1165 1190 1153 1118 1167 1219 1179 1166 1226 1159 1164 1214 1280 1109 1190 1160 1182 1156 1135 1177 1145 1159 1163 1207 1226 1207 1183 1169 1155 1194 1092 1168 1192 1182 1141 1209 1151 1153 1201 1185 1195 1188 1181 1164 1204 1180 1183 1250 1282 1163 1245 1179 1142 1128 1154 1216 1241 1218 1188 1158 1291 1233 1146 1178 1167 1215 1135 1142 1150 1191 1257 1212 1202 1207 1199 1215 1212 1173 1181 1141 1213 1203 1153 1171 1217 1204 1204 1149 1146 1140 1267 1207 1198 1197 1136 1203 1178 1197 1211 1157 1174 1176 1201 1164 1216 1152 1199 1187 1178 1168 1260 1226 1194 1205 1207 1184 1176 1126 1258 1163 1154 1212 1140 1185 1200 1232 1153 1149 1187 1203 1204 1241 1237 1167 1220 1169 1155 1233 1161 1179 1204 1255 1225 1154 1154 1156 1184 1212 1225 1163 1196 1185 1162 1149 1158 1212 1225 1193 1156 1217 1192 1166 1174 1156 1200 1192 1174 1126 1166 1170 1157 1112 1168 1182 1215 1174 1178 1151 1126 1170 1133 1159 1213 1184 1154 1161 1150 1194 1203 1184 1142 1168 1150 1131 1172 1169 1154 1131 1150 1148 1184 1229 1181 1237 1189 1133 1163 1192 1141 1146 1149 1176 1176 1128 1135 1199 1180 1085 1151 1174 1173 1171 1110 1184 1139 1211 1128 1160 1128 1168 1215 1210 1164 1147 1122 1127 1211 1143 1175 1141 1174 1155 1170 1136 1121 1187 1170 1131 1119 1134 1188 1220 1150 1218 1177 1185 1177 1240 1197 1179 1180 1192 1174 1175 1113 1196 1128 1130 1197 1158 1157 1155 1130 1169 1237 1123 1187 1146 1123 1159 1134 1142 1089 1194 1216 1164 1120 1202 1175 1112 1161 1145 1167 1176 1157 1156 1224 1200 1183 1196 1091 1218 1232 1166 1217 1183 1183 1152 1204 1263 1204 1207 1148 1251 1181 1260 1201 1213 1255 1164 1204 1224 1196 1293 1217 1238 1309 1243 1276 1162 1278 1300 1326 1183 1332 1219 1234 1255 1259 1192 1295 1290 1229 1295 1313 1319 1313 1261 1285 1303 1355 1265 1296 1238 1304 1296 1283 1285 1274 1294 1304 1261 1363 1299 1245 1259 1276 1305 1324 1337 1179 1369 1278 1372 1275 1284 1299 1308 1363 1264 1336 1279 1319 1341 1357 1293 1324 1336 1410 1283 1236 1286 1264 1292 1321 1350 1282 1311 1363 1366 1342 1312 1353 1318 1258 1353 1338 1337 1395 1338 1330 1356 1331 1305 1283 1254 1332 1309 1273 1286 1340 1282 1331 1287 1378 1313 1338 1385 1279 1327 1354 1308 1305 1312 1338 1332 1248 1220 1320 1249 1270 1252 1262 1305 1297 1267 1328 1297 1320 1294 1252 1235 1216 1302 1230 1199 1269 1267 1221 1247 1208 1268 1167 1226 1313 1261 1195 1193 1240 1236 1212 1240 1267 1219 1240 1190 1230 1232 1207 1215 1224 1188 1248 1270 1223 1270 1200 1210 1175 1242 1255 1219 1261 1172 1311 1206 1290 1210 1206 1252 1313 1256 1302 1251 1322 1295 1277 1316 1361 1216 1269 1288 1293 1287 1274 1260 1282 1330 1198 1365 1340 1362 1351 1323 1337 1382 1272 1337 1314 1347 1289 1323 1274 1253 1296 1241 1297 1282 1272 1289 1284 1330 1269 1297 1284 1361 1283 1328 1266 1237 1268 1337 1249 1261 1262 1244 1299 1213 1228 1249 1273 1239 1213 1281 1253 1183 1200 1165 1111 1173 1154 1281 1206 1139 1233 1181 1209 1168 1235 1219 1180 1140 1193 1161 1240 1260 1150 1167 1185 1242 1193 1231 1220 1212 1230 1109 1203 1209 1201 1173 1210 1184 1159 1189 1195 1187 1194 1136 1178 1129 1188 1186 1168 1177 1212 1222 1232 1143 1199 1205 1177 1187 1178 1179 1195 1165 1208 1189 1218 1222 1192 1163 1204 1184 1255 1167 1178 1202 1146 1181 1163 1160 1198 1232 1245 1153 1185 1224 1188 1198 1162 1151 1196 1148 1181 1198 1202 1116 1188 1139 1137 1134 1144 1186 1217 1197 1192 1170 1202 1235 1189 1183 1196 1111 1213 1222 1182 1189 1093 1157 1245 1167 1170 1172 1218 1163 1169 1158 1157 1156 1198 1233 1171 1168 1149 1178 1163 1161 1241 1151 1154 1187 1219 1201 1174 1161 1186 1155 1162 1169 1171 1104 1216 1190 1171 1189 1119 1168 1153 1186 1228 1203 1149 1118 1164 1156 1156 1131 1189 1143 1182 1210 1191 1191 1092 1121 1216 1160 1177 1176 1213 1186 1149 1178 1128 1157 1181 1172 1238 1157 1158 1192 1182 1138 1168 1187 1139 1221 1136 1131 1138 1150 1137 1186 1195 1167 1202 1212 1203 1167 1140 1206 1207 1195 1116 1122 1151 1140 1201 1139 1182 1161 1157 1182 1213 1258 1118 1189 1182 1115 1191 1186 1229 1191 1205 1166 1194 1139 1166 1217 1145 1148 1106 1177 1173 1181 1104 1220 1087 1162 1112 1162 1191 1149 1138 1145 1191 1168 1198 1145 1213 1115 1154 1133 1201 1176 1181 1189 1158 1169 1174 1184 1151 1141 1200 1186 1210 1200 1161 1185 1148 1168 1146 1169 1189 1107 1166 1102 1132 1205 1149 1165 1141 1147 1166 1212 1216 1125 1156 1205 1158 1174 1151 1148 1210 1128 1144 1158 1174 1189 1227 1145 1162 1181 1189 1122 1117 1102 1161 1129 1226 1152 1162 1151 1187 1161 1128 1183 1222 1135 1195 1193 1248 1153 1209 1208 1169 1189 1216 1148 1133 1247 1146 1167 1140 1178 1215 1143 1122 1194 1173 1147 1203 1186 1119 1177 1206 1150 1150 1154 1178 1190 1189 1214 1127 1143 1139 1130 1174 1132 1137 1191 1153 1215 1124 1161 1127 1214 1196 1198 1116 1173 1247 1154 1117 1134 1177 1154 1191 1208 1198 1171 1231 1143 1188 1206 1189 1176 1155 1238 1216 1253 1228 1233 1189 1188 1173 1173 1169 1205 1237 1128 1162 1187 1182 1172 1204 1132 1231 1212 1204 1204 1266 1170 1173 1170 1190 1182 1220 1192 1182 1265 1215 1163 1210 1170 1164 1195 1202 1189 1223 1189 1226 1215 1162 1210 1271 1192 1216 1247 1222 1230 1204 1193 1196 1191 1202 1095 1204 1274 1250 1225 1244 1211 1212 1277 1238 1230</counts>
			</dataPoints>
		</scan>
	</xrdMeasurement>
</xrdMeasurements>
