<?xml version="1.0"?>
<xrdMeasurements xmlns="http://www.xrdml.com/XRDMeasurement/2.3" xmlns:xsi="http://www.w3.org/2001/XMLSchema-instance" xsi:schemaLocation="http://www.xrdml.com/XRDMeasurement/2.3 http://www.xrdml.com/XRDMeasurement/2.3/XRDMeasurement.xsd" status="Completed" recordIdentifier="{9CB8180C-8633-4169-ABC4-C87082C18E58}">
	<comment>
		<entry/>
	</comment>
	<sample type="To be analyzed">
		<id>GPSS_Li1p5Mn0p5Y0p25In0p25Cl4_112425_69248ac4f4e53d1f723993c7</id>
		<name></name>
		<preparedBy></preparedBy>
	</sample>
	<xrdMeasurement measurementType="Scan" status="Completed" sampleMode="Reflection">
		<usedWavelength intended="K-Alpha 1">
			<kAlpha1 unit="Angstrom">1.5405980</kAlpha1>
			<kAlpha2 unit="Angstrom">1.5444260</kAlpha2>
			<kBeta unit="Angstrom">1.3922500</kBeta>
			<ratioKAlpha2KAlpha1>0.5000</ratioKAlpha2KAlpha1>
		</usedWavelength>
		<incidentBeamPath>
			<radius unit="mm">145.00</radius>
			<xRayTube id="1010048" name="Empyrean Cu LFF HR (9430 033 7310x)">
				<tension unit="kV">40.0</tension>
				<current unit="mA">15.0</current>
				<anodeMaterial>Cu</anodeMaterial>
				<focus type="Line">
					<length unit="mm">12.0</length>
					<width unit="mm">0.4</width>
					<takeOffAngle unit="deg">6.0</takeOffAngle>
				</focus>
			</xRayTube>
			<sollerSlit id="21010002" name="Soller slits 0.04 rad.">
				<opening unit="rad">0.0400</opening>
			</sollerSlit>
			<mask id="22031000" name="Fixed mask 13 mm">
				<width unit="mm">9.00</width>
			</mask>
			<divergenceSlit id="22120001" name="Divergence slit 1°" xsi:type="fixedDivergenceSlitType">
				<distanceToSample unit="mm">50.00</distanceToSample>
				<height unit="mm">1.52</height>
			</divergenceSlit>
		</incidentBeamPath>
		<sampleMovement xsi:type="spinningSampleMovementType">
			<spinnerRevolutionTime unit="seconds">1.0</spinnerRevolutionTime>
		</sampleMovement>
		<diffractedBeamPath>
			<radius unit="mm">145.00</radius>
			<antiScatterSlit id="22090040" name="AS slit 9 mm (PIXcel)" xsi:type="fixedAntiScatterSlitType">
				<height unit="mm">9.00</height>
			</antiScatterSlit>
			<sollerSlit id="21020003" name="Large Soller slits 0.04 rad.">
				<opening unit="rad">0.0400</opening>
			</sollerSlit>
			<filter id="20030001" name="Large beta-filter Nickel">
				<material>Ni</material>
				<thickness unit="mm">0.020</thickness>
			</filter>
			<detector id="7010019" name="PIXcel1D-Medipix3 detector" xsi:type="rtmsDetectorType">
				<phd unit="keV">
					<lowerLevel>4.02</lowerLevel>
					<upperLevel>11.27</upperLevel>
				</phd>
				<mode>Scanning</mode>
				<activeLength unit="deg">5.542</activeLength>
			</detector>
		</diffractedBeamPath>
		<scan appendNumber="0" mode="Continuous" scanAxis="Gonio" status="Completed">
			<header>
				<startTimeStamp>2025-11-27T08:54:41-08:00</startTimeStamp>
				<endTimeStamp>2025-11-27T09:02:49-08:00</endTimeStamp>
				<author>
					<name>AutomatedUser</name>
				</author>
				<source>
					<applicationSoftware version="1.7b (136)">PANalytical Aeris Instrument Suite</applicationSoftware>
					<instrumentControlSoftware version="3.2.00000000 20240306">AERIS</instrumentControlSoftware>
					<instrumentID>950485</instrumentID>
				</source>
			</header>
			<dataPoints>
				<positions axis="2Theta" unit="deg">
					<startPosition>10.00943322</startPosition>
					<endPosition>99.99442286</endPosition>
				</positions>
				<positions axis="Omega" unit="deg">
					<startPosition>5.00471661</startPosition>
					<endPosition>49.99721143</endPosition>
				</positions>
				<commonCountingTime unit="seconds">12.495</commonCountingTime>
				<counts unit="counts">2855 2962 2850 2964 2890 2945 2828 2906 2864 2798 2864 2903 2852 2953 2827 2868 2873 2932 2893 2952 2962 2964 2976 2828 2916 2981 2977 2906 2988 2906 3006 2966 2965 2956 2953 2868 2942 2885 2909 2950 2903 2950 2979 2932 2823 3053 2889 2833 2969 2875 2973 2935 3045 2985 2967 2929 2893 2954 3022 3029 2991 3059 3017 2969 3053 3003 2913 3042 2938 3072 3084 3085 3100 3031 3030 3013 3222 3059 3097 3009 3062 2971 3080 3074 3109 3070 3074 3070 3148 3126 3014 3035 3082 3157 3143 3095 3094 3165 3077 3093 3141 3117 3164 3082 3165 3007 3170 3041 3043 3095 3057 3017 3050 3043 3022 3052 3124 3166 3153 3248 3089 3268 3151 3079 3078 3137 3184 3157 3060 3056 3149 3250 3137 3178 3079 3166 3125 3092 3064 3036 3106 3190 3092 3212 3199 3218 3265 3168 3150 3029 3049 3134 3072 3157 3279 3131 3064 3128 3186 3089 3157 3169 3161 3114 3208 3066 3181 3109 3181 3161 3149 3128 3118 3221 3319 3233 3136 3120 3178 3154 3158 3135 3146 3159 3215 3126 3055 3094 3063 3117 3057 3061 3192 3095 3051 3028 3204 3065 3116 3080 3121 3067 3237 3155 3153 3107 3179 3229 3095 3141 3099 2962 3108 2979 2996 3075 3122 3099 3106 3117 3042 3075 3112 3074 2954 3085 3117 3028 3045 3038 2986 2987 3046 2974 2958 3056 3077 3005 3006 2987 3107 2993 2966 2945 2984 3035 2995 3075 2973 2941 2950 2982 2973 3016 2864 3005 2906 2981 3095 2973 2964 2896 2859 2906 2994 3019 3081 3023 2983 2916 3044 2907 3042 2853 3109 2993 3014 2966 2990 3090 2997 2961 2939 3007 2884 2936 2985 2908 2932 2890 2990 2930 2921 2846 2821 3010 2902 2984 3042 2878 2980 2822 2958 2943 2892 2987 2909 2976 2942 2974 2928 2870 2929 2995 2898 2984 2953 2957 3005 2957 2966 2932 2895 2968 2930 2995 2983 3044 2928 2954 2904 3065 2973 3008 2927 3051 2883 2957 3032 3114 3042 3028 2995 3082 2949 3087 2995 3049 3026 2993 3064 3089 3122 3096 2963 3101 3114 3130 3065 2975 3114 3116 2989 3182 3092 3115 3117 3087 3196 3164 3101 3159 3069 3045 3139 3080 3215 3123 3193 3132 3145 3233 3167 3161 3150 3260 3204 3308 3184 3163 3266 3241 3279 3291 3415 3100 3322 3246 3448 3476 3372 3600 3529 3609 3694 3698 3748 3743 3915 4029 3784 4041 3859 3978 4007 3915 3991 4068 3986 4004 4132 4122 4230 4289 4087 4268 4186 4321 4242 4149 4209 4118 3994 3999 3947 3988 3847 3822 3741 3826 3772 3620 3681 3704 3585 3640 3541 3522 3520 3562 3553 3640 3568 3442 3588 3530 3515 3539 3439 3514 3444 3550 3403 3610 3375 3495 3401 3451 3424 3396 3391 3269 3321 3225 3239 3250 3324 3316 3247 3205 3145 3200 3056 3274 3263 3156 3126 3324 3176 3168 3104 3187 3172 3231 3115 3182 3195 3223 3187 3035 3173 3033 3151 3168 3115 3163 3135 3151 3209 3174 3212 3186 3176 3133 3198 3140 3251 3231 3242 3212 3257 3289 3279 3214 3365 3356 3231 3288 3250 3336 3302 3223 3284 3279 3246 3256 3141 3220 3182 3237 3250 3178 3228 3123 3118 3149 3143 3072 3015 3057 3048 3068 3001 3078 3150 3070 2995 2996 3090 3040 3104 3202 3041 3038 3043 3043 3015 3087 3032 3077 3052 3045 3145 3112 3101 3142 3023 3123 3028 3119 3089 3040 3105 3125 3105 3045 3089 3119 3127 3115 3047 3075 3033 3075 3101 3011 3005 3142 3049 3031 3094 2929 2910 2965 2946 2927 2876 2933 2974 2887 2821 2846 2912 2952 2807 2939 2844 2814 2796 2891 2873 2869 2872 2851 2823 2842 2768 2827 2821 2881 2895 2809 2770 2801 2747 2840 2845 2821 2856 2840 2831 2815 2726 2772 2706 2816 2811 2845 2742 2718 2829 2786 2838 2850 2726 2809 2755 2855 2870 2922 2838 2787 2885 2895 2893 2840 2821 2844 2996 2827 2928 2945 2779 2870 2982 2865 2811 2862 2808 2831 2722 2897 2853 2833 2853 2707 2876 2786 2759 2814 2929 2762 2769 2864 2697 2673 2713 2764 2794 2724 2794 2707 2657 2805 2623 2713 2788 2692 2721 2717 2788 2700 2734 2656 2627 2645 2730 2683 2654 2721 2724 2614 2669 2640 2641 2642 2674 2627 2662 2660 2538 2815 2661 2681 2687 2615 2656 2634 2729 2659 2689 2596 2623 2615 2685 2631 2656 2712 2603 2699 2711 2702 2708 2608 2728 2516 2667 2711 2685 2702 2739 2624 2729 2755 2679 2737 2813 2814 2702 2684 2810 2902 2723 2748 2822 2795 2781 2742 2827 2709 2810 2704 2792 2754 2752 2716 2748 2694 2718 2718 2704 2691 2650 2706 2686 2735 2689 2760 2782 2615 2626 2692 2499 2663 2650 2641 2666 2678 2689 2654 2689 2674 2667 2675 2577 2642 2671 2527 2586 2622 2584 2681 2613 2522 2542 2598 2543 2640 2537 2590 2596 2518 2593 2487 2638 2568 2553 2606 2471 2501 2533 2546 2573 2570 2472 2538 2449 2623 2502 2509 2456 2556 2520 2495 2547 2551 2541 2533 2515 2474 2612 2502 2555 2541 2461 2498 2526 2495 2488 2447 2561 2560 2367 2615 2454 2586 2395 2448 2467 2492 2562 2503 2564 2495 2518 2521 2454 2552 2483 2503 2447 2436 2459 2460 2424 2441 2499 2468 2514 2531 2519 2435 2504 2504 2458 2443 2506 2424 2437 2366 2599 2524 2543 2451 2354 2550 2355 2450 2510 2483 2487 2400 2395 2371 2446 2420 2468 2469 2327 2505 2437 2503 2382 2464 2433 2401 2528 2468 2483 2494 2428 2459 2475 2417 2343 2411 2313 2384 2456 2420 2334 2342 2444 2445 2389 2368 2372 2467 2431 2355 2369 2412 2338 2408 2325 2396 2347 2309 2343 2352 2434 2309 2383 2471 2394 2352 2434 2420 2375 2348 2356 2445 2426 2348 2461 2454 2334 2326 2354 2340 2411 2358 2417 2386 2422 2303 2387 2302 2426 2350 2338 2384 2372 2288 2386 2296 2470 2387 2395 2325 2323 2343 2382 2359 2421 2353 2427 2374 2350 2434 2351 2343 2362 2302 2322 2293 2317 2373 2424 2419 2375 2439 2393 2312 2367 2331 2451 2418 2405 2403 2376 2499 2344 2415 2383 2434 2335 2372 2447 2475 2368 2448 2444 2525 2587 2449 2412 2465 2457 2405 2451 2426 2509 2512 2484 2509 2598 2479 2518 2475 2493 2529 2472 2501 2462 2448 2432 2416 2426 2437 2437 2427 2381 2344 2441 2528 2418 2472 2400 2349 2393 2330 2451 2486 2338 2408 2394 2435 2390 2408 2363 2349 2444 2341 2331 2388 2287 2284 2368 2308 2265 2284 2328 2356 2286 2348 2246 2272 2267 2367 2339 2348 2313 2288 2350 2316 2375 2215 2359 2251 2187 2217 2279 2229 2295 2359 2285 2240 2252 2199 2262 2180 2235 2204 2281 2277 2144 2209 2226 2198 2139 2230 2190 2182 2235 2249 2267 2242 2180 2180 2244 2237 2178 2181 2208 2215 2277 2103 2145 2090 2168 2072 2215 2160 2149 2121 2190 2062 2119 2171 2114 2159 2152 2131 2164 2189 2204 2100 2074 2052 2010 2166 2080 2094 2091 2128 2104 2038 2094 2101 2030 1970 2111 1992 2066 2234 2050 2044 1979 2062 1977 1968 2039 1972 2018 1992 2074 1923 1909 1998 1949 1982 2015 2027 1988 2068 1913 1935 1979 1992 1970 1973 1925 1911 1952 2012 2006 1885 1974 2007 1994 1884 1960 1972 2022 1908 1817 1912 1989 1992 2022 1934 1843 1931 1942 1895 1937 1891 1895 1943 1874 1844 1905 1924 1849 1855 1847 1845 1809 1807 1894 1849 1874 1836 1835 1917 1772 1735 1752 1842 1747 1849 1864 1816 1886 1792 1744 1795 1798 1767 1911 1803 1812 1772 1770 1834 1781 1772 1732 1696 1735 1654 1757 1729 1771 1767 1744 1815 1742 1752 1763 1755 1638 1695 1737 1747 1730 1765 1730 1649 1721 1700 1747 1697 1711 1692 1727 1674 1740 1761 1729 1743 1618 1765 1727 1788 1674 1744 1685 1737 1705 1667 1753 1739 1743 1657 1743 1707 1692 1708 1702 1627 1711 1713 1745 1730 1656 1736 1692 1666 1771 1741 1707 1755 1714 1624 1765 1761 1755 1699 1721 1671 1744 1747 1697 1714 1723 1649 1744 1776 1812 1734 1728 1711 1737 1772 1853 1750 1707 1727 1790 1806 1850 1688 1774 1758 1752 1733 1768 1669 1726 1796 1806 1688 1683 1793 1688 1723 1703 1672 1675 1710 1774 1821 1758 1716 1734 1677 1762 1746 1736 1722 1759 1676 1659 1643 1763 1698 1746 1750 1784 1693 1690 1662 1688 1729 1777 1702 1697 1807 1712 1769 1645 1719 1582 1707 1698 1724 1745 1745 1656 1719 1811 1583 1687 1664 1682 1711 1660 1718 1650 1712 1722 1676 1676 1695 1785 1713 1720 1709 1597 1709 1748 1750 1643 1742 1723 1713 1657 1726 1736 1656 1715 1722 1666 1661 1720 1734 1691 1706 1751 1711 1775 1711 1664 1694 1654 1694 1665 1706 1682 1724 1694 1650 1706 1736 1684 1695 1626 1589 1707 1609 1642 1622 1689 1656 1744 1675 1698 1705 1656 1678 1643 1694 1639 1692 1629 1648 1584 1629 1538 1659 1662 1611 1552 1592 1679 1618 1534 1604 1643 1653 1603 1580 1593 1565 1594 1579 1713 1655 1626 1611 1563 1581 1604 1566 1505 1579 1546 1526 1531 1532 1631 1508 1527 1606 1475 1560 1587 1602 1680 1627 1592 1638 1550 1533 1470 1506 1510 1506 1548 1568 1485 1539 1530 1553 1526 1539 1444 1461 1487 1496 1505 1556 1472 1493 1442 1502 1488 1406 1444 1517 1502 1527 1528 1492 1535 1432 1510 1504 1490 1486 1486 1530 1529 1511 1502 1561 1498 1624 1511 1606 1591 1579 1553 1628 1547 1622 1568 1588 1617 1559 1605 1662 1646 1647 1565 1680 1640 1605 1603 1603 1631 1667 1694 1702 1583 1666 1588 1682 1597 1710 1709 1672 1743 1743 1719 1704 1656 1686 1765 1628 1672 1682 1639 1735 1731 1733 1670 1740 1682 1682 1657 1675 1596 1674 1726 1626 1584 1559 1598 1536 1586 1540 1516 1469 1423 1478 1450 1427 1432 1554 1480 1486 1436 1443 1578 1450 1528 1490 1473 1434 1469 1441 1426 1385 1428 1415 1457 1538 1392 1433 1409 1424 1358 1359 1398 1329 1351 1357 1262 1321 1241 1306 1236 1268 1325 1353 1296 1367 1212 1321 1274 1356 1290 1324 1326 1292 1337 1387 1378 1489 1421 1413 1428 1474 1398 1453 1445 1412 1501 1464 1443 1482 1528 1517 1465 1580 1478 1510 1534 1475 1543 1531 1558 1545 1502 1611 1652 1619 1731 1686 1782 1804 1758 1792 1788 1788 1890 1734 1878 1790 1806 1866 1937 1916 1922 1865 1945 1866 1869 1909 1859 1758 1675 1780 1730 1640 1609 1649 1684 1536 1548 1524 1468 1478 1501 1478 1488 1419 1465 1375 1408 1373 1480 1438 1406 1430 1491 1557 1424 1504 1423 1483 1406 1401 1465 1377 1453 1404 1390 1349 1327 1286 1265 1250 1247 1271 1198 1204 1181 1264 1238 1184 1208 1163 1152 1099 1196 1199 1169 1148 1113 1210 1166 1192 1201 1163 1176 1158 1158 1141 1165 1207 1149 1099 1122 1105 1148 1073 1071 1102 1038 1165 1156 1091 1179 1107 1147 1063 1102 1050 1066 1031 1086 1094 1087 1060 1135 1136 1039 1058 1053 1065 1015 1053 1083 1054 1126 1070 1021 1085 1006 1077 1018 1064 1086 1047 1050 1048 1128 1055 1051 1063 1032 1096 1032 1076 1097 1072 1089 1015 1083 1036 1039 1063 1033 1089 1025 1038 1098 1105 1038 998 1088 1006 1072 1031 1045 1088 1056 1043 1032 1018 1029 1089 1112 1062 1147 1128 1109 1133 1139 1144 1139 1179 1151 1197 1259 1201 1201 1215 1181 1242 1236 1211 1288 1267 1234 1274 1288 1311 1328 1263 1277 1243 1250 1265 1229 1306 1205 1213 1159 1215 1139 1139 1101 1095 1146 1150 1129 1142 1121 1155 1060 1044 1056 1070 1128 1154 1086 1104 1143 1108 1098 1109 1138 1125 1122 1165 1136 1153 1135 1105 1145 1011 1081 1130 1095 1113 999 1067 1032 1121 1076 1090 1052 1095 1082 1077 1077 1112 1060 1021 1100 1041 1031 1004 1081 1089 1037 987 1062 1054 1104 1036 1033 1037 1080 1035 1057 1030 1036 1051 1089 1060 1081 1016 999 996 1108 1063 1076 1040 1037 1060 1101 991 1023 980 1015 1049 957 1024 1057 1050 1030 1050 1061 988 989 960 1015 983 992 1048 966 973 1023 1031 1030 944 1046 1116 1007 998 955 1050 1009 1089 1033 1025 986 1037 1010 1041 989 972 966 983 950 1058 1031 968 1006 1052 1037 1071 980 1007 1004 1090 1020 1043 980 957 1046 1070 997 1010 1020 981 1021 1025 964 1045 1059 1032 966 1017 1071 1054 1076 1045 1018 1086 1031 1042 1032 1053 1002 1051 1100 1008 1024 1076 1099 1055 1079 1057 1167 1105 1103 1066 1169 1199 1180 1190 1231 1301 1360 1330 1431 1484 1487 1500 1621 1639 1711 1683 1754 1802 1783 1952 2028 1975 2025 2105 2206 2050 2212 2282 2265 2266 2383 2380 2403 2462 2549 2553 2558 2712 2708 2786 2834 2789 2903 2877 2894 2800 2912 2980 2913 2872 2886 2885 2789 2792 2786 2653 2681 2564 2571 2411 2390 2333 2287 2231 2224 2175 1987 1969 1897 1802 1916 1780 1819 1675 1563 1663 1566 1612 1591 1659 1575 1525 1621 1544 1543 1459 1461 1532 1475 1534 1528 1578 1535 1549 1503 1489 1472 1440 1457 1345 1370 1358 1228 1282 1225 1190 1126 1126 1074 1092 1089 1024 1057 999 1044 1017 993 919 899 950 971 994 976 945 996 964 1006 894 950 967 966 977 954 919 953 990 939 965 1001 972 1030 980 993 947 983 942 965 983 892 952 907 916 901 907 894 909 940 968 938 958 956 936 840 860 973 837 928 893 973 937 893 846 942 837 913 916 924 901 847 901 914 906 875 860 872 906 858 901 884 891 884 884 889 875 913 835 879 888 867 868 850 869 872 892 877 889 896 905 842 813 911 894 882 869 828 831 845 913 847 800 851 876 869 898 868 810 835 896 847 871 850 878 850 868 861 848 841 823 845 811 880 847 882 881 851 853 866 826 831 872 862 892 834 816 877 853 856 812 807 776 825 826 880 808 855 853 887 811 834 818 893 826 814 885 872 862 891 855 862 865 872 855 830 870 895 825 860 858 867 863 839 833 836 860 836 891 839 838 852 808 842 798 810 875 834 814 842 846 798 856 848 904 853 818 852 907 863 865 844 820 843 854 876 884 866 912 837 886 919 864 883 908 832 863 896 870 859 869 841 862 839 866 825 803 844 879 854 871 839 853 845 843 833 892 857 914 849 890 830 901 838 874 858 816 834 797 835 867 820 804 835 812 854 859 809 840 797 827 787 829 843 769 842 823 822 812 774 844 784 763 759 841 815 786 816 785 746 791 770 788 745 718 761 770 763 796 759 785 776 787 794 738 752 809 820 841 790 825 766 781 847 782 757 820 776 780 767 763 796 759 797 789 776 774 774 804 805 766 804 781 760 811 758 728 720 765 732 708 767 758 795 739 721 773 720 794 714 740 721 711 749 768 749 729 755 753 796 745 786 779 745 765 697 742 706 742 686 748 743 795 779 743 741 763 718 732 701 702 748 781 770 709 752 715 757 750 711 774 745 756 682 734 769 751 700 719 740 680 705 723 696 737 728 698 750 732 722 749 751 713 737 791 717 682 661 757 693 678 738 772 719 746 734 740 717 718 722 773 735 718 679 724 742 726 719 680 744 719 719 704 721 657 716 742 758 706 752 714 782 700 723 724 738 738 738 702 684 665 692 735 695 738 710 678 699 709 675 744 717 732 710 747 686 733 659 738 703 720 733 720 769 708 701 685 740 697 704 743 711 731 716 733 711 686 746 722 687 691 638 737 696 723 633 751 702 708 711 681 737 710 759 721 697 730 706 723 698 725 736 718 665 707 718 656 759 683 726 714 723 735 750 705 752 698 750 713 725 741 734 712 733 715 700 734 710 667 734 741 733 728 756 712 734 745 740 745 735 781 792 818 782 774 815 815 786 817 892 769 821 862 827 854 816 822 866 866 815 859 867 836 776 805 804 761 760 715 758 737 724 759 699 731 730 697 742 711 672 696 701 652 713 723 707 677 694 702 704 663 667 715 683 733 748 700 676 702 733 726 718 725 684 676 731 703 718 677 667 670 680 729 666 673 675 728 656 684 677 642 728 730 653 695 732 688 695 696 657 695 665 676 662 639 654 636 652 656 714 650 638 638 657 721 670 671 659 649 713 665 734 700 703 658 648 711 687 744 721 703 673 685 695 707 696 680 666 685 700 720 687 678 718 708 666 714 672 653 683 724 735 679 691 731 700 694 741 663 664 710 682 707 689 678 679 669 742 670 700 683 725 731 703 718 730 677 768 753 750 678 709 749 730 728 752 712 724 725 748 697 729 763 742 744 723 759 730 726 699 766 660 691 677 705 708 702 679 709 720 669 720 662 745 735 685 698 695 675 705 664 640 658 669 657 694 654 695 669 717 712 693 667 707 701 684 738 682 650 712 640 699 687 706 678 737 666 672 699 707 684 681 732 686 685 729 653 719 670 708 722 710 704 703 732 727 709 720 763 717 690 715 716 651 744 699 675 696 691 697 743 708 698 669 651 703 739 661 702 663 690 735 644 710 745 659 747 678 689 696 656 735 694 677 685 746 660 686 683 676 686 656 657 731 660 705 660 696 681 679 684 647 659 685 675 695 651 715 757 749 759 715 714 638 667 665 657 657 669 656 714 656 706 727 738 696 738 731 693 658 741 701 716 762 717 749 768 780 724 855 836 800 820 804 881 871 797 876 838 866 845 953 824 861 899 792 896 871 909 840 876 860 853 893 859 874 820 843 866 802 782 812 765 751 752 724 737 797 805 771 737 743 761 745 758 730 763 687 769 740 743 687 725 723 738 720 676 729 723 716 683 715 653 724 662 680 692 674 676 671 723 678 725 674 650 666 655 626 677 639 638 659 673 579 658 676 640 690 607 683 613 666 641 673 684 704 635 676 645 623 650 597 646 631 562 632 657 580 643 555 671 599 630 628 637 609 634 651 646 609 615 621 697 652 629 640 624 593 641 663 627 589 647 565 637 647 627 621 651 651 606 628 619 599 654 607 653 621 605 613 630 649 600 628 625 569 605 601 637 616 601 589 578 588 572 618 588 605 614 689 609 606 658 625 643 598 655 594 655 562 598 629 605 598 591 616 670 607 617 598 585 584 643 563 581 579 585 626 626 614 647 626 616 616 588 651 639 664 623 570 663 604 619 682 646 653 611 685 634 634 631 605 641 659 605 605 635 601 620 581 636 620 686 658 627 640 607 660 612 696 621 597 642 641 624 713 639 590 641 619 614 573 676 600 638 600 674 678 661 620 668 684 562 647 635 598 633 623 588 597 674 594 645 604 650 632 614 640 657 608 638 629 663 596 640 604 632 637 672 633 643 614 614 602 622 580 611 645 633 643 647 591 632 674 653 650 658 632 654 612 665 703 683 684 664 687 652 674 687 654 664 697 687 743 674 743 741 745 761 761 779 783 782 785 864 771 805 865 869 850 862 914 906 823 867 855 820 893 821 907 805 877 878 814 843 824 876 850 816 829 834 790 810 812 757 805 759 814 821 807 818 805 853 827 810 855 894 836 942 962 1001 1000 1029 1060 1040 1146 1177 1256 1319 1284 1248 1363 1461 1422 1532 1579 1532 1686 1726 1624 1694 1693 1688 1741 1665 1739 1681 1703 1662 1595 1556 1517 1546 1431 1502 1378 1426 1315 1269 1196 1217 1122 1173 1047 1094 993 1017 1002 968 963 984 929 936 954 957 925 961 882 928 897 996 977 970 947 941 937 987 982 914 941 924 959 911 863 948 897 910 901 826 843 800 809 792 754 783 788 724 761 749 710 661 681 685 677 614 646 621 674 660 610 695 622 623 647 621 649 640 650 679 620 625 590 674 607 613 653 595 638 621 659 596 608 621 626 580 660 600 656 601 574 578 622 618 606 603 611 618 659 582 602 602 606 599 588 574 615 576 576 611 627 551 624 582 633 582 590 603 601 622 602 640 592 593 582 630 613 619 582 631 583 631 617 602 628 635 622 633 616 640 585 609 671 594 675 667 675 669 668 667 632 654 665 656 617 673 597 647 686 626 616 640 572 624 586 628 611 626 610 592 620 651 640 577 569 547 612 618 648 600 628 631 605 624 626 645 578 609 608 593 599 646 598 579 640 653 657 639 636 671 641 678 678 649 679 648 626 643 659 649 620 680 687 617 653 626 609 664 610 674 607 609 620 572 627 639 602 627 615 583 646 634 612 640 561 599 581 575 586 588 556 576 593 530 550 564 599 597 586 610 591 590 597 608 564 596 591 608 574 578 543 603 595 592 598 585 597 522 604 527 601 574 567 587 523 572 577 580 533 569 558 510 568 543 518 524 556 561 566 567 544 602 570 594 582 570 580 563 528 574 508 596 529 556 597 512 553 530 564 569 562 571 528 543 483 539 589 546 558 540 562 549 532 536 563 526 587 556 567 568 551 525 545 525 555 541 518 582 534 554 514 543 496 548 518 533 536 532 563 562 538 586 538 568 560 555 548 587 608 504 567 518 578 548 509 496 524 541 526 551 516 479 498 533 497 477 468 475 530 525 524 522 547 511 547 567 524 506 524 544 527 514 463 477 493 514 516 476 519 530 543 543 568 506 529 536 494 536 497 502 494 566 486 506 557 505 531 559 538 502 506 509 514 524 485 501 486 550 539 541 518 527 568 487 519 537 540 505 465 530 508 512 536 528 487 526 449 492 528 482 496 491 495 510 543 499 485 488 535 517 476 514 511 532 512 498 497 509 505 512 462 486 485 509 493 518 494 459 563 525 475 475 465 506 463 472 519 499 506 496 445 482 524 465 499 527 511 492 490 506 524 518 513 497 524 468 491 516 537 505 485 534 455 520 424 459 486 463 479 511 470 478 509 501 462 504 503 468 501 470 470 481 490 537 499 484 498 473 503 498 475 497 504 533 480 498 547 498 523 539 476 476 482 466 501 494 498 491 498 453 491 495 460 510 480 458 486 489 499 487 524 540 467 452 499 501 488 493 521 499 490 474 531 483 470 473 469 426 508 541 518 536 488 517 496 528 500 487 495 473 497 515 519 489 461 464 485 498 467 515 474 524 475 551 475 493 503 577 486 502 524 516 467 496 468 444 517 511 488 491 528 495 526 521 532 502 485 509 451 465 451 510 482 515 524 499 468 506 485 474 518 456 490 473 460 464 478 488 501 504 531 498 524 548 502 489 484 475 500 499 493 516 534 507 516 508 489 482 472 488 492 481 483 489 488 484 481 501 478 493 501 484 470 481 441 472 493 502 513 518 486 508 477 511 523 500 464 501 509 482 466 496 494 425 472 475 496 492 506 492 477 496 480 513 491 467 477 496 519 507 464 465 455 469 488 516 447 497 443 500 475 513 498 517 483 502 517 457 491 517 473 504 509 479 519 537 468 521 523 485 513 508 526 487 509 497 487 492 520 562 524 504 496 519 490 492 542 511 502 528 490 494 521 476 510 494 486 500 491 501 453 491 460 518 506 527 450 503 516 460 557 483 502 510 499 460 525 511 488 501 523 469 529 458 527 481 495 544 591 502 562 519 566 550 520 581 553 551 553 556 545 549 552 555 546 524 537 551 559 542 552 511 544 539 539 587 567 526 555 520 504 522 512 469 529 517 514 481 529 511 525 498 490 483 509 512 511 492 479 488 499 509 516 536 485 489 540 494 529 494 560 480 511 479 461 494 510 501 477 516 481 506 515 508 485 492 482 483 512 467 475 503 489 500 477 464 543 504 473 465 471 487 469 444 485 522 481 488 507 517 513 474 489 462 505 507 469 463 471 478 512 504 436 505 495 522 498 498 448 500 480 488 486 504 513 454 506 479 507 494 448 488 485 499 488 490 482 520 502 521 515 475 472 501 508 488 468 522 459 484 467 458 472 473 491 532 485 477 506 524 461 486 447 432 540 484 467 470 521 477 474 495 471 473 506 506 458 469 469 489 500 480 518 491 537 515 506 512 528 500 504 477 523 496 480 509 549 573 541 557 517 516 536 588 552 561 559 542 583 525 572 519 535 591 590 503 510 529 519 553 522 518 552 567 492 512 540 534 528 507 491 560 515 547 527 522 490 474 498 509 498 514 485 549 504 475 541 489 540 544 555 533 559 523 507 503 498 536 571 532 517 614 655 634 579 681 623 675 649 646 708 625 707 641 701 670 670 718 672 677 726 703 754 649 686 630 647 696 624 647 606 639 590 630 581 656 594 597 622 615 560 514 573 533 562 499 569 529 571 571 540 547 531 560 505 553 541 545 580 516 564 522 538 525 523 521 476 510 500 508 480 524 534 436 536 510 526 472 444 487 463 465 489 477 499 441 477 427 438 426 449 432 414 473 445 418 457 418 439 471 457 498 432 444 456 444 422 423 472 456 433 443 436 462 455 439 476 433 460 466 464 452 479 466 468 433 454 491 492 437 418 416 457 409 445 435 433 459 441 462 431 431 466 451 486 494 459 464 478 492 432 449 484 460 434 451 455 447 461 471 470 449 451 445 432 473 486 474 483 427 459 448 431 448 470 446 457 433 443 462 477 467 433 478 487 476 471 482 436 473 501 481 478 471 469 454 495 480 532 502 488 467 483 520 497 488 486 483 482 503 456 497 519 518 503 491 506 499 441 505 492 505 468 545 492 496 475 469 509 457 418 448 463 436 468 486 480 489 410 477 453 460 449 447 456 478 455 429 436 429 513 462 460 453 443 461 431 447 475 444 430 441 482 454 446 384 437 448 429 445 474 424 419 425 427 411 452 436 427 411 450 439 436 443 431 441 422 447 425 434 442 418 454 427 429 426 420 433 439 415 432 408 429 456 442 398 421 425 437 431 434 462 440 424 444 405 395 400 449 426 399 419 442 431 452 404 403 415 435 399 430 406 400 414 424 434 434 400 406 374 413 427 396 450 401 404 393 396 391 398 442 397 403 420 429 436 422 429 432 424 414 425 418 404 427 444 452 389 410 379 410 439 389 416 429 421 366 437 432 456 459 413 408 405 435 409 452 424 394 436 398 427 433 430 444 409 441 384 406 403 444 413 433 432 455 415 437 385 427 436 452 397 453 415 402 425 397 410 398 398 427 423 373 433 423 404 393 403 430 429 419 456 405 407 476 442 430 457 426 435 444 435 425 438 456 430 426 395 415 401 435 424 448 406 460 402 413 400 471 403 397 408 449 406 413 407 412 408 419 374 435 401 417 413 436 421 398 422 410 429 411 438 388 432 405 390 411 405 398 434 413 435 412 396 425 415 394 388 382 402 456 371 414 393 396 397 383 392 422 412 408 410 392 405 415 448 427 405 375 423 403 434 425 443 402 442 396 394 422 382 370 393 365 411 398 443 427 400 417 380 390 431 373 392 430 417 415 416 394 400 376 374 403 420 410 414 419 468 424 439 434 408 429 371 420 402 451 424 423 434 400 404 378 428 416 409 382 417 413 450 403 422 412 412 434 401 430 429 447 443 402 431 391 401 406 430 429 394 447 437 442 387 373 403 349 371 388 420 385 419 406 431 392 437 423 410 417 419 407 413 412 447 412 423 404 416 406 413 424 414 416 398 423 393 426 411 424 414 430 439 454 395 400 415 442 380 441 430 400 428 387 436 444 456 387 434 413 417 417 437 430 392 387 403 412 403 422 380 435 438 447 396 384 413 432 414 384 409 401 447 408 386 435 433 409 432 416 407 394 399 429 444 396 427 405 425 449 457 402 459 398 410 412 449 440 414 454 408 429 413 420 434 411 421 417 440 464 429 429 417 427 415 415 427 417 430 404 406 397 385 378 400 402 394 409 409 449 386 387 406 395 402 400 406 386 425 393 410 379 398 406 454 368 413 380 370 419 405 403 365 401 408 393 386 394 402 374 417 405 425 367 407 400 374 445 417 411 381 418 384 411 391 407 368 387 376 381 353 386 391 387 364 432 412 411 412 383 375 424 387 417 404 423 446 401 409 423 383 432 417 391 390 402 407 407 394 383 387 436 365 404 372 404 412 374 401 406 399 391 419 426 377 428 447 374 399 408 370 454 386 408 376 400 351 388 418 392 360 403 382 416 430 367 404 406 411 414 369 393 413 364 408 385 388 381 381 390 393 408 410 423 432 367 394 349 411 402 408 391 368 411 405 408 418 410 421 382 384 391 404 359 421 439 352 380 388 419 428 393 387 416 396 429 428 366 374 411 403 428 399 392 418 380 382 383 425 413 421 403 397 401 399 417 378 415 392 418 385 404 410 404 401 397 470 427 410 404 411 383 395 432 429 397 393 438 376 430 411 414 412 405 405 413 464 406 427 408 396 376 402 394 427 405 476 412 442 413 455 412 419 429 419 425 394 437 430 471 415 434 415 401 394 457 420 436 414 392 414 418 425 435 463 445 456 451 458 453 463 436 475 436 450 406 429 450 423 480 434 425 440 472 413 415 450 461 450 423 428 456 444 456 420 446 399 449 405 447 429 404 429 437 440 454 427 416 418 434 408 414 407 403 455 383 431 449 431 425 401 383 398 374 433 397 402 403 408 395 455 409 357 449 377 379 378 411 395 436 363 403 424 377 404 452 375 422 352 387 417 452 363 381 420 388 402 371 371 381 362 368 387 401 391 367 406 384 394 371 367 388 396 425 378 380 389 404 402 404 387 372 394 400 397 376 402 401 393 403 380 392 387 404 353 372 404 389 366 435 393 382 369 380 400 430 394 392 390 402 417 419 393 410 382 417 354 397 404 367 390 423 405 401 367 373 377 428 402 378 397 401 410 417 413 391 372 386 406 398 389 386 390 397 377 408 404 350 429 375 402 423 405 407 357 389 377 373 395 352 378 379 409 367 441 383 385 359 392 398 386 393 362 388 406 395 417 390 381 376 378 396 388 396 390 389 374 398 379 362 388 395 356 384 405 397 383 401 375 352 450 374 376 375 352 379 365 375 375 392 405 404 403 370 361 355 366 367 396 401 372 381 394 376 387 400 417 394 411 342 385 381 420 389 349 370 384 359 384 372 407 400 408 367 414 378 395 408 358 408 396 402 385 398 377 393 381 414 386 400 382 376 378 403 417 400 390 379 421 367 405 368 378 362 400 396 359 380 386 392 373 397 384 388 366 420 371 387 397 433 381 407 396 351 404 368 369 357 364 387 417 410 372 363 405 419 412 392 383 369 414 423 391 420 397 401 438 366 391 386 377 402 374 375 401 411 396 371 414 367 402 370 388 386 428 425 384 360 346 374 366 396 395 408 441 381 342 392 398 408 414 376 406 391 409 407 383 412 370 354 363 358 376 401 378 384 388 396 389 420 400 385 376 399 375 366 378 408 381 379 408 379 412 382 370 418 354 380 377 394 366 380 379 366 382 357 357 392 382 378 416 390 405 373 382 428 390 409 400 398 394 386 422 363 372 380 375 376 377 395 395 371 373 391 401 428 389 364 391 384 392 369 373 380 381 416 345 380 373 416 380 420 390 446 398 399 398 392 374 384 373 409 389 392 403 392 412 392 418 393 400 388 365 397 417 404 397 386 392 392 396 382 413 379 399 420 384 395 407 373 368 401 421 364 381 380 388 387 390 367 433 385 369 405 389 383 388 402 382 406 435 369 400 365 395 381 374 383 397 358 391 385 369 382 376 416 413 390 385 420 398 418 408 377 380 388 429 387 404 422 382 381 391 376 387 366 408 355 384 392 334 408 412 408 411 410 394 337 402 387 384 381 391 389 397 390 410 423 356 406 414 397 404 430 413 420 398 373 378 386 386 441 482 415 399 405 373 384 410 389 365 399 374 388 433 410 371 419 364 387 401 400 404 392 375 376 378 405 394 394 412 409 402 407 415 413 381 402 400 374 414 406 422 398 401 454 368 391 354 382 425 419 410 398 388 419 396 435 420 406 403 402 439 407 429 464 430 388 418 387 428 418 396 428 420 406 439 381 398 397 427 426 411 425 406 391 411 386 425 379 434 418 417 400 384 376 398 421 446 398 402 426 382 392 413 413 444 422 409 420 409 411 435 432 461 448 411 424 359 423 435 384 376 395 401 442 372 411 438 430 426 403 416 405 431 417 365 421 382 365 387 363 397 422 373 420 398 408 402 404 414 387 376 392 408 422 403 407 369 400 419 389 428 409 407 424 435 444 375 429 400 379 392 393 388 408 390 392 392 393 405 402 447 403 393 406 420 410 429 402 440 387 423 409 411 414 417 410 382 392 386 380 413 396 398 399 434 428 395 407 412 457 421 424 383 418 413 432 438 407 393 430 395 469 454 431 382 447 445 413 454 453 406 431 430 409 404 444 417 371 423 411 425 378 434 429 423 437 463 481 417 406 428 389 439 408 447 446 455 421 430 397 406 418 404 413 415 429 430 395 459 449 479 426 414 417 438 407 413 454 476 439 412 434 419 424 456 472 410 413 409 404 436 429 430 442 447 455 395 422 434 474 429 449 447 452 470 461 458 450 446 451 466 463 462 455 437 460 445 451 435 467 485 484 443 464 462 537 479 534 473 511 521 461 541 544 558 570 508 526 560 543 509 519 548 548 534 470 496 450 515 523 518 498 523 530 531 523 486 533 525 511 525 529 477 495 519 504 484 482 485 456 478 514 448 475 492 471 464 485 438 415 434 458 495 471 410 490 463 445 441 468 452 408 411 450 453 417 448 389 419 446 410 461 438 361 447 390 403 406 441 394 419 436 387 417 394 408 434 419 424 447 427 407 438 372 387 412 404 393 388 400 403 424 390 398 366 402 379 367 414 382 425 394 429 377 391 386 412 399 373 442 396 434 400 386 430 407 388 421 425 379 395 380 389 367 406 389 394 372 411 379 420 377 430 418 405 386 416 365 393 374 367 423 388 416 388 401 386 428 396 421 386 403 421 445 383 413 385 378 420 356 420 404 435 446 429 382 431 410 389 428 385 450 410 428 402 383 381 431 379 435 407 442 376 372 395 406 413 403 398 457 375 427 408 390 418 394 418 414 412 383 424 402 388 413 440 421 411 418 419 399 405 393 362 425 377 334 390 403 400 369 374 369 406 372 404 395 384 351 375 383 384 400 393 397 400 393 419 377 375 380 389 359 348 374 363 401 353 391 364 398 411 429 360 396 385 373 385 375 357 372 386 356 372 383 379 382 339 357 369 352 382 408 395 343 427 378 394 385 401 373 364 358 388 396 392 347 374 388 398 324 346 423 406 381 384 394 405 388 342 338 402 395 400 384 392 397 374 410 345 386 359 432 365 377 370 405 394 397 382 356 385 357 370 376 376 345 384 388 383 330 395 373 362 373 354 421 355 412 353 338 389 374 376 400 363 336 391 360 372 378 361 403 399 384 354 378 396 364 362 376 380 363 348 366 392 407 353 380 373 382 377 369 394 400 403 390 378 389 372 378 358 355 411 379 391 364 374 403 369 363 363 398 372 382 341 383 381 396 394 367 411 374 365 392 396 381 344 351 380 324 369 376 384 398 376 402 350 377 382 381 381 370 374 360 374 395 372 383 378 352 354 367 355 403 378 352 374 350 362 390 355 366 377 355 369 404 398 353 378 378 377 384 370 414 391 372 384 379 375 382 380 387 406 387 416 346 339 393 354 352 356 421 376 361 390 381 391 382 365 386 372 375 389 419 401 379 377 384 373 372 374 365 366 372 375 379 367 358 348 366 333 360 399 360 368 365 374 366 384 361 365 343 371 380 374 375 396 367 353 393 365 392 369 357 354 392 375 395 389 381 353 421 358 359 361 338 353 362 350 383 357 367 364 376 370 338 416 372 393 350 390 379 383 358 371 372 360 401 363 358 387 390 399 374 351 342 391 398 361 399 329 375 396 367 361 332 366 357 376 373 385 372 363 344 364 352 379 335 344 370 380 356 379 378 373 392 372 385 343 372 349 373 352 386 326 419 373 338 359 381 384 381 387 360 361 402 363 380 413 384 372 411 367 392 379 427 400 401 372 364 392 400 399 393 393 359 355 380 401 392 399 378 370 392 352 390 362 364 390 360 393 375 375 397 363 368 372 401 354 389 401 372 373 351 378 356 356 402 351 331 403 377 416 384 374 358 373 404 358 386 352 394 405 357 371 398 418 345 352 361 375 368 368 343 386 350 378 326 397 347 376 375 363 361 370 399 353 358 385 395 337 378 351 358 395 356 385 386 352 386 362 371 379 387 369 361 386 382 351 363 352 354 363 361 353 390 372 337 376 366 347 379 334 344 402 359 363 367 350 377 378 379 379 351 409 380 396 387 342 387 380 360 403 364 335 349 368 410 379 396 396 377 391 406 390 397 386 375 361 370 366 365 384 429 363 386 370 395 391 401 360 365 382 395 357 421 388 394 366 379 369 395 400 394 399 355 364 389 428 390 398 378 376 389 373 359 381 374 414 401 386 420 419 394 418 405 387 423 358 369 371 379 385 394 332 349 394 385 350 413 372 380 381 346 352 377 355 368 359 399 377 379 358 361 396 305 383 382 364 348 353 366 345 382 386 386 414 404 386 395 369 375 370 374 362 369 374 374 417 391 396 382 393 407 420 372 361 364 380 407 412 413 442 418 368 458 394 451 407 417 429 440 434 430 472 427 450 433 472 420 410 461 410 412 435 413 430 441 417 436 463 407 408 433 446 415 464 417 440 446 479 418 442 399 460 424 447 431 450 430 425 425 406 428 400 448 433 443 401 427 415 407 436 436 423 366 417 413 401 383 400 427 366 386 373 382 401 352 372 387 369 394 366 375 355 375 420 397 387 410 399 379 370 351 382 414 363 357 352 340 344 362 351 401 401 363 362 380 333 347 383 379 357 352 371 341 368 344 361 368 369 396 352 363 316 349 348 388 386 370 402 379 344 377 353 379 346 345 368 343 337 353 339 380 370 377 370 374 361 353 386 352 373 326 363 374 388 322 369 372 354 331 379 351 369 333 333 358 322 389 351 361 342 398 339 354 345 343 391 374 391 380 394 370 354 364 344 391 351 371 396 350 349 347 360 359 389 372 413 382 358 371 364 392 341 356 373 378 365 337 380 374 338 367 328 392 358 367 384 322 355 360 323 364 416 336 354 380 335 366 322 341 374 375 341 364 385 336 388 351 364 356 346 386 376 362 368 329 350 362 339 342 337 352 329 397 374 349 395 361 357 367 363 329 346 375 379 361 342 356 364 387 358 365 359 349 368 338 408 349 365 374 318 359 344 357 379 361 382 368 394 352 345 364 373 362 363 341 334 335 370 352 347 381 357 344 357 369 382 358 357 363 369 334 337 356 358 335 349 350 344 355 345 358 371 348 322 343 336 356 367 382 362 351 351 348 350 378 345 352 365 350 335 343 326 341 381 347 365 344 361 325 355 345 325 382 374 368 366 363 353 374 381 376 391 335 349 325 350 359 316 382 328 337 364 322 365 334 347 393 327 337 344 380 322 373 357 351 318 368 339 368 338 351 357 355 349 329 328 333 330 346 349 336 337 366 338 366 358 351 344 341 317 366 333 343 325 303 349 349 334 332 342 341 340 354 348 337 343 390 340 335 353 344 341 334 326 390 330 345 316 326 361 354 329 340 345 366 348 358 367 342 340 363 377 343 344 340 348 311 338 342 378 337 321 346 320 341 327 342 379 373 338 322 323 386 346 324 289 310 371 346 389 328 359 335 348 329 386 332 331 328 352 342 329 313 339 328 348 372 358 341 366 336 332 361 352 350 348 350 313 339 326 347 376 361 350 364 364 336 344 350 353 315 372 315 297 366 339 308 348 367 331 351 338 338 396 365 348 322 346 377 329 374 352 343 357 352 355 376 316 345 347 346 351 350 347 352 368 366 344 389 332 410 353 367 342 349 360 340 363 349 353 343 368 365 354 352 395 347 366 339 354 342 334 351 350 339 351 359 371 378 339 323 363 338 385 370 380 336 395 334 330 338 327 339 353 347 341 317 324 342 348 335 334 368 362 364 361 333 350 358 347 369 362 325 312 375 379 358 335 349 371 406 349 357 373 354 329 367 386 358 367 352 350 370 331 326 356 331 338 348 366 355 361 392 368 358 372 385 390 370 401 381 393 343 350 349 362 341 360 315 344 344 365 384 376 396 361 353 349 352 348 360 373 367 378 385 336 349 415 349 391 371 355 348 356 310 364 349 350 370 336 336 376 327 351 363 311 348 342 326 343 337 332 380 363 353 367 301 341 357 357 358 330 345 360 351 386 358 338 351 346 376 345 339 358 350 335 386 395 362 347 387 360 354 340 338 338 347 371 355 335 346 350 341 325 327 341 356 352 336 346 327 342 335 306 315 375 337 342 355 335</counts>
			</dataPoints>
		</scan>
	</xrdMeasurement>
</xrdMeasurements>
