<?xml version="1.0"?>
<xrdMeasurements xmlns="http://www.xrdml.com/XRDMeasurement/2.3" xmlns:xsi="http://www.w3.org/2001/XMLSchema-instance" xsi:schemaLocation="http://www.xrdml.com/XRDMeasurement/2.3 http://www.xrdml.com/XRDMeasurement/2.3/XRDMeasurement.xsd" status="Completed" recordIdentifier="{5BC761E4-6B37-4BE0-BF7B-77DE8CE0E12F}">
	<comment>
		<entry/>
	</comment>
	<sample type="To be analyzed">
		<id>GPSS_Li1p5Fe0p5Cr0p5Cl4_110425_690ab64ff040177efa2b5feb</id>
		<name></name>
		<preparedBy></preparedBy>
	</sample>
	<xrdMeasurement measurementType="Scan" status="Completed" sampleMode="Reflection">
		<usedWavelength intended="K-Alpha 1">
			<kAlpha1 unit="Angstrom">1.5405980</kAlpha1>
			<kAlpha2 unit="Angstrom">1.5444260</kAlpha2>
			<kBeta unit="Angstrom">1.3922500</kBeta>
			<ratioKAlpha2KAlpha1>0.5000</ratioKAlpha2KAlpha1>
		</usedWavelength>
		<incidentBeamPath>
			<radius unit="mm">145.00</radius>
			<xRayTube id="1010048" name="Empyrean Cu LFF HR (9430 033 7310x)">
				<tension unit="kV">40.0</tension>
				<current unit="mA">15.0</current>
				<anodeMaterial>Cu</anodeMaterial>
				<focus type="Line">
					<length unit="mm">12.0</length>
					<width unit="mm">0.4</width>
					<takeOffAngle unit="deg">6.0</takeOffAngle>
				</focus>
			</xRayTube>
			<sollerSlit id="21010002" name="Soller slits 0.04 rad.">
				<opening unit="rad">0.0400</opening>
			</sollerSlit>
			<mask id="22031000" name="Fixed mask 13 mm">
				<width unit="mm">9.00</width>
			</mask>
			<divergenceSlit id="22120001" name="Divergence slit 1°" xsi:type="fixedDivergenceSlitType">
				<distanceToSample unit="mm">50.00</distanceToSample>
				<height unit="mm">1.52</height>
			</divergenceSlit>
		</incidentBeamPath>
		<sampleMovement xsi:type="spinningSampleMovementType">
			<spinnerRevolutionTime unit="seconds">1.0</spinnerRevolutionTime>
		</sampleMovement>
		<diffractedBeamPath>
			<radius unit="mm">145.00</radius>
			<antiScatterSlit id="22090040" name="AS slit 9 mm (PIXcel)" xsi:type="fixedAntiScatterSlitType">
				<height unit="mm">9.00</height>
			</antiScatterSlit>
			<sollerSlit id="21020003" name="Large Soller slits 0.04 rad.">
				<opening unit="rad">0.0400</opening>
			</sollerSlit>
			<filter id="20030001" name="Large beta-filter Nickel">
				<material>Ni</material>
				<thickness unit="mm">0.020</thickness>
			</filter>
			<detector id="7010019" name="PIXcel1D-Medipix3 detector" xsi:type="rtmsDetectorType">
				<phd unit="keV">
					<lowerLevel>4.02</lowerLevel>
					<upperLevel>11.27</upperLevel>
				</phd>
				<mode>Scanning</mode>
				<activeLength unit="deg">5.542</activeLength>
			</detector>
		</diffractedBeamPath>
		<scan appendNumber="0" mode="Continuous" scanAxis="Gonio" status="Completed">
			<header>
				<startTimeStamp>2025-11-07T10:50:53-08:00</startTimeStamp>
				<endTimeStamp>2025-11-07T10:59:00-08:00</endTimeStamp>
				<author>
					<name>AutomatedUser</name>
				</author>
				<source>
					<applicationSoftware version="1.7b (136)">PANalytical Aeris Instrument Suite</applicationSoftware>
					<instrumentControlSoftware version="3.2.00000000 20240306">AERIS</instrumentControlSoftware>
					<instrumentID>950485</instrumentID>
				</source>
			</header>
			<dataPoints>
				<positions axis="2Theta" unit="deg">
					<startPosition>10.00943322</startPosition>
					<endPosition>99.99442286</endPosition>
				</positions>
				<positions axis="Omega" unit="deg">
					<startPosition>5.00471661</startPosition>
					<endPosition>49.99721143</endPosition>
				</positions>
				<commonCountingTime unit="seconds">12.495</commonCountingTime>
				<counts unit="counts">2949 2935 2899 2925 2906 2886 2943 2970 2950 2940 2867 2859 2907 2929 2939 2979 2862 2830 2828 2919 2953 2824 2824 2930 2953 2859 2830 2996 2878 2944 3009 2914 2902 2956 2856 2969 2934 2953 2902 2958 2871 2926 3027 2897 2992 2942 2950 3096 2914 3017 2999 3105 3046 3021 3088 2931 2896 3052 2918 3020 2970 3117 3006 2980 3093 3028 3109 2986 3047 3054 3129 3125 3101 3059 3141 3030 3141 3147 3113 3111 3142 3161 3063 3050 3142 3135 3115 3079 3058 3145 3259 3073 3110 3276 3136 3111 3034 3166 3194 3029 3062 3229 2988 3145 3114 3087 3233 3159 3102 3060 3073 3141 3066 3034 3188 3091 3064 3188 3185 3153 3159 3101 3214 3120 3091 3202 3090 3100 3105 3039 3012 3162 3027 3128 3110 3175 3071 3189 3135 3114 3080 3116 3053 2976 3149 3180 3079 3030 3084 3057 3059 3046 3076 3155 3038 3116 3061 3132 2983 3146 3081 3054 3130 3087 3052 3182 3175 3092 3127 3063 3139 3173 3083 3067 3071 3087 3114 3026 3035 3050 3160 3029 3202 3114 3114 3181 3107 3137 3057 3142 3084 3052 3204 3008 3156 3150 3198 3134 3040 3173 3050 2928 3079 3099 3095 3125 3143 3180 3116 3078 3137 3139 3070 3132 3052 3103 3135 3173 3028 3103 3191 3152 3175 3043 3067 3152 3060 3100 3033 3086 3102 3138 3049 2975 3108 3011 3033 3044 2959 3126 3066 3112 3214 3031 3026 3092 3040 3032 3063 3101 3015 3014 3120 2912 3044 3059 3175 3033 3198 3020 3052 3061 2997 3114 3015 3040 3120 3089 3118 3113 3149 3106 3048 3099 3153 3039 3115 3101 3048 3009 3067 3108 3059 3042 3190 3069 3141 3094 3069 3180 3147 3071 3028 3147 3155 3062 3207 3145 3249 3149 3084 3071 3162 3093 3174 3109 3149 3228 3136 3155 3194 3239 3198 3131 3275 3134 3163 3190 3135 3165 3234 3171 3232 3228 3150 3173 3220 3346 3206 3136 3174 3192 3228 3208 3168 3259 3247 3298 3236 3301 3318 3290 3211 3258 3255 3346 3279 3300 3285 3335 3379 3292 3301 3336 3407 3466 3360 3293 3299 3406 3484 3391 3491 3426 3447 3406 3450 3369 3495 3495 3573 3484 3483 3448 3465 3406 3472 3545 3551 3445 3482 3447 3386 3492 3611 3503 3529 3531 3611 3539 3487 3528 3534 3563 3540 3560 3582 3602 3666 3713 3583 3585 3577 3561 3627 3651 3554 3634 3708 3731 3646 3694 3673 3715 3740 3610 3770 3583 3729 3687 3855 3769 3820 3856 3760 3861 3995 3862 3896 3869 3958 4003 4041 3936 3971 4130 4040 4244 4212 4270 4255 4334 4436 4461 4584 4671 4631 4777 4723 4995 4958 4938 5131 5273 5354 5155 5396 5449 5379 5576 5684 5743 5656 5706 5703 5908 5956 5975 6035 6243 6290 6253 6434 6488 6755 6804 6860 7029 7073 7173 7197 7269 7286 7415 7603 7647 7812 7880 7913 7901 8043 7898 7839 7840 7544 7641 7383 7369 7228 6940 6939 6827 6718 6555 6481 6363 6204 6283 5954 5841 5745 5631 5767 5650 5571 5319 5415 5363 5349 5080 5083 5116 5066 5045 4962 4868 4765 4573 4793 4539 4358 4241 4126 3988 3901 3902 3852 3691 3645 3647 3675 3599 3600 3656 3528 3526 3629 3562 3523 3478 3475 3504 3520 3547 3428 3472 3412 3467 3517 3493 3461 3361 3457 3355 3306 3372 3349 3451 3384 3304 3326 3297 3348 3325 3358 3373 3502 3415 3361 3424 3352 3343 3315 3296 3281 3308 3347 3398 3434 3373 3444 3320 3244 3367 3283 3279 3312 3311 3303 3301 3338 3216 3274 3291 3224 3224 3207 3191 3367 3233 3209 3287 3188 3383 3175 3147 3220 3141 3366 3238 3290 3270 3259 3177 3324 3193 3195 3236 3291 3184 3189 3257 3171 3338 3183 3314 3141 3087 3243 3250 3234 3286 3261 3267 3278 3111 3239 3220 3223 3257 3251 3297 3352 3363 3246 3354 3310 3377 3387 3326 3310 3336 3496 3489 3493 3455 3483 3359 3453 3499 3455 3422 3506 3488 3401 3543 3533 3461 3467 3457 3543 3441 3540 3437 3499 3532 3447 3439 3585 3515 3374 3347 3444 3405 3419 3448 3396 3385 3414 3430 3355 3395 3402 3362 3329 3423 3223 3352 3333 3311 3246 3178 3192 3396 3225 3232 3183 3252 3232 3162 3321 3174 3254 3169 3168 3165 3038 3241 3169 3130 3153 3142 3144 3138 3161 3174 3101 3167 3200 3094 3159 3174 3209 3162 3131 3162 3052 3200 3092 3176 3181 3235 3157 3252 3160 3171 3073 3187 3187 3199 3158 3157 3120 3239 3079 3179 3217 3164 3126 3189 3098 3154 3084 3141 3189 3014 3163 3134 3251 3113 3131 3105 3218 3104 3067 3149 3192 3175 3054 3077 3089 3081 3009 3136 3130 3034 3114 3121 3036 3073 3016 3238 3077 3064 3122 3036 3021 3162 3040 3085 3001 3041 3115 3071 3070 3065 3064 3008 2995 3066 3017 2981 3092 3098 3146 3102 3104 3059 3067 3053 2961 3108 3103 3066 3067 3141 3074 3011 2983 3069 3035 3045 3007 3076 3048 2994 3013 2901 3026 3042 2938 3072 3059 3036 3019 2970 3046 3066 3013 3049 3065 3008 2947 3035 3064 2888 2987 3031 2891 2923 2929 3058 2888 2922 2980 3097 3060 2927 3014 2975 3057 2946 2889 2938 3029 2978 2994 3020 3012 2980 2939 3007 2974 2978 2945 2993 3028 2940 2980 2934 2934 3019 3034 3016 2896 2912 2930 3010 3024 3032 2896 3094 3023 2953 3018 2854 2976 2887 2912 2982 2872 2868 2946 2927 3026 2934 3005 2926 2976 2859 2920 2815 2958 2898 2970 2897 2960 2917 2983 2867 2986 2963 2846 2976 2868 2873 2929 2981 2927 2971 2990 2894 2858 2990 2860 2879 2971 2900 2985 2832 2974 2906 2972 2875 2879 2861 2864 2935 2824 2872 2877 2963 2852 2930 2938 2887 2924 2930 2899 2893 2911 2905 2862 2856 2748 2916 2993 2887 2920 2874 2902 2898 2955 2877 2890 2979 2945 2912 2803 2896 2765 2825 2889 2900 2964 2689 2835 2907 2796 2929 2835 2765 2821 2888 2951 2877 2890 2873 2829 2937 2918 2877 2969 2860 2848 2887 2840 2896 2895 2880 2859 2826 2888 2843 2867 2894 2848 2936 2862 2944 3027 2868 2836 2890 2847 2738 2872 2936 2949 2928 2824 3080 2885 2955 2863 2847 2868 2938 2844 2848 2987 2768 2903 2961 2978 2869 2877 2903 2830 2939 2924 2916 2915 2851 2924 2870 2939 2934 2915 2957 2864 2942 2822 2770 2895 2899 2904 2896 3023 2999 2869 2900 3044 2846 2853 2956 2933 2852 2936 2849 2812 2894 2844 2871 2924 2844 2921 2928 2826 2908 2896 2782 2858 2872 2926 2888 2933 2943 2971 2875 2906 2902 2916 2850 2837 2852 2928 2852 2828 2814 2916 2931 2826 2835 2869 2818 2932 2814 2842 2857 2797 2806 2835 2710 2921 2800 2957 2747 2723 2872 2789 2861 2777 2697 2761 2804 2719 2790 2728 2755 2767 2744 2846 2859 2680 2839 2801 2728 2765 2759 2836 2767 2737 2712 2722 2717 2730 2752 2767 2667 2685 2730 2773 2764 2665 2696 2614 2649 2776 2723 2623 2738 2694 2590 2635 2600 2667 2565 2587 2702 2661 2670 2645 2605 2599 2677 2634 2558 2639 2595 2611 2562 2539 2594 2577 2533 2578 2493 2581 2543 2552 2602 2557 2625 2544 2485 2617 2553 2557 2542 2615 2530 2553 2502 2506 2480 2537 2560 2531 2532 2616 2465 2452 2441 2465 2477 2493 2430 2347 2386 2425 2442 2406 2503 2424 2436 2392 2405 2418 2439 2410 2417 2323 2526 2399 2412 2360 2515 2457 2318 2434 2440 2395 2466 2336 2501 2342 2461 2325 2371 2322 2337 2427 2443 2300 2352 2392 2381 2381 2302 2338 2333 2374 2399 2332 2300 2259 2347 2349 2343 2291 2366 2361 2346 2306 2368 2334 2494 2387 2458 2359 2282 2456 2364 2385 2416 2353 2385 2359 2338 2392 2284 2403 2410 2418 2299 2432 2497 2476 2384 2433 2321 2429 2378 2569 2421 2423 2532 2376 2472 2523 2430 2496 2592 2462 2532 2486 2539 2448 2545 2466 2493 2566 2478 2402 2397 2370 2456 2499 2457 2487 2422 2496 2377 2375 2443 2342 2534 2357 2424 2334 2449 2373 2384 2404 2370 2416 2319 2272 2397 2306 2279 2282 2335 2286 2306 2352 2303 2228 2279 2314 2222 2317 2210 2214 2223 2230 2258 2167 2265 2251 2203 2233 2197 2265 2209 2183 2143 2245 2223 2244 2239 2259 2183 2336 2251 2172 2269 2284 2318 2234 2277 2238 2311 2303 2302 2238 2248 2263 2280 2181 2289 2307 2253 2265 2263 2172 2275 2337 2215 2298 2251 2223 2264 2298 2271 2125 2277 2238 2284 2289 2288 2217 2233 2302 2254 2199 2278 2225 2338 2255 2282 2284 2214 2290 2319 2206 2323 2232 2265 2198 2210 2172 2249 2205 2332 2227 2233 2295 2279 2178 2265 2204 2255 2186 2240 2291 2269 2354 2268 2228 2197 2245 2239 2222 2300 2111 2275 2218 2280 2219 2256 2256 2235 2290 2274 2246 2198 2333 2190 2184 2232 2183 2196 2332 2275 2269 2239 2245 2251 2318 2279 2316 2242 2261 2191 2142 2191 2286 2260 2299 2177 2209 2206 2165 2223 2166 2222 2263 2221 2200 2132 2212 2197 2194 2247 2230 2246 2164 2079 2202 2203 2224 2240 2277 2123 2130 2153 2200 2213 2178 2222 2180 2174 2139 2118 2174 2088 2138 2156 2111 2156 2053 2118 2207 2109 2182 2116 2086 2058 2119 2139 2057 2063 2087 2112 2102 2148 2113 2078 2092 2151 2109 2037 2091 2029 2112 2051 2094 2002 2029 2071 2084 2027 1985 1988 2049 2069 1998 2050 1980 1997 2026 1915 1966 2055 2034 2045 2005 2031 1956 2094 2024 1998 1942 1882 1944 2055 1934 1988 2003 1997 1984 2025 1963 1981 1989 1982 1907 2046 2004 1969 1962 1966 1983 2056 1999 1952 2022 1951 1870 1967 1922 1945 2038 1945 1953 1875 1836 1876 1956 1968 1947 1983 1940 1908 2007 1928 1839 1973 1937 1935 1835 1877 1904 1889 1868 1987 1938 1890 1882 1974 1906 1909 1876 1924 1946 1836 1887 1898 1913 1892 1906 1901 1965 1953 1986 2021 1918 1976 1957 1953 2052 1930 2031 1938 1962 2057 2002 2046 2031 2027 2031 2012 2063 2122 2073 2088 2172 2071 2188 2183 2201 2229 2225 2220 2224 2258 2267 2260 2323 2446 2357 2325 2291 2289 2325 2388 2400 2361 2226 2362 2470 2376 2427 2393 2270 2314 2393 2256 2334 2363 2408 2377 2267 2359 2323 2348 2202 2257 2308 2261 2171 2136 2204 2149 2180 2164 2139 2222 2111 2151 2066 2195 1949 2011 2016 2033 1966 2035 1975 1947 1921 1931 1907 1848 1927 1852 1845 1845 1895 1818 1757 1857 1830 1855 1756 1779 1787 1842 1848 1867 1861 1922 1852 1775 1801 1871 1839 1814 1822 1847 1902 1784 1953 1908 1924 1784 1874 1880 1942 1839 1935 1908 1987 2116 1971 2070 2056 2030 2181 2278 2316 2243 2289 2351 2507 2504 2562 2672 2749 2741 2838 3094 2985 3064 3085 3207 3279 3356 3403 3358 3335 3494 3521 3424 3545 3351 3542 3597 3583 3462 3467 3411 3506 3501 3428 3473 3355 3450 3379 3347 3305 3401 3341 3346 3281 3227 3216 3299 3118 3188 3140 3139 3085 3073 2966 2955 2959 2938 2861 2860 2659 2655 2605 2575 2450 2482 2341 2335 2234 2258 2219 2080 2142 2121 2116 1988 2117 2027 2060 2058 2011 2112 2160 2142 2180 2187 2192 2277 2241 2254 2300 2313 2305 2223 2307 2213 2241 2140 2183 2221 2207 2233 2041 2123 2018 1999 1905 1982 1966 1891 1964 1833 1939 1907 1900 1931 2057 1925 2003 1924 1945 1846 1963 1933 1980 1799 1853 1741 1883 1717 1771 1708 1714 1779 1736 1716 1624 1589 1664 1703 1713 1686 1655 1653 1607 1614 1630 1592 1614 1641 1582 1682 1620 1582 1677 1658 1628 1594 1663 1645 1642 1637 1650 1688 1641 1643 1616 1547 1698 1503 1629 1614 1651 1635 1732 1642 1642 1663 1563 1637 1672 1588 1628 1613 1662 1661 1605 1516 1687 1649 1621 1630 1571 1693 1648 1620 1576 1635 1659 1589 1639 1634 1620 1643 1518 1597 1609 1655 1578 1610 1670 1620 1551 1504 1578 1661 1581 1557 1611 1532 1612 1529 1626 1609 1541 1551 1614 1514 1560 1599 1565 1483 1552 1615 1577 1623 1558 1545 1571 1559 1642 1571 1601 1579 1519 1531 1555 1593 1641 1530 1585 1560 1567 1543 1564 1566 1523 1515 1559 1593 1609 1542 1594 1565 1567 1595 1557 1551 1581 1527 1520 1595 1524 1537 1528 1608 1569 1552 1537 1506 1568 1595 1585 1494 1494 1541 1594 1577 1553 1527 1529 1605 1543 1558 1558 1482 1507 1498 1501 1490 1503 1475 1472 1555 1532 1564 1494 1528 1546 1543 1592 1585 1522 1522 1519 1558 1526 1529 1506 1536 1523 1507 1489 1490 1542 1508 1517 1577 1462 1559 1539 1516 1531 1536 1546 1565 1532 1618 1594 1583 1572 1583 1470 1576 1506 1602 1556 1526 1558 1524 1584 1513 1571 1538 1555 1465 1603 1533 1600 1659 1588 1591 1564 1536 1567 1508 1554 1560 1608 1574 1592 1624 1588 1573 1623 1638 1606 1570 1653 1645 1611 1587 1663 1596 1685 1589 1606 1610 1659 1618 1602 1542 1703 1576 1609 1588 1566 1585 1626 1637 1635 1662 1721 1624 1607 1675 1625 1699 1713 1666 1752 1724 1682 1729 1764 1727 1807 1745 1721 1790 1847 1890 1806 1942 1933 1976 2079 2114 2116 2159 2251 2288 2309 2297 2469 2600 2518 2630 2640 2706 2767 2860 2952 2990 3197 3276 3394 3488 3676 3880 3950 4145 4284 4389 4694 4739 5045 5060 5202 5263 5367 5494 5522 5656 5822 5946 5989 5995 5886 5834 5805 5753 5704 5898 5607 5460 5507 5504 5564 5283 5233 5253 5223 5253 5042 5107 4904 5000 4773 4926 4737 4704 4647 4554 4325 4366 4332 4025 4012 3824 3691 3701 3376 3403 3174 3102 2974 2932 2812 2709 2747 2480 2527 2392 2297 2290 2257 2139 2185 2108 2037 1995 1971 1865 1922 1845 1914 1838 1821 1781 1820 1769 1701 1745 1699 1712 1723 1727 1740 1769 1716 1777 1730 1687 1715 1695 1683 1656 1644 1690 1709 1611 1646 1683 1618 1635 1634 1613 1582 1569 1575 1597 1606 1554 1621 1650 1643 1702 1662 1694 1749 1631 1585 1575 1633 1650 1634 1646 1689 1618 1653 1694 1631 1675 1532 1650 1634 1670 1631 1616 1648 1664 1686 1639 1718 1654 1800 1673 1660 1780 1664 1764 1760 1691 1778 1728 1755 1752 1749 1697 1670 1792 1695 1729 1712 1811 1710 1716 1747 1693 1679 1679 1783 1746 1723 1736 1645 1750 1693 1624 1662 1635 1655 1621 1674 1676 1686 1558 1578 1576 1569 1710 1628 1585 1617 1568 1593 1537 1598 1571 1596 1633 1596 1626 1609 1588 1532 1516 1577 1553 1533 1545 1427 1546 1500 1495 1524 1454 1570 1533 1499 1482 1509 1564 1472 1480 1453 1501 1530 1497 1498 1509 1564 1517 1468 1462 1460 1486 1501 1466 1479 1527 1456 1461 1451 1514 1506 1527 1408 1481 1474 1396 1446 1458 1411 1485 1485 1430 1464 1429 1501 1508 1458 1420 1432 1525 1501 1445 1422 1501 1483 1455 1421 1394 1428 1537 1463 1425 1505 1474 1415 1475 1517 1467 1468 1410 1503 1521 1502 1451 1530 1411 1464 1414 1498 1497 1445 1423 1515 1490 1478 1471 1495 1485 1547 1467 1552 1502 1482 1480 1530 1483 1603 1460 1543 1591 1524 1481 1550 1547 1597 1527 1500 1537 1508 1495 1550 1484 1468 1505 1524 1538 1584 1550 1481 1617 1565 1450 1488 1490 1529 1574 1474 1499 1447 1508 1516 1492 1537 1508 1434 1392 1494 1518 1414 1501 1475 1484 1521 1460 1484 1491 1435 1425 1496 1513 1462 1398 1497 1463 1463 1477 1431 1406 1442 1403 1391 1500 1477 1488 1422 1344 1355 1419 1469 1456 1465 1465 1506 1555 1464 1501 1472 1475 1461 1553 1439 1465 1499 1508 1490 1466 1479 1453 1538 1496 1528 1522 1556 1535 1590 1501 1487 1474 1542 1505 1500 1543 1562 1507 1490 1536 1505 1517 1518 1557 1603 1493 1489 1487 1523 1525 1497 1555 1476 1488 1429 1417 1441 1477 1455 1440 1538 1526 1500 1412 1405 1486 1479 1527 1480 1455 1478 1514 1359 1371 1433 1408 1373 1400 1369 1391 1433 1432 1415 1411 1434 1426 1431 1332 1414 1366 1351 1447 1379 1358 1426 1449 1401 1386 1402 1337 1394 1334 1331 1402 1347 1404 1354 1355 1346 1373 1310 1387 1423 1425 1427 1360 1416 1407 1354 1416 1349 1382 1380 1351 1370 1439 1432 1345 1373 1441 1400 1378 1401 1349 1402 1335 1412 1373 1330 1403 1367 1345 1378 1406 1351 1342 1364 1343 1350 1369 1391 1360 1410 1418 1356 1362 1421 1333 1376 1351 1352 1361 1340 1366 1462 1386 1371 1353 1335 1311 1400 1359 1359 1350 1410 1385 1397 1355 1362 1385 1382 1457 1417 1360 1342 1396 1308 1419 1417 1350 1338 1333 1379 1357 1383 1343 1342 1353 1318 1345 1411 1377 1451 1342 1373 1356 1333 1426 1325 1386 1427 1382 1327 1340 1395 1420 1341 1324 1407 1403 1380 1406 1370 1343 1341 1363 1416 1394 1350 1383 1343 1414 1349 1414 1348 1329 1368 1352 1369 1392 1366 1362 1291 1353 1348 1311 1349 1353 1333 1384 1392 1331 1329 1378 1396 1347 1371 1406 1350 1352 1358 1364 1356 1415 1375 1374 1391 1357 1337 1402 1356 1364 1334 1400 1389 1381 1401 1408 1375 1396 1335 1392 1373 1381 1421 1344 1393 1425 1321 1317 1305 1345 1451 1362 1340 1402 1420 1374 1327 1379 1359 1313 1375 1391 1379 1344 1348 1301 1357 1395 1271 1355 1398 1407 1378 1411 1331 1367 1300 1442 1315 1359 1397 1405 1380 1285 1323 1405 1356 1356 1328 1323 1362 1352 1400 1378 1398 1361 1330 1368 1385 1318 1380 1344 1383 1421 1362 1305 1352 1332 1328 1355 1347 1327 1382 1327 1383 1362 1424 1396 1424 1423 1331 1374 1416 1386 1324 1393 1414 1397 1338 1340 1372 1434 1378 1444 1409 1477 1427 1455 1448 1356 1431 1531 1426 1477 1457 1480 1407 1398 1437 1433 1429 1356 1392 1388 1417 1439 1445 1407 1450 1504 1421 1339 1425 1390 1436 1409 1338 1381 1362 1410 1417 1407 1393 1355 1360 1401 1372 1360 1418 1363 1403 1326 1339 1334 1341 1421 1341 1387 1352 1327 1377 1338 1358 1335 1332 1345 1356 1302 1398 1364 1337 1389 1312 1327 1337 1330 1383 1409 1263 1285 1301 1351 1360 1279 1352 1409 1347 1311 1419 1327 1347 1324 1297 1346 1420 1355 1338 1381 1255 1320 1304 1327 1365 1325 1282 1366 1310 1375 1319 1311 1371 1314 1328 1319 1364 1332 1353 1297 1470 1411 1332 1395 1353 1334 1362 1391 1354 1304 1274 1333 1351 1327 1292 1372 1344 1269 1341 1287 1374 1327 1385 1290 1331 1357 1349 1339 1323 1345 1383 1335 1314 1272 1399 1333 1338 1358 1352 1312 1389 1353 1329 1353 1342 1259 1348 1435 1335 1339 1346 1337 1443 1356 1326 1392 1342 1375 1313 1320 1341 1323 1326 1327 1365 1364 1409 1418 1327 1331 1305 1394 1358 1357 1355 1276 1373 1355 1340 1390 1314 1357 1403 1357 1332 1376 1387 1317 1425 1363 1301 1334 1308 1301 1359 1421 1354 1400 1384 1303 1357 1353 1458 1400 1380 1392 1418 1420 1408 1441 1431 1467 1444 1466 1444 1524 1516 1418 1442 1506 1528 1529 1512 1465 1534 1490 1440 1524 1520 1610 1514 1647 1534 1551 1582 1672 1671 1642 1676 1676 1776 1663 1730 1715 1713 1790 1736 1852 1698 1684 1801 1691 1729 1689 1799 1703 1771 1697 1804 1635 1724 1650 1684 1628 1701 1626 1651 1739 1715 1731 1656 1659 1640 1607 1593 1597 1596 1546 1624 1684 1613 1526 1573 1546 1540 1524 1541 1521 1470 1586 1478 1508 1492 1462 1447 1491 1460 1405 1461 1428 1472 1389 1454 1441 1417 1436 1397 1375 1389 1392 1429 1433 1433 1405 1401 1379 1382 1421 1429 1350 1469 1441 1403 1365 1398 1359 1440 1326 1450 1364 1430 1381 1385 1394 1351 1379 1325 1445 1396 1440 1364 1410 1349 1381 1324 1391 1346 1394 1375 1419 1376 1371 1309 1434 1507 1443 1403 1427 1309 1353 1411 1454 1301 1388 1390 1344 1434 1343 1346 1316 1325 1364 1393 1323 1417 1351 1379 1404 1372 1342 1379 1370 1445 1350 1362 1385 1339 1329 1426 1329 1415 1306 1391 1438 1392 1382 1438 1345 1337 1366 1413 1316 1367 1351 1367 1363 1374 1364 1344 1413 1381 1364 1365 1381 1453 1347 1421 1386 1376 1420 1295 1338 1351 1412 1397 1311 1410 1343 1479 1357 1393 1426 1354 1412 1356 1355 1396 1322 1361 1410 1333 1339 1359 1351 1402 1316 1422 1413 1400 1399 1346 1359 1402 1290 1327 1318 1354 1398 1287 1327 1369 1321 1332 1333 1346 1356 1441 1307 1313 1406 1306 1381 1338 1318 1313 1301 1339 1361 1355 1371 1339 1299 1339 1280 1362 1355 1316 1326 1347 1326 1266 1361 1339 1408 1390 1317 1359 1364 1391 1323 1421 1324 1329 1365 1395 1372 1361 1310 1270 1354 1264 1354 1348 1277 1310 1272 1329 1356 1335 1291 1332 1380 1359 1334 1329 1405 1360 1346 1358 1372 1355 1286 1338 1333 1385 1364 1404 1372 1346 1356 1346 1438 1343 1324 1372 1356 1312 1346 1376 1277 1340 1310 1389 1387 1377 1322 1317 1358 1328 1402 1318 1372 1319 1316 1361 1388 1401 1368 1372 1351 1367 1389 1349 1313 1378 1343 1396 1348 1368 1355 1450 1368 1397 1404 1453 1353 1391 1425 1424 1441 1429 1410 1458 1473 1556 1554 1526 1538 1483 1535 1448 1582 1545 1674 1638 1681 1668 1715 1703 1713 1674 1816 1684 1786 1839 1866 1797 1818 1882 1892 1908 1972 2021 2085 2086 2087 2050 2198 2187 2279 2264 2324 2303 2531 2537 2568 2634 2723 2772 2905 2947 3018 2997 2964 3016 3085 3183 3098 3154 3169 3158 3126 3113 3203 3229 3287 3103 3140 3112 3008 3110 2995 2924 3007 2949 2976 2939 2819 2748 2844 2823 2770 2686 2612 2615 2624 2575 2505 2463 2409 2457 2306 2358 2244 2181 2192 2123 2045 1975 1939 1884 1941 1856 1797 1749 1835 1785 1790 1729 1641 1709 1639 1639 1606 1658 1646 1624 1660 1571 1506 1557 1531 1478 1501 1508 1526 1534 1519 1600 1536 1563 1454 1533 1422 1446 1522 1512 1443 1441 1542 1497 1396 1434 1499 1513 1473 1375 1457 1329 1441 1414 1391 1415 1427 1419 1376 1441 1331 1419 1420 1355 1408 1407 1417 1306 1333 1422 1363 1420 1307 1337 1334 1317 1380 1410 1395 1416 1332 1418 1352 1391 1344 1377 1371 1369 1441 1364 1364 1333 1297 1457 1312 1360 1399 1310 1314 1318 1374 1369 1286 1383 1416 1370 1382 1428 1390 1454 1408 1419 1474 1400 1414 1372 1441 1451 1378 1357 1383 1429 1416 1447 1473 1455 1467 1384 1456 1521 1488 1444 1517 1461 1456 1524 1535 1511 1584 1515 1515 1542 1549 1536 1544 1516 1531 1461 1555 1495 1544 1485 1560 1526 1573 1526 1420 1556 1567 1606 1498 1537 1570 1497 1505 1568 1597 1490 1618 1558 1567 1616 1550 1583 1577 1553 1582 1616 1551 1609 1663 1620 1645 1667 1651 1587 1649 1575 1569 1679 1604 1563 1614 1701 1668 1618 1632 1602 1616 1580 1641 1662 1563 1586 1630 1653 1583 1538 1635 1553 1587 1622 1520 1560 1555 1561 1627 1492 1504 1558 1532 1512 1467 1530 1501 1509 1500 1485 1599 1504 1577 1525 1586 1534 1527 1579 1506 1542 1500 1534 1588 1520 1525 1574 1575 1551 1548 1561 1508 1600 1473 1530 1621 1565 1483 1542 1583 1583 1502 1606 1577 1427 1526 1533 1506 1581 1482 1518 1563 1481 1508 1449 1517 1478 1479 1421 1472 1414 1427 1454 1396 1446 1449 1410 1442 1442 1443 1369 1374 1402 1429 1438 1315 1362 1396 1401 1344 1315 1327 1316 1346 1312 1349 1311 1353 1384 1352 1390 1383 1384 1305 1259 1356 1332 1271 1379 1333 1400 1279 1309 1285 1319 1301 1305 1300 1284 1319 1333 1343 1326 1294 1313 1302 1243 1322 1288 1297 1296 1286 1356 1282 1284 1287 1328 1347 1294 1269 1319 1295 1244 1326 1357 1333 1317 1295 1301 1274 1259 1303 1343 1306 1284 1277 1244 1305 1307 1284 1319 1293 1347 1319 1274 1298 1216 1270 1284 1345 1312 1261 1198 1215 1327 1306 1309 1328 1296 1278 1333 1306 1287 1235 1267 1284 1326 1321 1260 1313 1313 1263 1269 1261 1233 1332 1221 1315 1260 1248 1286 1335 1229 1299 1317 1256 1226 1310 1291 1321 1285 1330 1316 1275 1208 1318 1236 1294 1261 1320 1289 1296 1288 1256 1253 1224 1339 1367 1282 1258 1244 1341 1286 1312 1293 1326 1306 1306 1293 1261 1297 1343 1370 1312 1232 1310 1316 1277 1265 1313 1332 1290 1268 1308 1375 1390 1321 1320 1329 1279 1372 1349 1348 1337 1280 1252 1286 1315 1343 1370 1306 1270 1356 1265 1305 1316 1263 1373 1353 1316 1314 1272 1309 1294 1303 1244 1398 1309 1368 1291 1267 1349 1280 1282 1365 1345 1312 1312 1277 1329 1299 1265 1221 1333 1341 1285 1259 1266 1264 1242 1226 1306 1312 1275 1315 1242 1292 1255 1276 1303 1272 1237 1258 1300 1287 1273 1315 1332 1316 1268 1246 1297 1347 1295 1269 1305 1330 1338 1298 1267 1201 1282 1341 1281 1302 1291 1248 1269 1303 1278 1281 1312 1326 1287 1283 1256 1288 1391 1366 1330 1263 1271 1354 1324 1312 1256 1326 1347 1253 1304 1339 1304 1261 1275 1322 1269 1249 1362 1242 1310 1250 1259 1288 1236 1314 1301 1240 1232 1250 1289 1259 1250 1290 1305 1246 1244 1282 1205 1303 1351 1217 1213 1322 1171 1280 1277 1205 1254 1301 1323 1259 1251 1259 1251 1269 1281 1247 1248 1270 1309 1308 1203 1250 1234 1292 1237 1325 1199 1337 1280 1285 1293 1343 1291 1278 1295 1274 1302 1233 1300 1266 1238 1295 1294 1206 1319 1238 1186 1312 1246 1343 1267 1269 1319 1277 1225 1270 1288 1267 1303 1302 1250 1240 1289 1218 1241 1234 1208 1243 1262 1276 1253 1242 1250 1239 1287 1232 1292 1204 1188 1365 1281 1230 1194 1282 1296 1331 1258 1279 1241 1296 1263 1289 1247 1241 1251 1273 1278 1306 1263 1291 1268 1263 1228 1249 1380 1367 1228 1292 1261 1319 1238 1252 1303 1283 1270 1255 1314 1260 1312 1302 1279 1260 1236 1281 1305 1209 1283 1259 1229 1286 1249 1329 1288 1369 1378 1251 1312 1212 1276 1351 1311 1305 1288 1266 1319 1313 1352 1333 1330 1349 1271 1276 1298 1222 1314 1252 1292 1337 1316 1280 1323 1402 1419 1356 1333 1245 1343 1346 1288 1335 1280 1328 1377 1367 1313 1380 1369 1393 1374 1434 1314 1313 1340 1368 1344 1406 1323 1359 1384 1373 1306 1342 1345 1435 1379 1340 1343 1387 1411 1461 1418 1413 1397 1419 1487 1469 1520 1527 1560 1612 1583 1585 1542 1645 1573 1608 1619 1601 1644 1600 1654 1665 1667 1558 1628 1712 1673 1586 1657 1712 1597 1584 1629 1512 1594 1616 1512 1556 1572 1600 1548 1542 1579 1568 1541 1573 1505 1541 1556 1485 1504 1452 1462 1515 1428 1514 1382 1492 1403 1370 1386 1392 1371 1395 1325 1425 1335 1319 1338 1343 1340 1386 1331 1287 1314 1331 1299 1338 1267 1309 1340 1252 1313 1276 1288 1297 1329 1320 1259 1253 1308 1352 1246 1281 1311 1299 1274 1281 1264 1280 1251 1237 1327 1296 1320 1229 1276 1278 1277 1194 1297 1357 1292 1218 1247 1251 1206 1274 1251 1131 1296 1286 1319 1259 1281 1296 1244 1269 1281 1203 1259 1273 1273 1270 1244 1171 1337 1291 1226 1233 1237 1255 1218 1316 1348 1265 1235 1291 1304 1239 1278 1284 1253 1348 1265 1283 1296 1269 1257 1216 1169 1248 1222 1243 1305 1287 1352 1332 1251 1324 1284 1263 1239 1321 1262 1245 1283 1344 1287 1267 1277 1246 1239 1308 1255 1275 1296 1240 1209 1234 1264 1268 1293 1276 1294 1252 1237 1261 1326 1257 1258 1212 1277 1348 1258 1339 1232 1264 1255 1367 1235 1343 1271 1282 1317 1287 1234 1331 1351 1307 1225 1238 1312 1278 1311 1351 1210 1388 1387 1260 1337 1310 1334 1338 1324 1368 1426 1405 1360 1373 1375 1458 1404 1459 1469 1456 1447 1495 1435 1395 1477 1414 1509 1487 1495 1511 1561 1499 1553 1465 1476 1538 1551 1490 1518 1578 1510 1510 1571 1574 1586 1630 1520 1557 1591 1695 1688 1707 1727 1629 1661 1741 1730 1792 1742 1681 1796 1726 1771 1704 1844 1731 1789 1801 1726 1732 1772 1782 1829 1809 1758 1735 1744 1814 1760 1782 1719 1807 1784 1808 1743 1726 1760 1681 1741 1660 1718 1716 1692 1633 1750 1603 1637 1598 1586 1558 1524 1572 1558 1549 1544 1452 1518 1539 1460 1449 1579 1522 1472 1406 1441 1492 1450 1404 1405 1441 1386 1350 1330 1373 1358 1378 1285 1427 1370 1318 1350 1312 1360 1337 1338 1320 1319 1316 1278 1367 1298 1288 1336 1347 1294 1282 1376 1341 1330 1372 1317 1344 1299 1383 1370 1422 1377 1362 1410 1330 1411 1354 1417 1313 1374 1347 1342 1323 1370 1404 1337 1440 1397 1361 1402 1258 1386 1412 1357 1280 1379 1423 1364 1415 1341 1384 1357 1421 1346 1329 1355 1328 1349 1402 1369 1404 1332 1386 1376 1365 1345 1401 1329 1402 1368 1401 1485 1500 1547 1600 1645 1639 1763 1740 1812 1752 1791 1769 1720 1688 1727 1685 1664 1641 1702 1592 1680 1575 1695 1761 1712 1669 1718 1703 1624 1687 1666 1614 1568 1625 1662 1581 1556 1548 1513 1518 1459 1508 1555 1471 1485 1435 1436 1484 1509 1469 1503 1463 1500 1454 1558 1437 1510 1432 1488 1502 1499 1441 1392 1382 1407 1446 1419 1456 1430 1460 1409 1449 1454 1397 1373 1356 1441 1449 1430 1345 1400 1369 1391 1347 1367 1386 1412 1381 1374 1343 1397 1306 1309 1378 1402 1386 1317 1360 1353 1313 1308 1356 1347 1354 1356 1308 1365 1304 1259 1338 1236 1351 1371 1224 1304 1276 1321 1317 1302 1219 1299 1375 1319 1386 1340 1342 1296 1305 1305 1331 1355 1307 1336 1251 1296 1333 1312 1264 1306 1348 1372 1290 1318 1290 1251 1297 1286 1321 1290 1261 1302 1309 1320 1326 1237 1255 1299 1267 1300 1273 1285 1307 1270 1297 1273 1275 1266 1337 1290 1345 1351 1290 1315 1299 1248 1291 1251 1281 1266 1348 1290 1323 1265 1260 1225 1262 1271 1261 1267 1233 1324 1342 1225 1292 1266 1290 1236 1297 1311 1337 1233 1320 1275 1293 1316 1324 1250 1282 1258 1274 1248 1228 1343 1253 1256 1311 1248 1316 1304 1244 1223 1234 1238 1299 1261 1282 1261 1257 1277 1253 1281 1270 1265 1323 1278 1313 1235 1255 1289 1230 1308 1284 1292 1251 1300 1228 1282 1324 1279 1258 1258 1264 1250 1228 1314 1205 1236 1260 1369 1266 1346 1298 1275 1287 1301 1261 1275 1295 1259 1273 1340 1323 1283 1258 1289 1288 1282 1240 1320 1301 1295 1325 1248 1282 1231 1291 1242 1291 1247 1336 1274 1285 1284 1314 1293 1283 1248 1287 1279 1284 1280 1269 1267 1275 1259 1261 1267 1250 1284 1277 1287 1266 1272 1258 1237 1232 1326 1265 1296 1297 1207 1316 1219 1255 1249 1208 1310 1242 1233 1247 1207 1227 1264 1208 1226 1302 1301 1223 1261 1220 1271 1220 1249 1246 1236 1248 1255 1282 1275 1253 1314 1294 1305 1231 1284 1274 1274 1199 1299 1314 1220 1239 1223 1241 1287 1328 1214 1266 1255 1238 1265 1244 1269 1277 1233 1380 1297 1261 1265 1250 1260 1298 1355 1275 1291 1252 1291 1227 1232 1266 1233 1275 1324 1328 1263 1276 1313 1214 1317 1269 1281 1321 1256 1223 1244 1302 1273 1201 1244 1262 1286 1284 1267 1303 1244 1271 1229 1252 1242 1232 1230 1266 1211 1245 1266 1215 1299 1256 1292 1256 1239 1235 1201 1265 1176 1207 1237 1238 1236 1263 1233 1275 1289 1232 1214 1222 1292 1215 1217 1211 1185 1234 1186 1244 1201 1207 1288 1202 1253 1228 1192 1271 1250 1199 1160 1261 1187 1287 1216 1193 1171 1241 1176 1169 1234 1311 1202 1246 1201 1251 1224 1243 1248 1290 1203 1268 1215 1263 1181 1262 1192 1286 1173 1249 1177 1235 1258 1260 1189 1241 1297 1205 1252 1199 1192 1214 1234 1245 1250 1215 1163 1246 1197 1307 1200 1190 1214 1207 1273 1221 1251 1285 1254 1241 1208 1184 1264 1248 1226 1301 1277 1266 1259 1263 1248 1248 1287 1235 1262 1197 1292 1278 1298 1233 1270 1240 1289 1242 1269 1233 1263 1262 1288 1272 1296 1280 1241 1250 1307 1312 1200 1325 1343 1307 1305 1286 1297 1284 1307 1335 1289 1331 1231 1306 1297 1275 1245 1258 1275 1293 1335 1324 1316 1245 1271 1300 1282 1232 1261 1263 1341 1236 1282 1288 1352 1286 1273 1295 1312 1242 1219 1288 1359 1277 1257 1247 1187 1304 1203 1296 1274 1255 1246 1206 1314 1236 1293 1244 1298 1265 1285 1295 1204 1284 1185 1213 1329 1231 1285 1242 1173 1202 1219 1226 1274 1216 1225 1253 1239 1279 1182 1256 1248 1251 1306 1224 1275 1234 1242 1221 1244 1184 1200 1216 1186 1234 1324 1239 1229 1239 1148 1233 1232 1208 1214 1290 1165 1190 1273 1217 1267 1227 1320 1239 1224 1266 1224 1246 1231 1210 1228 1274 1248 1259 1248 1164 1174 1227 1214 1230 1151 1251 1252 1239 1246 1215 1180 1214 1221 1282 1250 1197 1181 1220 1222 1226 1222 1215 1268 1268 1168 1226 1231 1249 1213 1189 1197 1181 1211 1222 1255 1237 1223 1189 1161 1267 1315 1233 1249 1260 1326 1176 1164 1223 1175 1241 1243 1194 1254 1194 1192 1203 1127 1189 1280 1219 1211 1207 1198 1189 1253 1284 1188 1166 1221 1231 1180 1178 1244 1199 1263 1167 1262 1209 1312 1155 1241 1173 1219 1235 1214 1241 1258 1261 1204 1243 1124 1229 1263 1207 1235 1228 1209 1226 1198 1155 1255 1176 1213 1268 1185 1203 1245 1222 1239 1270 1243 1270 1211 1231 1267 1203 1221 1237 1264 1220 1228 1202 1249 1294 1232 1246 1237 1222 1260 1215 1229 1226 1239 1283 1353 1252 1214 1242 1228 1240 1225 1262 1292 1282 1225 1325 1355 1265 1302 1289 1301 1295 1312 1318 1265 1228 1292 1307 1311 1339 1326 1305 1293 1311 1332 1271 1344 1297 1347 1397 1399 1310 1357 1345 1361 1375 1389 1386 1329 1427 1321 1436 1421 1370 1418 1399 1414 1402 1488 1453 1386 1401 1413 1488 1373 1432 1445 1412 1450 1453 1434 1439 1457 1361 1412 1447 1399 1374 1481 1387 1380 1377 1430 1413 1436 1374 1380 1369 1322 1371 1373 1275 1323 1328 1361 1283 1370 1352 1336 1285 1450 1341 1312 1285 1377 1332 1315 1289 1310 1240 1277 1329 1235 1307 1254 1351 1275 1249 1211 1285 1245 1359 1266 1286 1230 1294 1229 1191 1233 1294 1324 1251 1256 1230 1287 1304 1220 1211 1245 1287 1248 1193 1248 1212 1234 1258 1236 1198 1240 1265 1259 1290 1229 1247 1227 1220 1254 1278 1286 1211 1218 1249 1289 1286 1232 1245 1205 1226 1199 1247 1263 1217 1261 1209 1203 1182 1131 1245 1278 1256 1242 1194 1223 1185 1192 1176 1168 1209 1248 1194 1221 1218 1279 1213 1170 1202 1248 1255 1150 1205 1177 1178 1205 1197 1182 1273 1193 1178 1151 1193 1200 1246 1254 1251 1185 1220 1199 1224 1185 1203 1232 1238 1179 1294 1250 1204 1167 1223 1206 1260 1222 1233 1229 1273 1234 1242 1193 1196 1221 1202 1232 1254 1238 1277 1189 1204 1256 1211 1207 1205 1226 1302 1262 1190 1211 1241 1224 1225 1232 1254 1175 1218 1242 1252 1229 1252 1218 1188 1177 1199 1198 1240 1207 1150 1246 1243 1173 1231 1169 1236 1259 1193 1242 1145 1231 1207 1252 1189 1261 1223 1232 1237 1265 1218 1177 1198 1186 1206 1192 1243 1255 1276 1236 1235 1202 1232 1209 1261 1195 1247 1272 1207 1192 1197 1227 1321 1242 1259 1168 1234 1196 1266 1282 1214 1218 1228 1246 1221 1229 1259 1223 1269 1231 1207 1297 1215 1244 1190 1206 1270 1214 1235 1241 1283 1307 1223 1220 1243 1208 1291 1240 1257 1236 1222 1224 1246 1255 1207 1236 1201 1235 1190 1208 1199 1199 1230 1233 1193 1214 1274 1211 1228 1230 1205 1157 1211 1257 1248 1244 1234 1219 1213 1152 1247 1189 1246 1246 1219 1216 1169 1202 1282 1211 1216 1217 1221 1262 1198 1224 1227 1244 1222 1224 1186 1190 1176 1191 1206 1282 1213 1162 1191 1189 1173 1256 1205 1242 1243 1248 1214 1170 1238 1152 1282 1296 1278 1187 1226 1292 1233 1150 1218 1210 1223 1190 1188 1237 1204 1209 1223 1251 1245 1261 1198 1198 1225 1230 1266 1212 1122 1268 1227 1239 1252 1234 1222 1213 1227 1227 1205 1247 1181 1302 1232 1210 1164 1275 1217 1235 1221 1263 1202 1207 1185 1216 1186 1203 1184 1165 1236 1234 1169 1207 1230 1206 1296 1212 1209 1244 1224 1230 1272 1188 1185 1180 1240 1147 1269 1243 1184 1252 1170 1212 1211 1192 1141 1179 1245 1204 1232 1237 1221 1288 1252 1231 1234 1208 1286 1242 1218 1187 1151 1232 1226 1200 1274 1247 1255 1241 1232 1237 1195 1276 1197 1231 1220 1232 1169 1213 1255 1227 1225 1167 1164 1275 1241 1175 1221 1194 1204 1236 1258 1212 1251 1238 1181 1251 1216 1217 1189 1267 1191 1286 1286 1197 1219 1231 1202 1257 1271 1246 1255 1241 1236 1195 1200 1252 1197 1217 1208 1214 1190 1243 1240 1268 1242 1215 1222 1228 1243 1207 1266 1192 1220 1225 1188 1216 1196 1203 1217 1246 1222 1267 1252 1231 1229 1210 1217 1265 1241 1184 1249 1197 1215 1227 1214 1253 1261 1260 1215 1285 1153 1181 1194 1252 1194 1231 1273 1240 1248 1241 1219 1243 1259 1177 1220 1253 1206 1235 1309 1199 1204 1208 1258 1217 1289 1251 1239 1231 1266 1243 1208 1170 1273 1203 1181 1238 1235 1291 1201 1223 1226 1237 1236 1254 1226 1287 1189 1316 1217 1190 1255 1280 1197 1276 1213 1267 1220 1262 1271 1268 1251 1265 1227 1206 1240 1201 1233 1219 1305 1219 1235 1249 1338 1214 1272 1245 1197 1259 1247 1208 1206 1158 1245 1186 1263 1268 1259 1277 1254 1233 1267 1263 1229 1277 1238 1288 1269 1221 1344 1300 1275 1255 1288 1213 1275 1290 1323 1303 1280 1248 1272 1297 1319 1321 1297 1242 1324 1352 1309 1275 1304 1312 1279 1233 1278 1305 1315 1247 1299 1250 1260 1274 1229 1330 1322 1276 1236 1365 1305 1313 1263 1255 1307 1279 1249 1261 1305 1272 1265 1259 1237 1284 1351 1283 1363 1248 1309 1320 1340 1288 1317 1328 1371 1250 1370 1366 1268 1406 1359 1340 1413 1380 1351 1257 1317 1352 1365 1401 1297 1368 1279 1379 1305 1389 1360 1289 1278 1361 1346 1299 1309 1350 1321 1299 1357 1344 1330 1348 1294 1252 1295 1355 1225 1338 1248 1301 1310 1318 1256 1378 1317 1335 1332 1276 1264 1313 1256 1262 1278 1272 1239 1251 1256 1324 1300 1275 1264 1193 1281 1209 1234 1203 1216 1232 1241 1331 1291 1235 1220 1293 1233 1242 1246 1241 1244 1346 1279 1207 1259 1291 1240 1231 1235 1264 1280 1240 1244 1223 1258 1251 1234 1293 1250 1257 1247 1270 1170 1264 1199 1186 1263 1274 1183 1303 1238 1231 1259 1177 1266 1245 1311 1266 1193 1270 1276 1316 1234 1274 1259 1247 1262 1178 1235 1244 1224 1265 1235 1253 1246 1335 1279 1277 1268 1194 1309 1327 1288 1297 1310 1294 1243 1262 1267 1256 1326 1299 1261 1315 1326 1374 1419 1351 1347 1440 1456 1417 1410 1364 1374 1379 1383 1413 1391 1345 1363 1389 1365 1344 1377 1421 1330 1365 1378 1396 1383 1380 1433 1467 1464 1472 1447 1366 1361 1472 1366 1370 1404 1361 1428 1382 1436 1378 1386 1399 1352 1422 1382 1375 1352 1344 1452 1329 1390 1396 1385 1438 1439 1380 1357 1407 1466 1387 1512 1389 1511 1463 1452 1458 1516 1445 1496 1527 1513 1493 1477 1567 1571 1621 1626 1604 1525 1585 1531 1540 1585 1712 1619 1654 1638 1632 1633 1649 1613 1659 1568 1600 1675 1660 1637 1610 1662 1612 1617 1642 1566 1593 1632 1558 1599 1631 1474 1632 1526 1512 1538 1579 1556 1545 1474 1534 1566 1508 1448 1468 1511 1435 1449 1449 1421 1490 1435 1383 1396 1423 1421 1401 1419 1360 1412 1418 1403 1448 1406 1418 1341 1391 1400 1418 1378 1385 1333 1332 1306 1366 1357 1321 1325 1339 1259 1336 1294 1326 1257 1304 1234 1338 1313 1295 1295 1343 1193 1360 1282 1339 1344 1327 1307 1336 1302 1302 1298 1327 1341 1307 1280 1310 1308 1226 1255 1305 1287 1354 1257 1335 1290 1328 1263 1278 1304 1255 1258 1307 1279 1297 1243 1233 1261 1275 1250 1260 1205 1294 1232 1290 1286 1220 1274 1272 1280 1273 1288 1292 1272 1343 1274 1290 1204 1300 1249 1263 1334 1279 1260 1335 1292 1241 1245 1251 1295 1294 1238 1208 1292 1297 1271 1319 1347 1275 1273 1310 1226 1294 1301 1274 1280 1280 1232 1210 1290 1261 1256 1255 1253 1302 1304 1284 1226 1350 1251 1255 1351 1265 1337 1307 1337 1279 1289 1300 1252 1282 1313 1269 1305 1279 1255 1295 1270 1348 1225 1296 1308 1336 1333 1264 1273 1286 1317 1248 1217 1318 1300 1248 1263 1320 1323 1304 1236 1221 1209 1301 1265 1283 1245 1332 1234 1298 1239 1246 1153 1260 1250 1259 1281 1281 1234 1290 1217 1205 1284 1290 1267 1331 1230 1249 1289 1242 1249 1273 1242 1259 1221 1238 1180 1258 1274 1372 1256 1264 1233 1235 1272 1205 1280 1278 1264 1240 1225 1233 1327 1229 1229 1245 1275 1227 1313 1290 1260 1272 1214 1239 1221 1232 1224 1258 1175 1230 1208 1236 1307 1317 1234 1207 1172 1252 1236 1254 1241 1369 1252 1185 1213 1247 1251 1255 1279 1217 1191 1219 1277 1259 1251 1178 1240 1243 1246 1263 1263 1301 1269 1252 1313 1225 1239 1226 1293 1271 1257 1294 1255 1211 1298 1272 1207 1270 1238 1229 1262 1301 1254 1333 1296 1234 1266 1219 1306 1292 1197 1249 1285 1309 1278 1296 1302 1319 1344 1339 1261 1369 1274 1267 1329 1259 1237 1253 1277 1380 1405 1322 1318 1242 1258 1313 1303 1317 1309 1213 1273 1295 1296 1354 1246 1288 1282 1252 1271 1304 1369 1226 1239 1305 1332 1315 1245 1208 1268 1200 1232 1322 1208 1224 1282 1244 1252 1305 1280 1236 1285 1203 1270 1272 1209 1227 1270 1238 1268 1283 1283 1170 1266 1272 1258 1202 1245 1237 1229 1264 1191 1311 1245 1286 1255 1284 1253 1253 1253 1160 1303 1234 1241 1297 1250 1277 1225 1210 1265 1292 1279 1239 1264 1254 1198 1185 1193 1143 1300 1227 1191 1268 1190 1169 1266 1263 1307 1237 1245 1252 1245 1245 1195 1290 1328 1213 1270 1259 1280 1248 1282 1220 1191 1237 1258 1306 1297 1268 1270 1297 1224 1232 1233 1303 1252 1246 1229 1228 1216 1218 1213 1230 1173 1233 1226 1253 1210 1263 1269 1247 1241 1288 1235 1272 1326 1297 1290 1240 1222 1239 1202 1265 1214 1271 1227 1197 1289 1225 1222 1250 1242 1235 1268 1243 1244 1225 1219 1243 1249 1243 1285 1304 1287 1244 1200 1260 1272 1272 1331 1205 1298 1278 1282 1277 1323 1210 1257 1291 1235 1220 1224 1270 1270 1233 1219 1284 1268 1271 1241 1186 1273 1257 1236 1296 1242 1280 1277 1222 1249 1253 1268 1242 1188 1262 1221 1199 1255 1202 1300 1263 1226 1263 1235 1233 1298 1207 1218 1219 1262 1255 1266 1326 1211 1242 1230 1280 1311 1252 1278 1255 1274 1363 1255 1221 1243 1248 1229 1202 1285 1262 1260 1251 1188 1252 1253 1282 1270 1272 1281 1239 1242 1246 1232 1323 1370 1248 1287 1264 1324 1258 1252 1298 1211 1306 1260 1295 1296 1303 1228 1271 1278 1200 1256 1280 1326 1309 1285 1222 1303 1284 1290 1293 1258 1262 1248 1266 1271 1305 1261 1249 1250 1301 1289 1341 1228 1251 1307 1218 1215 1253 1277 1276 1283 1249 1234 1261 1311 1268 1300 1234 1278 1226 1299 1164 1248 1275 1280 1227 1213 1195 1255 1227 1148 1264 1212 1259 1318 1319 1178 1234 1290 1235 1271 1207 1249 1240 1210 1274 1226 1271 1206 1256 1199 1176 1224 1245 1205 1299 1304 1170 1236 1283 1200 1215 1239 1327 1227 1242 1223 1219 1223 1236 1176 1216 1230 1219 1275 1236 1299 1279 1235 1343 1262 1256 1249 1136 1204 1272 1157 1210 1225 1152 1282 1227 1252 1215 1279 1177 1254 1315 1270 1266 1251 1205 1218 1218 1253 1236 1257 1265 1226 1227 1228 1290 1301 1246 1248 1189 1233 1235 1238 1201 1270 1274 1232 1239 1245 1281 1206 1202 1276 1276 1309 1303 1229 1254 1250 1247 1256 1233 1226 1238 1305 1255 1308 1267 1249 1240 1266 1245 1280 1242 1199 1262 1175 1284 1286 1308 1225 1175 1270 1233 1286 1251 1250 1280 1271 1250 1300 1217 1206 1237 1200 1279 1234 1256 1285 1215 1250 1245 1164 1254 1256 1234 1266 1246 1252 1270 1344 1282 1282 1273 1323 1319 1266 1354 1338 1359 1249 1304 1313 1344 1324 1287 1259 1260 1294 1255 1301 1249 1320 1283 1261 1315 1286 1223 1263 1271 1335 1299 1342 1246 1355 1313 1315 1272 1305 1334 1284 1360 1300 1297 1363 1327 1330 1281 1280 1251 1339 1281 1313 1313 1305 1385 1265 1315 1337 1414 1319 1390 1314 1380 1353 1358 1440 1385 1382 1338 1417 1360 1351 1389 1469 1411 1486 1428 1488 1475 1448 1526 1459 1471 1498 1520 1481 1505 1387 1518 1470 1430 1497 1483 1544 1508 1439 1509 1430 1489 1477 1485 1422 1492 1441 1503 1463 1488 1443 1418 1435 1461 1479 1489 1458 1458 1427 1438 1388 1465 1511 1483 1460 1401 1363 1349 1413 1420 1402 1470 1380 1384 1391 1403 1376 1393 1390 1316 1399 1369 1326 1384 1283 1259 1369 1377 1361 1352 1343 1292 1309 1335 1223 1329 1287 1288 1303 1324 1269 1339 1307 1327 1260 1297 1322 1334 1301 1328 1294 1269 1302 1296 1304 1314 1285 1322 1267 1287 1241 1348 1309 1312 1322 1271 1266 1292 1311 1316 1312 1257 1301 1327 1287 1313 1290 1288 1245 1250 1238 1255 1299 1230 1229 1260 1304 1228 1298 1310 1269 1214 1214 1268 1248 1218 1259 1289 1300 1262 1314 1330 1235 1266 1277 1248 1247 1256 1289 1225 1245 1306 1240 1283 1286 1252 1223 1281 1314 1263 1269 1231 1320 1210 1282 1274 1285 1388 1241 1271 1295 1258 1277 1301 1249 1290 1234 1218 1322 1367 1241 1266 1326 1358 1217 1368 1242 1339 1306 1289 1292 1299 1359 1328 1203 1310 1362 1337 1289 1260 1277 1249 1167 1243 1269 1285 1263 1302 1292 1292 1268 1313 1305 1234 1198 1317 1233 1290 1273 1308 1293 1260 1308 1229 1296 1216 1254 1286 1265 1266 1287 1266 1301 1244 1263 1317 1284 1274 1294 1283 1264 1282 1256 1252 1252 1316 1290 1239 1264 1158 1286 1284 1255 1290 1296 1311 1315 1245 1270 1270 1272 1196 1267 1271 1284 1268 1288 1286 1264 1273 1230 1239 1283 1224 1254 1302 1318 1287 1304 1274 1262 1222 1327 1270 1234 1270 1276 1256 1302 1255 1255 1231 1271 1276 1219 1257 1306 1338 1288 1299 1224 1226 1288 1312 1250 1215 1300 1255 1297 1247 1292 1299 1251 1339 1255 1279 1218 1271 1295 1295 1313 1278 1257 1299 1342 1241 1287 1265 1344 1252 1267 1315 1332 1234 1206 1284 1275 1279 1294 1314 1359 1293 1312 1227 1265 1315 1315 1313 1294 1238 1281 1332 1261 1280 1302 1267 1305 1251 1256 1304 1317 1264 1322 1263 1241 1221 1239 1264 1283 1241 1251 1201 1330 1270 1256 1243 1350 1368 1291 1272 1236 1232 1263 1255 1224 1301 1266 1233 1249 1277 1261 1219 1285 1328 1224 1279 1246 1279 1234 1277 1264 1204 1244 1217 1210 1230 1246 1199 1281 1251 1222 1204 1269 1198 1245 1257 1201 1319 1273 1196 1252 1315 1259 1263 1293 1273 1257 1258 1252 1312 1293 1224 1259 1162 1285 1242 1237 1252 1297 1212 1238 1319 1280 1262 1258 1206 1295 1241 1240 1194 1246 1207 1200 1230 1261 1274 1280 1275 1282 1172 1285 1213 1237 1240 1178 1299 1231 1263 1268 1172 1279 1222 1257 1213 1246 1277 1282 1213 1259 1263 1270 1319 1267 1280 1264 1209 1194 1264 1256 1275 1233 1223 1258 1250 1263 1226 1269 1248 1310 1320 1260 1213 1278 1239 1208 1179 1234 1289 1290 1153 1310 1262 1278 1286 1290 1287 1283 1281 1237 1339 1258 1218</counts>
			</dataPoints>
		</scan>
	</xrdMeasurement>
</xrdMeasurements>
