<?xml version="1.0"?>
<xrdMeasurements xmlns="http://www.xrdml.com/XRDMeasurement/2.3" xmlns:xsi="http://www.w3.org/2001/XMLSchema-instance" xsi:schemaLocation="http://www.xrdml.com/XRDMeasurement/2.3 http://www.xrdml.com/XRDMeasurement/2.3/XRDMeasurement.xsd" status="Completed" recordIdentifier="{EB870AF2-FC4A-45C7-8A54-3524164F5B52}">
	<comment>
		<entry/>
	</comment>
	<sample type="To be analyzed">
		<id>GPSS_Li1p4Mn0p4V0p6Cl4_111225_691549b847a6a0fd7c6580bf</id>
		<name></name>
		<preparedBy></preparedBy>
	</sample>
	<xrdMeasurement measurementType="Scan" status="Completed" sampleMode="Reflection">
		<usedWavelength intended="K-Alpha 1">
			<kAlpha1 unit="Angstrom">1.5405980</kAlpha1>
			<kAlpha2 unit="Angstrom">1.5444260</kAlpha2>
			<kBeta unit="Angstrom">1.3922500</kBeta>
			<ratioKAlpha2KAlpha1>0.5000</ratioKAlpha2KAlpha1>
		</usedWavelength>
		<incidentBeamPath>
			<radius unit="mm">145.00</radius>
			<xRayTube id="1010048" name="Empyrean Cu LFF HR (9430 033 7310x)">
				<tension unit="kV">40.0</tension>
				<current unit="mA">15.0</current>
				<anodeMaterial>Cu</anodeMaterial>
				<focus type="Line">
					<length unit="mm">12.0</length>
					<width unit="mm">0.4</width>
					<takeOffAngle unit="deg">6.0</takeOffAngle>
				</focus>
			</xRayTube>
			<sollerSlit id="21010002" name="Soller slits 0.04 rad.">
				<opening unit="rad">0.0400</opening>
			</sollerSlit>
			<mask id="22031000" name="Fixed mask 13 mm">
				<width unit="mm">9.00</width>
			</mask>
			<divergenceSlit id="22120001" name="Divergence slit 1°" xsi:type="fixedDivergenceSlitType">
				<distanceToSample unit="mm">50.00</distanceToSample>
				<height unit="mm">1.52</height>
			</divergenceSlit>
		</incidentBeamPath>
		<sampleMovement xsi:type="spinningSampleMovementType">
			<spinnerRevolutionTime unit="seconds">1.0</spinnerRevolutionTime>
		</sampleMovement>
		<diffractedBeamPath>
			<radius unit="mm">145.00</radius>
			<antiScatterSlit id="22090040" name="AS slit 9 mm (PIXcel)" xsi:type="fixedAntiScatterSlitType">
				<height unit="mm">9.00</height>
			</antiScatterSlit>
			<sollerSlit id="21020003" name="Large Soller slits 0.04 rad.">
				<opening unit="rad">0.0400</opening>
			</sollerSlit>
			<filter id="20030001" name="Large beta-filter Nickel">
				<material>Ni</material>
				<thickness unit="mm">0.020</thickness>
			</filter>
			<detector id="7010019" name="PIXcel1D-Medipix3 detector" xsi:type="rtmsDetectorType">
				<phd unit="keV">
					<lowerLevel>4.02</lowerLevel>
					<upperLevel>11.27</upperLevel>
				</phd>
				<mode>Scanning</mode>
				<activeLength unit="deg">5.542</activeLength>
			</detector>
		</diffractedBeamPath>
		<scan appendNumber="0" mode="Continuous" scanAxis="Gonio" status="Completed">
			<header>
				<startTimeStamp>2025-11-16T15:19:54-08:00</startTimeStamp>
				<endTimeStamp>2025-11-16T15:28:01-08:00</endTimeStamp>
				<author>
					<name>AutomatedUser</name>
				</author>
				<source>
					<applicationSoftware version="1.7b (136)">PANalytical Aeris Instrument Suite</applicationSoftware>
					<instrumentControlSoftware version="3.2.00000000 20240306">AERIS</instrumentControlSoftware>
					<instrumentID>950485</instrumentID>
				</source>
			</header>
			<dataPoints>
				<positions axis="2Theta" unit="deg">
					<startPosition>10.00943322</startPosition>
					<endPosition>99.99442286</endPosition>
				</positions>
				<positions axis="Omega" unit="deg">
					<startPosition>5.00471661</startPosition>
					<endPosition>49.99721143</endPosition>
				</positions>
				<commonCountingTime unit="seconds">12.495</commonCountingTime>
				<counts unit="counts">2871 2907 2958 2897 2900 2903 2916 2903 2846 2943 3002 2885 2944 2983 2862 3011 2929 2826 2984 2879 2988 2958 2900 2948 3003 3087 2896 3035 2889 2955 2972 3043 2999 2929 2916 2905 2914 2977 2935 2843 2914 2984 2937 2910 2930 2888 2998 3003 2979 2998 3005 2955 2910 2902 2972 2963 3059 2985 2980 3031 3090 2807 3108 2987 2949 3009 3047 2928 3003 2949 3000 3022 3153 3039 2929 3109 3071 3166 3064 3076 3081 3207 3193 3175 3189 3139 3170 3189 3254 3156 3150 3202 3126 3120 3115 3134 3073 3111 3195 3161 3030 3096 3108 3152 3067 3056 3013 3055 2986 3149 3052 3177 3145 3048 3033 3032 3138 3050 3127 3151 3205 3088 3069 3065 3187 3098 2986 3156 3122 3109 3096 3177 3125 3161 3124 3059 3014 3137 3063 3175 3126 3196 3149 3161 3037 3134 3125 3113 2978 3109 3119 3082 3063 3116 2993 3149 3009 3194 3071 3056 3088 3115 3119 3230 3177 3079 3152 3089 3091 3007 3088 3254 3143 3157 3161 3004 3117 3047 3083 3075 3076 3107 3101 3076 3056 3176 3025 3082 3162 3081 3244 3070 3048 3166 2981 3125 2966 3094 3100 3066 3039 3027 3089 2960 3033 2995 3059 2979 3081 2912 2988 3019 3039 2953 3049 3003 3082 3056 3090 2951 3024 2893 3029 2988 3001 3073 3002 3090 3040 2922 2975 3049 3119 2935 2996 3065 2960 3066 3050 2929 3055 2919 3040 2913 2985 3049 2975 3017 3050 2979 3023 2942 2939 2993 3116 2929 3046 3062 3001 2915 3059 2970 3006 2911 2941 2970 2912 3007 2905 2885 2967 2948 2915 2894 3024 2947 2998 3114 2962 2912 3062 2978 3002 3030 2930 2860 2995 2928 2964 3018 3083 3030 3030 3006 2997 3097 2979 3101 3001 3036 2977 2988 3024 2984 2990 2977 3063 3000 3002 3060 3071 3048 3012 3104 3032 3153 2974 3011 3042 3135 3067 3082 3118 3031 3130 3079 3073 3085 3039 3099 3127 3211 3146 3103 3150 3088 3142 3120 3208 3232 3143 3189 3199 3114 3119 3119 3070 3180 3239 3161 3169 3270 3235 3232 3123 3154 3288 3249 3261 3247 3170 3312 3295 3240 3373 3268 3279 3325 3383 3320 3309 3245 3327 3249 3332 3333 3267 3359 3280 3300 3365 3317 3389 3245 3431 3215 3417 3378 3372 3345 3407 3421 3335 3419 3296 3526 3455 3425 3393 3351 3454 3468 3362 3486 3428 3450 3512 3454 3530 3522 3674 3623 3516 3575 3610 3548 3612 3723 3648 3698 3536 3765 3806 3749 3812 3903 3757 3988 3725 3853 3859 3842 3796 3781 3739 3806 3786 3733 3724 3866 3766 3739 3655 3689 3712 3591 3630 3689 3611 3742 3602 3684 3714 3592 3738 3757 3586 3635 3652 3612 3639 3752 3756 3650 3583 3665 3573 3642 3554 3599 3538 3616 3543 3494 3448 3490 3479 3399 3439 3399 3376 3321 3364 3344 3351 3237 3285 3303 3275 3268 3275 3316 3318 3275 3253 3243 3376 3246 3160 3232 3378 3242 3136 3082 3233 3126 3069 3177 3081 3065 3215 3017 3065 3168 3115 3064 3070 3092 3070 3027 3101 2993 3088 2973 2987 3071 3087 3089 3028 3063 2995 3069 2926 2956 3031 2924 2982 2962 2914 2890 3017 2978 2950 2967 3015 2938 3003 2994 2877 2991 2943 2883 3011 3069 2876 2928 2874 2887 2854 2836 2866 2839 2920 2838 2907 2867 2807 2983 2898 2800 2831 2774 2896 2877 2953 2841 2811 2814 2936 2789 2800 2830 2795 2893 2801 2834 2846 2794 2762 2806 2723 2779 2840 2831 2843 2794 2795 2817 2814 2840 2837 2860 2842 2814 2698 2845 2795 2790 2674 2808 2869 2798 2702 2770 2707 2776 2625 2800 2748 2734 2808 2733 2754 2742 2802 2751 2716 2666 2714 2738 2733 2791 2794 2701 2762 2788 2754 2726 2730 2781 2696 2644 2750 2731 2746 2763 2729 2723 2768 2752 2723 2677 2757 2742 2709 2777 2751 2610 2779 2746 2661 2683 2719 2717 2670 2709 2744 2715 2704 2731 2735 2765 2678 2700 2697 2665 2650 2613 2685 2591 2681 2690 2648 2749 2666 2758 2679 2593 2704 2623 2623 2626 2613 2745 2601 2779 2554 2683 2606 2603 2751 2638 2651 2662 2598 2660 2622 2610 2678 2670 2658 2662 2670 2735 2653 2731 2539 2710 2524 2568 2618 2582 2577 2531 2654 2688 2615 2700 2641 2688 2568 2619 2642 2614 2539 2657 2515 2617 2598 2588 2565 2499 2582 2536 2480 2591 2580 2585 2620 2635 2561 2659 2604 2649 2553 2624 2668 2561 2570 2646 2557 2536 2545 2572 2575 2688 2661 2592 2653 2521 2644 2537 2506 2550 2614 2518 2572 2525 2560 2629 2547 2588 2460 2541 2556 2523 2395 2581 2511 2554 2493 2517 2478 2454 2586 2478 2459 2611 2520 2504 2524 2512 2403 2522 2545 2455 2512 2565 2528 2462 2513 2536 2487 2477 2511 2482 2452 2453 2442 2413 2427 2521 2551 2499 2486 2440 2575 2481 2500 2514 2496 2469 2435 2472 2531 2402 2408 2432 2455 2509 2421 2484 2385 2410 2442 2414 2537 2471 2389 2390 2345 2448 2494 2376 2345 2452 2444 2412 2434 2412 2363 2426 2392 2331 2519 2363 2297 2391 2337 2386 2452 2360 2313 2367 2434 2463 2308 2430 2323 2463 2310 2396 2332 2285 2459 2303 2409 2406 2357 2316 2363 2251 2381 2300 2355 2466 2344 2435 2366 2309 2274 2479 2432 2298 2340 2438 2266 2243 2276 2249 2427 2412 2313 2348 2332 2299 2349 2256 2346 2319 2278 2260 2267 2257 2243 2336 2302 2268 2344 2255 2312 2272 2271 2341 2373 2255 2317 2317 2277 2309 2317 2309 2292 2212 2250 2206 2302 2322 2212 2260 2283 2331 2192 2206 2300 2318 2284 2275 2303 2273 2160 2362 2173 2305 2202 2306 2254 2265 2250 2217 2171 2246 2203 2308 2216 2261 2272 2259 2267 2316 2197 2237 2235 2212 2257 2253 2260 2236 2284 2172 2204 2316 2213 2289 2284 2378 2212 2251 2285 2253 2238 2280 2206 2320 2170 2293 2227 2269 2248 2302 2231 2249 2135 2226 2301 2176 2253 2148 2230 2278 2238 2303 2249 2327 2214 2262 2255 2297 2325 2180 2272 2230 2213 2293 2231 2287 2243 2259 2316 2219 2287 2239 2296 2289 2218 2212 2304 2222 2220 2221 2128 2279 2204 2275 2217 2215 2260 2215 2224 2315 2239 2279 2188 2249 2235 2312 2213 2230 2246 2267 2193 2259 2270 2319 2172 2287 2207 2280 2141 2303 2345 2330 2215 2202 2214 2264 2245 2109 2273 2154 2189 2199 2318 2237 2178 2145 2189 2268 2228 2211 2290 2242 2121 2198 2232 2215 2251 2157 2120 2172 2203 2202 2167 2194 2251 2204 2201 2119 2176 2243 2103 2103 2144 2154 2142 2137 2208 2134 2153 2192 2135 2093 2147 2086 2267 2163 2093 2175 2086 2197 2100 2075 2099 2081 2059 2084 2058 2077 2077 2098 2057 2085 1989 2087 2027 2032 2058 2075 2046 2024 2110 2014 1999 2117 1966 1981 2017 1978 1969 2039 2069 2008 1997 1985 2005 1928 1945 2001 1962 2001 2005 1977 1982 2011 1903 2017 1904 1987 1904 1876 1904 1958 1974 1920 1925 1783 1916 1767 1880 1907 1905 1851 1907 1879 1918 1904 1885 1803 1848 1844 1837 1799 1784 1766 1778 1766 1802 1846 1783 1856 1861 1760 1759 1761 1831 1803 1787 1748 1801 1644 1789 1778 1806 1808 1690 1767 1709 1762 1761 1733 1724 1704 1736 1783 1726 1652 1717 1701 1661 1669 1666 1636 1664 1652 1649 1692 1666 1731 1753 1599 1731 1627 1746 1625 1701 1622 1583 1743 1652 1679 1615 1591 1638 1558 1641 1599 1604 1589 1707 1560 1605 1605 1558 1621 1615 1663 1614 1601 1577 1663 1604 1625 1610 1622 1588 1625 1465 1581 1549 1606 1618 1600 1570 1579 1510 1676 1578 1573 1569 1522 1617 1568 1624 1586 1570 1585 1597 1586 1596 1516 1615 1536 1564 1502 1551 1426 1645 1527 1535 1547 1559 1557 1531 1589 1600 1601 1599 1560 1611 1615 1591 1576 1544 1497 1492 1555 1557 1520 1657 1558 1492 1549 1532 1533 1527 1516 1523 1569 1670 1559 1572 1607 1562 1487 1562 1558 1544 1540 1544 1610 1543 1539 1534 1523 1539 1560 1644 1559 1549 1587 1554 1636 1530 1570 1552 1529 1567 1520 1540 1574 1577 1474 1547 1496 1566 1539 1509 1599 1513 1548 1544 1495 1539 1546 1552 1531 1631 1572 1624 1602 1562 1536 1545 1583 1583 1630 1598 1547 1586 1551 1583 1586 1513 1602 1572 1455 1495 1543 1448 1555 1590 1602 1562 1550 1571 1455 1576 1545 1521 1565 1419 1510 1493 1568 1480 1569 1548 1463 1583 1458 1565 1479 1560 1590 1560 1564 1572 1518 1486 1579 1527 1469 1525 1517 1539 1509 1494 1525 1494 1541 1551 1642 1571 1583 1533 1507 1499 1485 1518 1552 1499 1479 1439 1518 1489 1475 1557 1498 1506 1520 1530 1475 1517 1548 1507 1564 1483 1486 1502 1485 1498 1496 1497 1491 1501 1526 1509 1522 1501 1486 1478 1521 1472 1418 1449 1430 1402 1458 1436 1469 1464 1409 1429 1418 1444 1517 1427 1369 1471 1466 1459 1448 1386 1381 1359 1416 1389 1406 1484 1409 1482 1361 1481 1352 1407 1356 1433 1490 1338 1346 1330 1402 1341 1407 1371 1434 1420 1375 1373 1394 1335 1346 1405 1289 1335 1338 1299 1346 1363 1375 1328 1430 1352 1314 1344 1356 1328 1271 1324 1260 1361 1376 1334 1330 1266 1239 1212 1252 1281 1267 1315 1286 1240 1230 1281 1241 1291 1283 1286 1310 1212 1336 1274 1301 1288 1292 1226 1224 1184 1323 1275 1238 1201 1235 1203 1305 1250 1225 1223 1251 1210 1257 1198 1224 1164 1255 1132 1213 1214 1229 1214 1203 1216 1247 1208 1202 1149 1193 1210 1242 1156 1205 1243 1169 1117 1190 1182 1231 1183 1195 1208 1180 1169 1191 1212 1172 1216 1215 1128 1184 1196 1195 1233 1228 1244 1173 1195 1213 1236 1270 1240 1248 1233 1236 1314 1251 1280 1281 1278 1316 1308 1255 1295 1283 1372 1327 1345 1361 1379 1323 1367 1282 1378 1305 1294 1238 1354 1289 1321 1212 1295 1253 1260 1260 1162 1202 1224 1202 1188 1186 1140 1181 1144 1134 1107 1114 1174 1160 1109 1159 1140 1086 1075 1099 1068 1112 1080 1117 1128 1134 1065 1073 989 1059 1024 1100 1013 1048 1050 1060 1001 1087 1052 1055 1069 1013 1107 1021 1064 1068 1013 1019 980 1091 1054 1036 1099 1021 1040 996 1064 1017 976 1012 996 1007 960 1045 1084 1041 1104 945 1062 1044 1013 1098 1060 1124 1063 1138 1158 1127 1158 1203 1179 1259 1279 1230 1280 1210 1331 1285 1292 1327 1305 1328 1335 1328 1381 1382 1376 1401 1467 1469 1529 1535 1587 1615 1590 1561 1590 1558 1616 1581 1510 1533 1564 1444 1453 1434 1443 1415 1427 1377 1398 1423 1386 1304 1340 1297 1313 1283 1293 1263 1296 1199 1235 1194 1179 1207 1127 1119 1136 1104 1120 1085 1101 1074 1118 1005 1052 1017 1025 1036 1017 1012 1017 968 1034 985 966 938 870 984 918 901 966 941 973 943 927 947 871 973 937 901 881 941 928 911 873 958 881 920 872 893 936 975 905 958 856 912 877 937 862 896 934 884 890 899 905 899 889 910 857 863 911 861 867 888 838 879 899 894 849 860 841 864 865 876 836 840 830 888 830 841 865 913 826 839 892 812 853 862 793 820 814 840 806 815 805 807 847 846 821 823 792 840 811 843 858 814 824 851 816 851 824 806 814 792 828 765 758 789 813 760 862 801 803 869 877 759 766 812 790 824 824 781 813 779 818 829 843 822 790 819 800 837 784 833 838 819 816 835 772 756 723 860 758 821 766 796 796 783 841 841 822 859 805 816 792 821 800 812 788 847 812 823 847 827 784 782 793 800 802 845 803 838 852 819 834 811 785 789 827 841 813 851 855 838 886 771 758 791 913 847 909 848 820 824 819 858 962 838 931 897 852 865 896 863 895 909 880 905 937 925 882 881 935 899 907 954 900 944 932 932 886 950 893 909 927 921 942 930 894 923 946 908 929 953 945 854 912 906 883 898 919 835 924 844 917 902 912 873 900 842 875 785 834 867 746 840 824 894 863 818 830 855 818 845 863 891 878 914 878 903 831 884 933 899 859 859 887 909 861 902 843 952 926 952 950 920 908 859 868 963 913 896 914 907 872 882 828 863 859 851 848 844 839 896 867 866 862 893 925 876 875 876 882 812 911 827 831 789 824 807 831 846 816 866 821 839 860 842 842 804 756 813 848 825 792 841 823 839 849 879 817 825 847 889 889 904 909 942 935 943 1002 1009 1037 1121 1171 1151 1233 1258 1258 1377 1375 1488 1384 1490 1432 1501 1500 1564 1648 1639 1653 1623 1651 1638 1709 1701 1798 1729 1898 1985 2052 2063 2148 2191 2250 2139 2309 2374 2465 2294 2349 2428 2302 2340 2241 2153 2152 2046 1979 1859 1902 1883 1803 1688 1554 1607 1515 1519 1483 1413 1337 1372 1354 1270 1262 1230 1239 1104 1251 1159 1161 1138 1203 1069 1044 1049 1039 1002 988 1028 1007 972 998 995 974 1005 963 974 1018 939 957 967 935 927 932 945 928 933 944 921 894 863 895 865 849 780 830 811 843 803 815 763 749 784 768 794 796 737 778 731 739 690 714 739 748 667 671 721 748 711 764 676 707 718 641 705 691 735 732 765 745 688 732 731 690 694 671 693 683 686 687 685 644 706 709 718 657 674 645 660 685 729 711 701 696 685 676 713 680 666 684 700 702 710 717 666 689 668 697 655 675 701 665 684 714 620 681 665 668 683 662 632 663 716 666 722 702 676 694 708 695 686 629 676 614 665 605 615 685 644 645 695 633 651 659 674 673 643 644 663 650 640 648 664 637 654 620 675 628 659 668 690 661 644 681 665 646 648 637 628 630 665 631 665 685 685 638 594 659 679 657 636 641 628 640 640 601 642 679 619 616 605 633 619 601 591 659 595 654 607 608 627 593 613 667 607 655 647 595 629 622 600 614 641 618 592 584 588 596 586 635 562 578 628 606 626 612 616 631 654 599 619 647 652 630 641 597 649 625 610 586 628 588 633 625 613 634 612 603 557 615 611 627 632 634 646 628 624 584 582 658 585 624 602 590 607 602 597 617 574 647 584 652 604 570 617 556 599 553 637 584 560 630 627 601 627 617 565 602 624 609 584 599 609 626 615 541 583 594 557 600 600 593 611 614 548 557 537 566 563 584 564 598 540 659 536 560 558 557 623 554 598 543 574 561 608 538 607 590 592 559 557 524 544 607 583 614 575 546 561 571 533 534 570 578 552 552 606 602 570 550 581 579 612 570 550 555 529 624 589 590 536 571 546 581 594 583 582 565 537 610 566 566 575 568 540 599 568 500 569 587 574 569 553 544 578 563 577 511 593 515 584 563 547 571 581 585 599 563 560 569 519 500 540 540 568 537 560 575 558 543 588 568 540 575 560 537 575 550 542 566 547 577 523 520 573 556 553 540 515 601 537 540 498 555 578 541 516 533 573 512 578 558 593 502 554 531 523 552 528 551 542 560 511 529 548 564 545 552 546 533 539 537 561 538 526 572 584 573 574 559 517 550 584 521 578 515 521 555 606 528 566 540 558 532 524 543 576 535 552 572 512 537 510 551 542 539 522 510 556 535 515 554 609 542 543 569 547 512 532 522 558 516 514 517 576 514 576 548 550 552 569 515 565 599 573 551 574 550 517 571 589 520 516 558 542 587 540 539 576 556 544 506 506 529 533 527 558 539 560 529 553 581 545 492 566 514 508 529 530 548 520 518 514 545 535 530 505 547 507 552 530 485 495 518 550 530 537 563 488 507 523 577 535 537 538 528 508 571 531 499 507 517 516 522 544 505 527 529 532 479 521 520 520 494 538 471 537 495 535 541 542 535 523 512 544 502 533 530 523 508 506 532 503 543 546 524 543 478 489 509 513 518 544 542 493 511 544 502 531 482 548 531 531 503 563 526 530 529 543 541 524 536 559 519 538 477 487 509 513 505 553 528 499 509 541 527 538 470 580 535 553 536 520 504 444 522 552 512 494 534 514 518 552 527 511 520 554 477 512 540 503 508 539 503 497 512 509 501 535 530 507 534 550 542 486 532 551 516 521 539 535 514 512 511 517 534 544 539 537 553 502 524 521 525 521 476 525 528 493 530 503 487 517 528 523 521 592 496 521 546 565 527 536 536 562 533 558 542 519 516 508 505 513 541 547 535 547 555 488 528 559 546 554 543 523 513 518 531 484 529 564 547 517 527 553 523 536 492 532 559 485 512 491 527 507 501 522 531 511 549 528 530 509 484 525 474 505 517 514 499 484 515 505 482 543 524 520 515 492 536 476 515 448 502 504 521 503 468 540 513 491 473 490 515 527 529 543 557 468 503 489 535 505 515 508 533 482 529 466 507 517 506 506 462 499 495 502 508 535 524 515 485 507 508 527 509 490 494 464 492 488 484 482 511 523 521 498 530 537 484 511 545 489 534 492 517 522 470 522 556 485 507 488 486 534 543 479 526 499 556 516 564 490 526 483 518 524 513 541 512 521 493 541 484 510 503 506 516 486 504 487 499 540 558 491 500 528 531 520 522 531 556 514 572 544 582 544 540 531 540 543 558 536 523 547 562 537 563 499 521 561 546 473 540 550 535 588 587 524 582 559 600 564 581 565 611 585 609 606 583 591 589 642 585 627 635 607 597 600 611 630 579 577 594 600 607 548 548 552 551 554 618 576 527 556 494 541 531 543 533 465 504 510 550 493 545 482 523 514 508 514 496 499 528 501 517 471 496 461 510 512 484 470 507 510 457 514 498 504 492 481 456 473 487 479 450 457 517 479 486 507 450 465 494 504 456 480 459 498 474 476 507 492 473 479 481 431 504 515 522 498 479 492 457 468 451 484 471 468 447 491 489 480 458 485 446 516 496 466 487 447 462 448 486 459 455 488 494 473 460 487 495 441 438 450 428 471 422 506 433 484 454 492 439 465 467 469 452 530 454 482 477 466 453 490 497 475 444 432 433 468 462 467 464 470 497 452 460 449 410 448 441 459 430 434 446 455 466 480 451 422 470 460 453 459 472 451 478 460 463 458 477 422 472 485 493 490 454 458 439 461 460 469 423 460 463 436 462 433 483 434 465 454 447 435 456 450 460 466 467 476 435 479 449 475 477 474 408 467 452 464 470 454 456 436 484 471 440 481 462 483 424 463 448 453 481 435 453 464 466 492 489 453 449 449 463 434 411 416 437 468 419 482 425 459 414 446 407 499 475 450 478 458 455 469 453 388 470 484 448 432 461 427 495 463 448 432 442 463 433 441 463 450 471 463 489 455 474 469 457 455 464 444 440 439 424 461 514 471 481 488 449 439 451 472 474 465 476 448 436 449 449 456 462 466 420 443 442 408 468 457 451 457 438 455 469 448 466 502 505 491 501 480 512 479 496 518 523 503 515 501 535 521 550 548 591 551 586 596 611 610 614 642 694 693 701 732 735 632 707 674 705 686 759 714 767 733 789 763 768 835 767 744 796 793 808 804 809 785 766 719 826 781 845 865 882 920 893 986 950 1019 1044 1069 1123 1070 1142 1106 1111 1125 1131 1080 1051 1067 1146 1094 1035 1025 1035 964 957 957 899 876 920 822 774 874 731 752 706 694 698 686 640 650 656 740 655 632 664 642 636 700 658 616 644 629 646 594 638 626 565 563 559 590 567 575 587 559 554 543 520 500 557 502 512 468 542 516 515 482 519 492 482 460 508 502 500 472 505 453 494 477 497 513 529 479 490 426 488 481 472 442 495 482 448 460 511 458 518 449 449 445 481 485 505 456 478 455 454 459 472 466 469 461 433 428 440 456 444 434 423 469 427 433 442 430 434 457 447 447 420 456 406 429 417 395 386 452 445 428 428 447 435 448 411 423 384 369 417 419 416 398 425 408 425 439 401 436 407 432 486 436 426 377 417 406 443 404 388 426 441 402 414 442 405 463 413 414 435 431 434 420 396 486 427 437 402 439 444 455 424 469 424 457 434 441 410 478 443 454 458 437 468 410 491 422 424 459 434 420 450 470 449 494 461 420 430 476 470 459 445 441 450 461 509 488 496 499 518 484 452 511 464 514 481 491 512 507 500 523 526 508 518 485 591 542 525 564 549 561 533 579 544 555 572 505 548 529 523 472 536 500 512 514 453 559 449 478 434 465 413 454 482 436 446 454 423 453 408 445 452 477 446 453 414 410 423 411 453 400 416 415 435 468 397 393 425 395 412 372 419 450 394 404 408 424 402 417 407 410 373 404 405 418 423 430 385 407 421 388 399 381 405 419 375 431 405 404 390 384 397 434 420 393 413 395 388 383 403 403 416 378 376 372 415 394 413 383 408 415 446 445 411 419 339 405 395 415 383 391 382 364 407 421 413 381 428 378 360 393 378 349 414 369 424 350 395 377 394 442 432 401 377 416 370 418 359 392 382 390 362 364 386 383 370 383 334 410 399 408 421 369 404 374 380 382 379 377 384 369 373 367 375 414 402 404 400 370 398 385 372 388 406 370 382 389 372 332 391 374 357 356 357 358 385 366 377 386 357 370 385 358 365 373 385 380 351 371 380 376 385 409 394 375 420 448 424 363 409 367 432 389 363 357 388 340 400 397 406 344 358 403 405 419 392 438 404 410 388 412 394 399 384 422 403 405 425 384 408 406 393 412 413 380 393 385 396 390 418 375 384 354 361 367 398 418 408 382 392 400 357 350 347 370 347 360 352 381 344 365 350 391 349 393 356 334 350 344 340 398 368 390 350 364 354 362 359 397 378 378 341 394 357 398 359 344 392 380 382 367 347 377 365 336 387 364 389 368 381 367 387 372 334 388 355 355 402 367 387 398 383 351 383 346 343 356 338 365 353 382 362 378 377 373 391 370 358 351 415 362 367 347 367 404 354 398 346 374 390 417 376 345 361 353 370 367 366 368 387 357 353 348 361 362 394 341 412 343 391 369 360 383 364 370 391 373 385 374 393 371 365 381 361 372 388 359 391 365 387 345 388 366 352 368 385 357 369 345 401 366 361 373 341 347 337 355 355 318 392 365 357 367 386 354 372 344 382 341 342 342 378 381 368 350 364 345 374 363 343 388 348 327 324 343 359 371 358 343 381 353 355 362 348 340 367 350 360 358 333 360 376 376 337 341 364 355 352 392 322 346 353 356 386 325 393 287 351 368 353 365 369 374 370 359 355 355 377 346 358 335 340 392 361 367 355 371 351 336 346 358 359 362 320 355 359 369 356 362 363 310 375 376 373 310 362 369 356 313 350 349 375 320 344 359 344 346 345 373 359 353 339 357 342 367 355 341 364 401 329 373 366 410 337 344 355 348 351 388 353 380 368 375 387 366 357 352 352 355 372 366 342 366 402 390 393 417 388 399 359 408 372 356 357 397 383 390 370 402 373 381 375 370 418 399 371 376 391 356 354 353 350 371 355 359 397 374 396 409 390 362 383 415 419 389 358 374 392 383 423 370 376 406 407 389 367 392 408 397 390 430 388 431 420 409 427 426 450 388 413 400 430 448 419 425 407 426 409 414 421 409 400 445 405 400 384 357 376 390 396 364 362 359 362 376 360 349 356 339 362 381 354 349 363 343 381 331 386 352 374 361 378 354 357 329 374 363 361 348 381 349 375 326 355 360 395 328 359 316 378 367 398 364 326 366 384 353 341 379 319 393 386 366 336 350 345 332 397 336 351 338 325 352 347 330 348 344 355 351 331 361 325 339 315 348 343 368 327 337 335 328 309 354 355 337 356 345 300 333 348 320 331 399 360 362 326 328 307 358 374 343 301 338 315 360 312 315 317 344 376 342 368 366 367 331 334 343 345 351 349 335 319 323 367 368 361 358 310 359 336 368 318 330 347 311 330 345 369 337 340 373 336 341 299 388 332 344 335 349 342 349 339 348 339 373 353 324 362 349 342 385 302 330 324 315 352 293 353 352 316 343 362 340 376 326 363 348 327 363 346 382 371 406 368 358 365 364 382 388 369 349 353 375 385 368 376 360 385 393 356 409 421 406 423 392 382 375 420 402 409 384 371 377 382 411 368 418 369 414 371 413 378 397 389 403 428 388 382 432 406 443 407 419 408 428 415 448 449 432 459 479 451 449 445 445 451 475 432 452 430 458 460 407 420 450 404 447 419 438 434 412 428 440 429 399 401 368 367 340 378 376 376 384 372 341 317 362 369 354 369 349 362 397 397 371 352 350 331 348 367 335 383 378 395 367 388 313 363 361 353 358 324 344 342 343 366 395 347 326 370 348 399 357 397 342 344 310 372 338 371 291 336 360 292 345 337 321 322 326 329 348 325 322 353 328 334 344 335 346 333 335 354 373 300 348 306 348 299 336 346 314 331 300 325 316 308 304 306 329 327 332 318 343 347 342 362 340 355 313 353 341 322 323 331 340 329 344 334 351 323 317 343 333 325 307 321 346 355 318 338 333 346 346 337 324 353 322 357 336 356 373 351 353 362 334 338 354 330 364 316 340 365 326 338 357 324 354 359 339 350 348 343 368 353 341 391 381 354 346 350 346 372 319 343 347 381 386 363 357 383 328 354 360 376 321 357 360 339 354 334 362 333 351 301 350 329 350 354 313 325 332 326 314 322 321 332 347 327 336 341 315 350 364 339 306 296 317 346 321 332 332 307 309 313 297 319 310 301 342 360 302 313 335 330 307 339 296 309 289 307 331 328 317 335 298 336 278 289 333 364 301 326 325 316 276 317 299 299 329 296 313 332 296 327 324 319 304 323 340 322 333 300 328 299 333 312 305 309 286 290 325 287 320 329 332 325 307 336 296 333 294 333 284 287 354 291 323 298 324 330 296 287 337 283 325 301 317 275 321 322 308 313 303 313 303 328 296 324 294 308 280 276 280 303 289 312 298 327 295 320 286 289 308 310 296 331 284 301 266 287 343 286 280 289 282 299 275 284 310 264 276 286 300 270 302 302 321 297 318 297 340 293 297 312 277 297 290 322 285 271 317 266 318 292 290 296 310 285 292 310 314 327 297 270 304 305 312 309 278 346 297 312 359 312 308 281 293 318 298 308 307 261 314 298 311 277 316 321 314 296 295 290 341 272 301 267 290 294 282 315 295 278 295 299 307 286 300 316 293 324 287 278 321 266 289 336 282 285 301 310 327 307 303 310 321 313 275 295 314 320 296 300 331 313 309 357 289 287 274 295 312 248 299 307 273 316 290 303 305 330 324 290 316 292 317 280 300 267 310 322 277 295 315 281 294 283 352 281 298 307 316 295 301 323 291 309 261 308 317 291 301 301 324 308 280 277 262 299 267 329 298 314 315 285 289 317 292 276 310 291 271 308 274 296 285 297 290 307 324 312 311 329 296 301 289 292 273 292 289 330 296 297 263 320 282 311 301 305 292 277 309 305 303 322 289 298 298 304 278 294 319 262 297 273 274 304 286 297 287 325 291 291 293 299 313 287 289 303 326 315 286 295 288 296 319 275 307 309 299 267 300 311 278 325 287 297 283 294 310 296 311 323 293 291 309 312 331 286 270 280 311 320 322 288 296 281 309 306 287 309 266 311 280 275 301 314 329 286 287 285 265 289 299 294 332 291 303 308 304 302 306 305 315 340 303 281 321 292 299 277 298 302 299 286 293 290 310 319 294 306 307 308 309 310 291 288 292 302 310 311 313 306 275 279 311 302 317 315 311 324 289 288 314 291 295 319 324 334 267 268 298 308 297 338 314 303 313 300 317 325 278 315 277 344 317 286 297 276 273 307 316 315 297 316 306 323 303 314 291 287 317 310 284 269 332 277 308 309 317 298 276 289 274 289 301 305 286 300 299 285 300 325 294 294 317 302 264 292 293 268 303 330 310 287 326 330 307 301 270 282 281 323 273 294 320 292 294 282 283 301 281 290 292 320 333 311 293 302 271 310 295 290 321 301 322 296 292 289 297 286 292 299 277 281 308 293 290 305 270 315 282 304 297 286 301 257 292 282 297 308 281 303 302 304 308 285 277 266 306 287 302 298 292 276 285 282 283 287 286 261 286 257 304 299 317 288 227 300 288 270 294 282 289 284 296 299 328 331 291 299 274 251 284 278 308 311 259 278 269 284 265 306 288 309 272 267 299 284 270 297 333 271 305 322 287 285 285 246 307 273 317 263 289 307 287 291 299 263 308 272 272 283 295 257 297 269 302 274 291 305 301 273 307 295 326 294 289 281 282 269 305 289 336 306 317 303 293 272 300 314 269 315 305 332 324 292 308 304 296 313 316 324 327 340 331 325 347 294 310 285 286 293 331 309 319 314 359 297 344 307 351 315 294 325 295 306 285 302 312 318 283 325 345 326 324 313 335 307 312 353 306 322 318 302 355 316 330 336 324 312 334 287 338 349 344 316 347 378 329 333 340 338 315 334 325 347 333 310 352 357 321 361 301 361 308 359 325 350 338 350 308 277 309 309 313 288 303 317 287 330 329 308 286 313 295 319 303 289 300 315 289 300 297 293 272 303 303 270 285 302 310 298 296 290 278 294 291 288 302 277 300 290 299 270 280 298 303 304 292 297 326 280 284 274 288 264 289 273 250 276 291 277 292 300 301 303 327 310 274 313 287 262 293 289 265 267 280 271 272 289 231 305 277 314 299 289 284 262 317 294 285 283 308 265 310 279 295 278 281 293 298 262 281 321 269 295 291 281 267 263 320 271 286 282 291 283 293 269 297 271 283 268 325 297 309 289 280 284 261 302 261 298 299 266 283 264 261 256 285 309 269 283 301 290 281 268 284 270 275 300 301 272 299 269 296 282 298 270 271 323 263 298 295 283 273 285 284 281 266 292 290 282 294 264 301 306 281 299 274 279 286 267 295 299 289 328 279 277 295 247 280 280 322 282 281 268 278 318 276 284 272 288 300 298 325 283 300 279 250 263 302 286 286 273 285 320 276 292 278 306 326 262 288 278 311 304 289 294 300 270 273 264 279 257 293 303 304 301 287 290 292 290 278 314 297 295 269 288 292 309 301 292 298 290 270 299 279 247 289 278 257 313 304 290 269 261 299 314 291 287 303 284 283 311 302 283 310 262 325 284 298 291 271 284 300 301 310 281 266 277 271 277 290 296 315 276 261 276 269 286 266 279 265 295 315 281 284 288 303 282 259 270 272 310 309 310 309 287 286 271 309 266 267 308 279 272 329 294 281 267 323 304 295 282 291 276 282 297 307 266 285 302 313 320 296 256 299 275 293 289 287 303 283 295 298 319 277 275 296 293 261 289 279 274 316 327 306 280 318 305 327 276 299 293 311 277 294 311 306 285 287 286 312 284 266 300 280 284 286 264 313 318 294 302 287 300 271 272 278 287 300 292 300 275 298 284 265 266 277 291 310 274 287 311 305 289 294 276 286 306 289 260 304 297 287 296 280 277 315 275 312 278 284 270 272 291 266 276 296 325 334 336 262 285 268 267 273 289 308 278 263 292 289 287 325 305 303 298 283 297 319 276 276 263 292 287 329 305 290 250 271 290 307 281 305 313 305 274 297 290 329 272 302 282 308 259 307 298 274 310 301 311 302 288 326 322 263 293 265 299 317 319 299 293 293 288 294 331 303 305 277 325 303 290 279 285 282 299 337 305 297 280 291 302 310 277 310 288 293 247 278 282 288 300 301 290 280 313 290 282 292 273 295 310 305 317 278 303 283 287 263 308 299 281 288 296 334 304 324 308 346 311 301 292 281 283 318 313 279 297 283 282 309 321 293 299 311 263 311 303 306 322 311 322 284 282 310 296 302 317 287 275 277 298 291 306 308 287 321 295 313 314 328 291 295 317 323 300 320 319 284 308 300 334 275 312 248 305 323 292 312 301 313 300 332 337 308 319 330 289 300 290 278 368 326 342 288 309 317 312 298 339 331 318 288 307 302 337 294 290 309 315 318 298 307 327 371 313 303 314 295 347 317 317 294 315 319 301 329 306 321 310 319 300 328 312 301 313 296 315 290 287 285 313 320 347 303 310 290 306 306 302 298 313 303 304 308 317 273 318 309 315 317 316 308 320 321 343 311 338 296 320 317 291 310 304 283 318 317 339 337 318 305 302 325 326 322 304 300 310 265 250 300 284 287 299 280 305 316 286 266 323 320 300 295 299 300 307 273 301 306 298 301 307 313 333 329 288 317 311 334 323 335 320 326 313 320 295 298 273 307 277 314 282 326 309 316 303 302 291 294 328 290 338 284 284 315 297 293 327 283 334 316 277 292 311 309 298 312 309 319 325 319 291 297 314 315 272 334 333 318 343 265 330 341 300 345 298 275 301 281 317 322 332 294 301 316 305 308 309 279 290 306 287 324 284 318 321 315 323 318 294 352 300 339 343 318 352 336 296 324 321 316 314 307 334 350 326 320 340 318 350 332 307 343 316 321 346 340 333 342 323 366 343 326 327 306 360 324 358 340 365 365 328 331 356 353 313 330 340 351 337 327 340 333 330 330 355 316 341 340 330 314 315 379 315 325 358 368 345 342 352 345 343 351 344 389 364 358 361 379 388 362 379 349 372 360 395 401 389 377 373 361 356 376 362 353 353 375 385 409 362 334 365 349 359 328 398 337 353 374 362 351 351 355 352 323 354 375 344 366 329 339 344 361 322 297 329 341 324 310 296 359 331 319 333 314 348 335 334 333 321 307 334 285 301 311 308 314 308 306 316 300 299 328 297 311 323 297 326 305 310 331 325 360 326 331 311 302 308 307 326 294 337 302 329 260 317 316 318 330 308 330 320 319 290 321 310 321 320 297 312 302 308 339 341 326 296 312 333 299 306 266 309 307 291 300 295 303 342 261 345 278 306 299 287 313 326 325 322 289 286 276 298 311 301 295 318 303 310 317 289 327 311 299 303 299 330 310 307 300 267 310 332 280 299 310 311 282 287 296 286 296 316 312 315 295 335 266 287 318 287 297 295 284 341 320 311 313 304 309 284 300 339 290 281 308 320 291 280 298 307 262 287 339 291 312 304 291 311 330 305 308 291 299 285 289 278 286 308 299 264 314 271 313 292 305 298 290 280 302 290 284 308 280 277 288 264 309 278 315 304 262 278 265 290 270 334 306 304 295 301 291 240 280 279 323 293 308 284 304 284 302 247 295 297 271 278 260 315 263 305 300 281 292 283 291 281 279 309 269 300 312 283 277 305 260 309 298 313 303 303 292 248 258 269 269 308 285 283 271 262 286 285 278 304 281 262 314 280 309 291 268 240 287 297 287 284 282 295 319 291 274 342 258 296 293 312 299 244 286 298 270 298 282 294 285 291 313 328 292 265 284 275 340 297 317 317 287 278 314 297 274 301 233 276 292 278 317 280 306 263 301 296 314 307 298 299 285 284 282 291 295 322 303 261 294 294 301 288 291 326 291 284 312 295 278 308 288 272 271 306 268 309 303 304 290 303 285 306 286 298 280 246 282 271 286 288 262 280 293 289 293 271 282 282 266 312 289 303 259 313 284 286 260 300 290 264 292 274 287 291 249 280 264 300 275 280 293 236 277 280 301 275 285 264 280 277 291 276 242 249 292 285 281 250 291 266 308 294 304 277 291 317 312 289 306 275 275 269 268 290 248 320 251 225 250 247 273 296 292 306 290 264 279 258 290 249 301 274 282 292 266 286 277 277 261 283 315 285 264 269 287 245 288 286 278 289 292 265 260 302 269 268 283 261 266 281 278 258 287 245 259 285 263 282 280 313 301 221 323 297 295 282 265 263 280 269 285 258 270 288 281 290 276 263 263 247 232 277 277 241 271 265 302 276 276 277 256 275 299 289 268 284 248 281 301 259 311 272 289 228 289 240 298 235 269 278 282 257 293 298 285 295 279 267 316 264 281 263 277 277 269 291 274 268 278 261 327 259 274 257 264 267 268 287 284 298 290 245 276 283 269 262 282 275 247 272 277 257 271 242 256 281 282 278 273 297 285 298 256 276 284 298 282 312 248 276 289 233 262 239 278 287 282 265 284 322 301 276 274 281 278 273 276 281 278 286 290 274 280 257 286 280 296 270 285 275 287 287 280 302 308 262 266 288 278 277 275 268 290 270 276 292 247 250 295 249 270 286 262 270 284 271 263 263 280 243 289 259 233 305 270 292 284 261 268 264 263 295 273 276 283 292 278 265 282 281 264 244 279 259 282 243 275 247 282 305 279 247 273 279 248 241 266 274 258 264 274 247 268 293 270 250 296 282 293 267 249 268 283 223 257 280 248 285 249 273 234 271 260 250 266 234 285 274 279 240 259 250 290 283 315 271 248 274 270 268 260 275 246 284 295 297 263 276 273 256 259 269 301 256 273 288 305 238 269 257 273 306 299 257 270 300 295 229 259 265 281 277 262 281 296 258 283 260 284 249 264 239 285 263 278 285 267 271 266 263 287 284 269 298 288 296 291 297 301 259 274 292 285 287 316 288 270 318 299 273 313 284 288 284 291 308 292 277 331 257 334 303 285 295 305 309 309 276 280 289 277 328 315 297 273 348 292 243 318 287 315 316 286 311 287 302 324 297 286 320 292 278 303 281 285 279 301 296 287 283 292 298 318 269 287 292 317 277 282 291 300 293 322 269 274 305 324 289 289 310 341 323 288 336 351 305 293 324 289 304 311 308 318 320 343 337 297 317 346 337 305 278 308 311 294 320 312 303 299 284 311 291 355 295 278 288 320 311 295 291 309 314 305 305 293 300 298 280 317 320 304 289 288 327 275 292 275 312 310 284 296 273 275 262 306 265 273 326 272 279 284 284 270 260 277 263 289 259 273 249 287 277 315 269 317 285 279 290 306 242 276 269 282 269 288 279 326 289 297 282 293 274 268 258 257 256 280 292 262 262 268 278 277 233 274 262 318 270 280 240 291 276 287 313 295 289 289 272 322 277 269 275 243 240 278 246 285 261 297 241 277 284 279 287 261 265 282 281 282 265 243 285 271 280 274 274 266 275 279 278 301 245 304 276 264 250 272 258 297 288 258 274 264 287 257 241 287 270 237 282 286 284 282 276 266 259 299 243 265 265 315 242 282 275 287 275 249 262 243 276 242 257 265 260 274 243 270 242 273 279 288 250 248 273 261 271 259 291 273 284 257 258 274 286 275 272 268 226 247 248 280 308 294 237 268 261 265 243 279 282 274 292 269 275 298 268 272 276 295 245 229 261 272 261 231 289 249 278 239 258 272 279 262 275 284 267 250 273 292 266 246 261 260 281 262 275 237 236 260 268 246 272 245 258 235 280 281 265 273 262 270 293 250 256 249 264 229 265 218 285 300 272 231 258 289 285 234 247 248 245 224 261 265 246 261 244 257 258 276 249 274 282 268 268 258 278 247 274 241 267 275 250 264 236 222 225 279 257 286 243 244 273 250 245 272 279 275 240 216 280 292 248 258 243 277 256 257 246 248 241 249 300 265 240 278 261 241 266 264 273 293 271 258 246 256 229 239 277 274 245 269 270 265 294 287 261 269 250 262 260 292 268 292 263 272 242 258 273 287 271 243 277 245 260 256 247 278 288 267 261 280 257 257 268 235 257 269 276 241 251 232 274 265 274 260 244 245 270 263 293 298 283 293 262 234 240 240 270 242 291 286 257 285 274 273 247 248 270 243 257 268 257 264 268 266 231 227 249 247 247 263 248 256 296 264 274 258 236 275 243 259 300 235 277 226 264 242 276 260 243 273 250 247 245 282 243 256 249 315 271 258 259 244 244 269 246 282 262 260 244 271 245 228 268 246 260 240 275 240 229 216 280 287 273 293 283 266 266 261 269 218 236 258 247 235 248 267 296 292 289 282 250 261 251 250 310 239 248 248 229 272 277 277 271 275 240 238 245 287 270 279 274 257 274 264 290 283 272 250 274 236 287 258 280 270 223 257 268 256 277 262 290 277 259 291 242 288 286 249 269 281 271 270 301 272 268 275 275 258 280 303 237 258 256 204 232 222 238 263 281 263 261 262 270 275 270 248 289 278 257 226 268 296 275 265 232 287 271 272 262 266 247 286 284 274 288 256 284 273 261 301 257 278 262 279 258 270 291 256 265 244 240 273 244 232 250 256 297 259 278 256 274 295 269 264 263 245</counts>
			</dataPoints>
		</scan>
	</xrdMeasurement>
</xrdMeasurements>
