<?xml version="1.0"?>
<xrdMeasurements xmlns="http://www.xrdml.com/XRDMeasurement/2.3" xmlns:xsi="http://www.w3.org/2001/XMLSchema-instance" xsi:schemaLocation="http://www.xrdml.com/XRDMeasurement/2.3 http://www.xrdml.com/XRDMeasurement/2.3/XRDMeasurement.xsd" status="Completed" recordIdentifier="{F8CA0323-B7EE-4DB0-BCAA-311A19FAEF32}">
	<comment>
		<entry/>
	</comment>
	<sample type="To be analyzed">
		<id>GPSS_Li1p8Co0p7Y0p2Zn0p1Cl4_110325_69093a3ff040177efa2b52df</id>
		<name></name>
		<preparedBy></preparedBy>
	</sample>
	<xrdMeasurement measurementType="Scan" status="Completed" sampleMode="Reflection">
		<usedWavelength intended="K-Alpha 1">
			<kAlpha1 unit="Angstrom">1.5405980</kAlpha1>
			<kAlpha2 unit="Angstrom">1.5444260</kAlpha2>
			<kBeta unit="Angstrom">1.3922500</kBeta>
			<ratioKAlpha2KAlpha1>0.5000</ratioKAlpha2KAlpha1>
		</usedWavelength>
		<incidentBeamPath>
			<radius unit="mm">145.00</radius>
			<xRayTube id="1010048" name="Empyrean Cu LFF HR (9430 033 7310x)">
				<tension unit="kV">40.0</tension>
				<current unit="mA">15.0</current>
				<anodeMaterial>Cu</anodeMaterial>
				<focus type="Line">
					<length unit="mm">12.0</length>
					<width unit="mm">0.4</width>
					<takeOffAngle unit="deg">6.0</takeOffAngle>
				</focus>
			</xRayTube>
			<sollerSlit id="21010002" name="Soller slits 0.04 rad.">
				<opening unit="rad">0.0400</opening>
			</sollerSlit>
			<mask id="22031000" name="Fixed mask 13 mm">
				<width unit="mm">9.00</width>
			</mask>
			<divergenceSlit id="22120001" name="Divergence slit 1°" xsi:type="fixedDivergenceSlitType">
				<distanceToSample unit="mm">50.00</distanceToSample>
				<height unit="mm">1.52</height>
			</divergenceSlit>
		</incidentBeamPath>
		<sampleMovement xsi:type="spinningSampleMovementType">
			<spinnerRevolutionTime unit="seconds">1.0</spinnerRevolutionTime>
		</sampleMovement>
		<diffractedBeamPath>
			<radius unit="mm">145.00</radius>
			<antiScatterSlit id="22090040" name="AS slit 9 mm (PIXcel)" xsi:type="fixedAntiScatterSlitType">
				<height unit="mm">9.00</height>
			</antiScatterSlit>
			<sollerSlit id="21020003" name="Large Soller slits 0.04 rad.">
				<opening unit="rad">0.0400</opening>
			</sollerSlit>
			<filter id="20030001" name="Large beta-filter Nickel">
				<material>Ni</material>
				<thickness unit="mm">0.020</thickness>
			</filter>
			<detector id="7010019" name="PIXcel1D-Medipix3 detector" xsi:type="rtmsDetectorType">
				<phd unit="keV">
					<lowerLevel>4.02</lowerLevel>
					<upperLevel>11.27</upperLevel>
				</phd>
				<mode>Scanning</mode>
				<activeLength unit="deg">5.542</activeLength>
			</detector>
		</diffractedBeamPath>
		<scan appendNumber="0" mode="Continuous" scanAxis="Gonio" status="Completed">
			<header>
				<startTimeStamp>2025-11-07T10:33:25-08:00</startTimeStamp>
				<endTimeStamp>2025-11-07T10:41:33-08:00</endTimeStamp>
				<author>
					<name>AutomatedUser</name>
				</author>
				<source>
					<applicationSoftware version="1.7b (136)">PANalytical Aeris Instrument Suite</applicationSoftware>
					<instrumentControlSoftware version="3.2.00000000 20240306">AERIS</instrumentControlSoftware>
					<instrumentID>950485</instrumentID>
				</source>
			</header>
			<dataPoints>
				<positions axis="2Theta" unit="deg">
					<startPosition>10.00943322</startPosition>
					<endPosition>99.99442286</endPosition>
				</positions>
				<positions axis="Omega" unit="deg">
					<startPosition>5.00471661</startPosition>
					<endPosition>49.99721143</endPosition>
				</positions>
				<commonCountingTime unit="seconds">12.495</commonCountingTime>
				<counts unit="counts">2916 2981 2900 2969 3050 2900 2879 2934 2983 3013 3054 3084 2940 2992 3013 2956 3074 3056 2865 3138 2985 2976 3091 3042 2968 2977 2899 2923 2880 3076 3024 2919 2987 2962 2992 3032 3078 3021 3081 2949 2978 2880 2898 2994 2954 2905 2997 3007 2921 2942 2924 3064 2946 2976 2918 2985 2975 2985 2883 2990 2968 2959 2997 2922 2978 2910 2957 3005 2893 2888 2947 2939 2886 2916 2933 2946 2980 2878 2898 2950 2963 3024 2963 2934 2980 2901 2896 2919 2960 2940 2920 2983 2884 2959 2855 2921 2913 3020 2934 2924 2918 2952 2981 3008 3033 3026 2857 2937 2881 2985 2956 2973 2848 2915 2907 2901 2953 2920 2911 2850 2899 3006 2853 2987 2837 2931 2887 2974 2976 2889 2873 2851 2857 2926 2829 2806 2860 2904 2941 2925 2972 2982 2853 2786 2951 2952 2756 2927 2805 2875 2806 2791 2899 2848 2902 2836 2879 2819 2854 2899 2900 2931 2816 2872 2913 2875 2895 2832 2905 2910 2817 2867 2852 3004 2802 2826 2826 2899 2895 2950 2895 2883 2919 2843 2845 2849 2841 2847 2840 2941 2805 2789 2800 2864 2861 2831 2906 2850 2864 2884 2819 2832 2802 2763 2847 2873 2877 2874 2773 2836 2775 2789 2719 2743 2807 2802 2851 2762 2806 2847 2782 2868 2822 2786 2776 2812 2787 2744 2777 2717 2716 2732 2870 2765 2776 2727 2863 2781 2810 2792 2807 2813 2686 2757 2813 2774 2808 2802 2862 2870 2746 2795 2808 2746 2821 2785 2677 2793 2781 2777 2812 2869 2672 2883 2849 2803 2805 2830 2821 2800 2767 2740 2862 2769 2802 2801 2763 2791 2803 2817 2916 2849 2862 2884 2934 2830 2940 2884 2821 2813 2895 2905 2911 2973 2820 2963 2909 2917 2929 2835 2981 2882 2995 2801 2801 2934 2982 2951 2915 2994 2949 2929 2944 2928 3006 2986 2943 2989 2958 3015 2970 2962 2891 3068 3005 2990 2992 3040 3032 2941 3006 2919 3070 3094 2984 3032 3105 3092 3055 3031 2991 3036 2992 3187 3153 3163 2996 3167 3129 3070 3147 3110 3184 3202 3201 3099 3163 3176 3172 3190 3153 3251 3103 3224 3112 3161 3202 3272 3220 3283 3324 3142 3277 3303 3317 3263 3270 3232 3248 3202 3231 3302 3327 3285 3265 3312 3438 3375 3323 3254 3404 3318 3297 3345 3409 3458 3442 3299 3362 3312 3342 3339 3486 3450 3316 3475 3505 3375 3358 3378 3424 3375 3439 3432 3474 3472 3377 3383 3382 3404 3521 3511 3495 3617 3506 3486 3447 3542 3596 3532 3542 3815 3669 3716 3816 3874 3900 3813 4117 4128 4057 4045 4185 4180 4089 4004 4047 4000 3870 3938 3791 3860 3785 3830 3655 3772 3810 3720 3660 3715 3687 3682 3670 3715 3649 3713 3671 3706 3690 3673 3690 3623 3748 3642 3680 3723 3610 3581 3601 3572 3567 3559 3518 3689 3554 3526 3596 3543 3628 3575 3484 3545 3433 3306 3355 3332 3417 3363 3202 3352 3341 3313 3393 3271 3255 3278 3286 3267 3356 3210 3330 3353 3320 3236 3242 3341 3290 3225 3382 3251 3329 3337 3318 3301 3338 3322 3264 3279 3270 3249 3247 3301 3268 3301 3088 3306 3146 3226 3146 3237 3276 3084 3199 3155 3114 3234 3180 3189 3088 3133 3193 3121 3119 3132 3054 3036 3156 3050 3093 3098 3071 3032 3006 3030 2954 3140 3014 3053 3175 2904 2970 3031 2946 3097 3068 3043 3094 2991 2981 3017 3030 2996 2998 2985 3000 3025 2990 3034 3061 3006 3033 2930 2923 3041 2904 2976 2953 2946 2855 3023 2955 2967 2910 2908 3012 2983 2840 2894 3006 3069 3059 3056 2934 2989 2915 2969 3019 2913 2962 3002 2894 2905 3027 2945 2946 2974 2972 2945 2843 2880 2896 2929 2898 3026 2934 2874 2913 2863 2999 2853 2966 2961 2871 2985 2866 2946 2975 2971 2992 3000 2939 2905 2944 3058 3030 2942 2902 2998 2987 2979 2957 2980 2978 2903 3022 2967 2951 2924 2968 3016 2857 2871 2953 2982 2893 2869 2930 2928 2834 2891 2849 2847 2898 2861 2981 2951 2797 2865 2926 2992 2904 2761 2866 2891 2927 2949 2785 2957 3015 2798 2953 2842 2938 2942 2894 2903 2852 2827 2868 2858 2821 2843 2858 2781 2833 2911 2859 2890 2896 2880 2823 2839 2844 2903 2722 2807 2893 2802 2798 2747 2885 2825 2870 2861 2924 2728 2811 2847 2863 2859 2912 2867 2912 2839 2783 2769 2834 2824 2882 2752 2730 2694 2884 2779 2814 2743 2728 2748 2736 2923 2876 2801 2719 2837 2701 2850 2809 2808 2728 2837 2749 2731 2812 2892 2725 2827 2859 2772 2827 2804 2761 2765 2763 2813 2760 2832 2707 2809 2732 2869 2770 2742 2669 2686 2807 2840 2819 2766 2845 2760 2788 2808 2829 2765 2767 2696 2802 2761 2800 2811 2759 2700 2726 2755 2772 2751 2734 2771 2845 2788 2811 2769 2647 2720 2732 2696 2691 2741 2675 2695 2746 2728 2762 2692 2674 2658 2731 2750 2797 2732 2729 2606 2603 2714 2696 2717 2666 2711 2779 2688 2648 2754 2780 2591 2722 2656 2775 2533 2609 2629 2678 2662 2795 2648 2651 2647 2756 2689 2602 2620 2627 2696 2581 2622 2673 2640 2614 2567 2580 2659 2610 2597 2693 2608 2750 2731 2695 2642 2594 2618 2646 2632 2620 2440 2648 2650 2551 2685 2563 2624 2680 2657 2536 2599 2557 2598 2655 2647 2607 2547 2718 2560 2592 2570 2629 2610 2622 2634 2594 2539 2590 2587 2600 2533 2546 2627 2516 2586 2543 2699 2524 2513 2587 2604 2485 2628 2575 2553 2682 2520 2623 2559 2490 2446 2468 2475 2638 2464 2592 2576 2516 2539 2457 2444 2526 2579 2558 2551 2463 2587 2550 2514 2536 2616 2548 2615 2554 2567 2618 2575 2472 2465 2586 2462 2533 2594 2555 2615 2540 2557 2494 2520 2506 2571 2468 2513 2525 2584 2519 2565 2539 2591 2530 2507 2538 2470 2520 2558 2547 2520 2542 2536 2516 2574 2520 2457 2525 2464 2548 2520 2578 2532 2555 2631 2546 2599 2517 2541 2629 2462 2486 2576 2431 2629 2512 2579 2532 2535 2434 2585 2504 2551 2569 2585 2486 2451 2592 2550 2535 2505 2519 2483 2567 2504 2570 2586 2485 2517 2422 2509 2546 2566 2546 2495 2544 2611 2603 2617 2586 2565 2612 2555 2618 2498 2496 2577 2540 2531 2500 2568 2539 2540 2445 2508 2527 2466 2560 2466 2537 2527 2500 2470 2531 2494 2499 2516 2483 2543 2585 2532 2489 2556 2536 2493 2418 2543 2574 2590 2496 2531 2400 2534 2473 2518 2527 2489 2511 2481 2464 2518 2514 2505 2476 2555 2500 2473 2512 2395 2553 2511 2507 2460 2433 2481 2503 2488 2445 2546 2437 2467 2519 2413 2381 2415 2447 2353 2469 2390 2389 2447 2536 2446 2367 2333 2403 2463 2350 2439 2416 2462 2338 2444 2481 2446 2353 2452 2358 2465 2384 2318 2317 2357 2342 2378 2415 2417 2353 2405 2252 2365 2300 2380 2343 2370 2287 2359 2367 2317 2353 2270 2339 2278 2278 2234 2360 2246 2216 2168 2223 2222 2232 2128 2257 2234 2347 2162 2294 2188 2197 2307 2197 2202 2136 2260 2230 2106 2197 2210 2242 2278 2235 2176 2086 2206 2184 2135 2138 2191 2272 2091 2118 2139 2126 2210 2172 2180 2062 2115 2084 2143 2101 2102 2049 2149 2127 2142 2104 2123 2030 2107 2049 2116 2052 2118 2068 2151 2052 2021 2077 2056 2050 1989 2125 2012 2108 1963 2024 1988 2007 2069 2113 1976 1971 2023 2043 2005 2009 2055 2003 1946 1982 1970 2012 2046 2008 2031 1989 1944 1985 1967 1950 1968 2013 1993 1961 1915 2064 1973 1968 1880 1957 1955 1931 1978 1920 1935 1885 1905 1880 1921 1932 1943 2013 1953 1919 1960 1977 1933 1867 1953 1992 2104 1976 1862 1921 1941 2018 1991 1995 2024 1940 1954 1919 1993 1924 1981 1911 1925 1980 1950 1872 1990 1990 1945 1920 1956 1910 1910 1982 1991 1969 1909 1881 1974 1907 1968 1965 2001 2018 1926 1949 1911 1930 1962 1875 1889 2007 1993 1959 1919 1895 1959 1922 1901 1859 1937 1880 1950 1940 1970 1912 1883 1823 1843 1859 1911 1887 1947 1890 1934 1844 1940 1887 1883 1906 1897 1873 1899 1908 1835 1837 1931 1901 1879 1912 1948 1823 1899 1876 1810 1907 1870 1891 1877 1798 1866 1864 1899 1860 1888 1860 1870 1854 1839 1806 1853 1892 1834 1915 1896 1884 1841 1829 1885 1921 1862 1799 1883 1927 1874 1925 1894 1925 1869 1886 1895 1854 1826 1872 1920 1945 1833 1896 1837 1831 1947 1831 1957 1831 1861 1869 1821 1834 1857 1888 1832 1925 1852 1968 1823 1901 1865 1894 1783 1827 1873 1883 1909 1908 1870 1879 1846 1909 1837 1936 1852 1846 1854 1860 1881 1924 1824 1819 1860 1891 1844 1777 1865 1886 1789 1842 1920 1865 1884 1802 1856 1868 1820 1821 1889 1850 1856 1850 1877 1849 1832 1857 1781 1839 1917 1853 1806 1810 1844 1791 1846 1843 1819 1732 1789 1853 1834 1793 1813 1867 1801 1900 1824 1864 1825 1822 1821 1832 1772 1874 1784 1769 1702 1784 1720 1770 1754 1800 1830 1836 1772 1728 1765 1730 1739 1728 1767 1700 1809 1743 1790 1724 1719 1688 1779 1777 1647 1765 1750 1747 1752 1734 1730 1760 1730 1710 1636 1699 1685 1731 1781 1678 1574 1717 1681 1583 1656 1754 1652 1702 1652 1657 1764 1619 1629 1695 1675 1628 1643 1582 1660 1605 1667 1619 1683 1673 1676 1674 1595 1600 1656 1611 1645 1544 1552 1656 1610 1665 1509 1582 1477 1475 1639 1607 1646 1641 1614 1590 1567 1627 1542 1584 1603 1586 1615 1610 1623 1551 1525 1551 1555 1527 1571 1578 1637 1614 1511 1556 1524 1512 1568 1635 1621 1492 1646 1542 1631 1481 1557 1564 1496 1517 1495 1475 1488 1548 1453 1534 1484 1517 1479 1449 1523 1468 1539 1457 1516 1524 1544 1441 1473 1495 1532 1459 1543 1483 1474 1453 1467 1501 1477 1468 1429 1481 1460 1462 1422 1452 1482 1454 1447 1448 1427 1465 1430 1480 1371 1498 1403 1479 1538 1467 1534 1424 1526 1547 1434 1471 1493 1493 1481 1531 1565 1556 1472 1573 1531 1490 1474 1489 1464 1531 1518 1435 1436 1547 1444 1457 1458 1487 1525 1555 1562 1509 1521 1534 1519 1543 1567 1525 1630 1537 1472 1483 1564 1454 1549 1479 1532 1413 1486 1402 1478 1420 1405 1442 1342 1462 1411 1512 1413 1385 1393 1445 1416 1347 1418 1412 1442 1435 1381 1415 1365 1437 1402 1413 1417 1406 1382 1376 1426 1418 1360 1312 1405 1360 1402 1337 1351 1428 1350 1413 1296 1339 1328 1349 1343 1288 1385 1314 1315 1325 1322 1344 1302 1372 1345 1369 1419 1320 1250 1310 1272 1359 1347 1358 1385 1387 1333 1314 1315 1441 1397 1413 1408 1525 1437 1470 1447 1491 1526 1448 1525 1543 1529 1507 1538 1493 1544 1475 1512 1416 1482 1448 1497 1459 1477 1464 1430 1349 1460 1454 1489 1497 1502 1479 1455 1425 1342 1367 1378 1271 1307 1263 1314 1359 1252 1296 1256 1339 1301 1275 1264 1305 1287 1250 1224 1284 1223 1190 1253 1263 1199 1205 1267 1159 1228 1246 1263 1191 1272 1229 1180 1253 1232 1272 1243 1211 1180 1256 1231 1206 1173 1149 1222 1224 1175 1160 1180 1247 1157 1230 1181 1200 1193 1189 1181 1170 1168 1235 1233 1248 1181 1177 1221 1229 1157 1184 1244 1184 1242 1168 1318 1232 1224 1249 1230 1331 1288 1354 1273 1362 1335 1394 1426 1453 1486 1443 1583 1492 1520 1483 1514 1485 1589 1500 1392 1420 1441 1411 1384 1368 1332 1314 1299 1254 1334 1295 1224 1241 1166 1183 1152 1218 1118 1199 1201 1155 1140 1182 1088 1116 1172 1134 1192 1112 1176 1209 1199 1154 1151 1149 1130 1104 1171 1152 1212 1076 1114 1114 1169 1133 1188 1123 1171 1144 1124 1170 1157 1121 1159 1105 1109 1147 1074 1131 1078 1111 1103 1128 1150 1062 1098 1073 1101 1086 1124 1045 1115 1111 1102 1075 1088 1115 1048 1094 1097 1078 1038 1068 1089 1104 1052 1043 1055 1062 1094 1110 1046 1116 1024 1062 1118 1056 1047 1037 1083 1147 1135 1115 1049 1099 1010 1040 1099 1135 1072 1065 1118 1059 1067 1044 1059 1078 1032 1039 1056 1110 1062 1053 1031 1035 1113 997 1073 1004 1015 1070 1051 1015 1097 1062 1056 1062 1111 1066 1059 1057 1071 1048 1079 1036 1003 1042 1065 1004 1036 1066 1006 1021 1006 1032 1031 1016 1064 1026 1036 1021 1025 1056 1033 1005 1038 1021 988 1007 1002 1066 1012 1012 1087 976 1041 1046 1041 1001 1039 950 1022 1070 959 1042 1104 1030 1061 1074 1003 1049 1020 1072 1089 1047 1079 1017 1094 1060 1123 1136 1074 1048 1045 1010 1077 1092 1124 1085 1090 1071 1056 1073 1078 1088 1035 973 1041 1050 1064 1056 1037 1069 1005 957 1017 1083 1017 1044 1077 1071 996 1039 1029 980 1034 1000 1040 1004 1026 1085 1012 988 1057 970 1097 1035 1030 1007 984 1056 1082 970 971 978 1010 996 980 979 984 1001 1022 994 1019 981 1006 935 996 1000 1022 1013 1043 990 961 1021 931 996 997 1013 1067 1006 1005 1049 1080 1001 1024 1017 1036 1021 990 1036 1099 1098 1048 1093 1108 1065 1085 1111 1136 1125 1162 1206 1161 1224 1199 1279 1260 1292 1270 1411 1391 1385 1510 1499 1489 1569 1556 1612 1607 1753 1681 1697 1705 1710 1641 1659 1607 1729 1680 1665 1568 1584 1615 1592 1553 1597 1618 1680 1607 1635 1661 1713 1773 1676 1701 1694 1770 1711 1717 1683 1741 1708 1695 1627 1601 1492 1434 1462 1436 1439 1303 1375 1271 1249 1209 1121 1219 1176 1133 1122 1093 1176 1102 1149 1061 1090 1065 1030 1135 1086 1077 1074 1144 1098 1108 1090 1062 1048 1078 1095 1018 1069 1038 1074 1017 1033 1041 1081 1037 1030 1032 1065 1046 1002 1053 1043 1022 1018 1037 977 1000 976 1001 1007 951 896 938 1028 961 987 933 930 970 938 971 986 935 938 980 978 989 944 974 965 949 941 966 987 984 978 956 967 967 994 948 988 879 932 938 953 935 938 904 940 913 899 973 923 916 910 942 890 917 912 978 984 943 945 927 919 923 869 926 896 984 942 966 961 937 915 890 887 906 885 947 959 917 886 944 933 905 921 935 919 952 884 935 879 872 903 888 968 942 917 910 941 898 950 858 900 909 936 923 937 911 835 947 886 891 876 950 912 892 915 914 933 901 882 945 929 953 866 840 878 849 843 882 954 856 850 882 894 844 929 881 881 834 867 875 908 824 895 975 951 926 884 883 922 886 880 885 923 870 889 853 875 884 864 904 852 885 891 961 850 960 889 889 887 838 888 898 898 868 909 897 890 877 839 854 909 889 901 867 894 879 824 908 874 864 844 905 857 863 911 903 907 887 861 921 885 826 947 850 907 888 890 883 868 932 859 877 917 931 869 939 886 996 890 829 914 897 951 895 892 874 885 957 891 898 897 890 895 863 924 898 927 887 888 877 868 898 853 851 878 827 873 900 877 863 858 885 881 812 857 872 868 839 827 891 812 829 822 852 842 900 824 777 844 839 863 829 868 829 903 890 859 869 803 860 874 860 843 826 828 849 721 869 791 795 812 820 847 803 842 818 839 842 856 815 839 853 852 772 787 852 858 866 844 865 817 868 862 845 807 880 836 845 802 766 854 820 817 847 878 820 868 886 889 834 853 897 884 882 821 860 869 884 873 816 872 868 828 777 835 787 849 836 770 818 800 819 831 857 838 812 781 789 835 795 833 847 852 847 841 816 832 775 841 817 824 865 834 783 807 825 832 783 826 803 786 835 776 822 821 766 768 799 810 792 819 810 813 865 815 801 818 818 830 800 826 807 788 815 822 782 862 820 775 779 838 798 799 817 857 788 827 778 841 768 835 796 843 810 830 796 775 813 765 811 781 851 730 824 829 840 860 807 811 823 853 834 855 857 895 893 847 853 905 925 1036 957 971 970 956 967 946 973 856 922 960 980 926 907 898 879 894 859 847 913 826 854 865 879 813 820 764 801 793 795 791 829 875 781 835 843 825 792 797 811 768 805 750 850 815 854 789 795 774 796 808 771 792 780 801 818 753 795 814 763 807 765 793 816 831 814 810 778 792 737 818 791 781 825 803 825 798 755 756 786 843 755 749 808 803 754 796 822 764 846 769 762 830 782 768 767 723 771 783 769 750 815 770 826 733 790 713 770 811 778 785 773 787 843 841 815 783 744 721 789 746 779 809 772 722 755 741 822 736 709 737 757 726 760 754 777 744 762 775 760 747 743 781 793 736 780 809 744 839 793 775 765 758 732 746 807 798 753 817 788 772 831 779 785 792 765 789 793 791 768 769 797 792 783 768 764 767 801 779 789 791 777 800 794 846 800 786 778 743 769 736 776 742 814 779 779 791 761 756 763 795 791 722 747 806 799 786 758 793 794 745 780 762 761 808 742 744 764 765 750 757 768 813 844 784 717 743 796 819 790 730 756 743 751 776 748 744 808 723 743 723 705 782 726 741 773 725 790 766 755 762 799 785 728 732 764 696 769 769 808 738 768 785 752 712 787 795 757 776 727 730 753 774 732 791 748 771 734 725 713 779 758 731 720 785 761 766 694 706 720 765 726 729 767 755 775 716 715 790 781 729 777 757 756 743 688 734 746 792 771 790 764 747 801 724 756 768 709 704 700 741 721 764 683 776 791 745 725 773 705 726 751 738 723 701 717 730 684 750 735 709 761 748 735 742 744 742 722 754 734 673 715 672 717 769 750 705 744 684 758 694 779 735 672 708 694 696 751 719 715 698 677 643 718 738 713 755 744 721 742 754 681 712 738 681 756 671 728 766 729 702 741 705 718 727 724 700 755 736 676 788 768 718 753 745 660 699 723 692 738 670 693 753 698 723 716 714 733 727 714 784 686 733 682 710 737 698 715 711 661 767 688 708 695 735 715 721 755 723 789 741 756 722 778 743 697 735 688 718 721 750 747 729 724 748 749 723 760 703 721 742 725 764 750 779 700 739 791 746 720 676 693 786 718 766 773 777 734 780 754 754 782 839 725 756 744 751 754 783 751 739 761 759 738 755 740 727 775 749 747 745 745 698 738 724 746 738 693 736 719 730 751 711 740 692 752 685 711 713 680 707 714 706 668 723 731 721 705 699 747 666 687 653 725 676 756 648 727 705 712 686 786 661 701 665 645 703 680 690 651 705 707 654 706 683 692 694 675 683 701 761 692 724 695 706 681 684 661 724 729 704 684 672 687 740 696 671 679 657 652 687 688 680 717 747 655 655 722 696 656 704 690 682 687 685 679 693 723 699 700 717 734 718 673 692 686 705 684 708 708 662 712 666 709 706 640 675 669 676 731 745 679 678 634 698 659 651 714 673 651 675 631 725 691 693 711 696 663 669 679 703 677 679 680 687 678 653 669 682 740 659 683 656 701 719 656 658 707 662 692 643 687 682 695 708 698 656 691 682 689 652 654 686 660 690 700 692 652 745 676 695 668 783 734 681 713 687 674 665 716 636 688 658 709 687 632 679 710 752 625 669 665 685 669 722 694 692 698 713 648 684 697 685 640 725 679 657 649 672 699 658 730 683 729 702 740 779 713 735 727 773 745 730 682 727 741 723 754 729 731 717 715 691 755 661 731 718 698 742 722 657 704 637 674 675 654 708 733 651 707 746 656 699 680 648 726 661 663 679 660 678 722 687 699 679 638 700 712 668 661 712 676 644 699 671 677 627 621 604 650 617 642 654 656 678 637 688 687 658 700 655 664 661 668 674 626 668 698 614 660 647 680 679 655 653 704 646 660 649 656 662 651 638 617 654 670 714 677 691 677 666 644 671 621 681 642 650 687 693 708 705 660 698 703 648 710 698 700 698 720 717 752 703 707 745 721 710 651 692 782 741 740 694 722 721 725 750 742 714 715 819 807 782 785 824 846 792 838 853 855 862 770 838 802 782 843 843 767 782 797 773 855 751 788 729 802 725 738 720 744 711 733 696 730 678 682 684 736 707 648 676 679 698 719 658 684 707 678 678 658 708 635 710 730 684 712 705 715 680 726 673 711 660 688 653 723 699 721 629 660 669 685 687 679 630 645 694 651 683 651 693 674 667 662 666 642 621 619 645 644 683 691 638 713 700 665 637 674 668 643 661 653 717 622 677 639 634 669 675 590 703 673 670 632 677 624 662 662 641 649 697 671 667 618 656 652 674 644 666 661 619 611 606 657 659 680 602 637 625 663 615 660 583 641 653 591 650 650 630 642 595 645 619 624 663 627 642 643 634 648 644 636 614 655 626 680 613 605 562 663 632 641 633 607 632 585 597 605 614 628 614 621 601 626 654 624 638 610 643 607 601 647 629 612 588 612 600 656 620 625 557 621 656 601 667 625 608 616 600 597 607 596 604 615 659 577 668 608 641 650 646 613 609 624 622 643 663 649 674 654 679 629 636 686 716 691 655 690 683 677 695 647 635 625 645 665 684 684 659 616 642 618 663 641 652 649 643 578 634 624 627 612 652 644 645 619 683 619 615 654 592 653 617 675 645 628 671 613 684 633 657 638 658 652 714 676 618 649 619 650 605 676 649 688 628 631 616 672 577 630 648 621 647 631 620 631 648 647 611 663 656 638 625 657 650 622 624 634 630 640 622 584 585 607 632 625 662 607 629 602 614 624 629 591 583 626 607 567 581 558 596 624 615 623 615 638 600 601 592 600 614 573 563 583 605 613 554 565 578 616 589 596 586 610 612 582 616 584 583 599 607 592 610 565 620 614 589 553 597 620 603 611 571 572 569 615 630 549 610 552 592 615 594 581 617 619 604 607 560 568 575 594 549 635 607 605 542 582 602 578 585 561 603 566 586 586 583 577 554 588 600 609 583 594 572 593 556 568 603 595 554 584 594 589 566 594 527 574 556 589 609 567 536 554 555 582 607 513 585 597 615 573 551 592 581 573 602 604 594 603 569 592 608 528 587 536 620 623 596 583 557 625 548 621 581 582 577 530 569 577 561 549 607 546 577 568 557 625 594 604 596 543 564 565 534 631 603 583 623 561 578 616 578 565 597 563 544 528 553 581 573 554 559 581 562 581 613 586 550 566 583 556 586 545 583 576 588 523 547 521 549 576 573 593 566 580 595 608 602 571 554 552 582 564 569 568 579 583 575 575 582 556 518 592 572 550 582 604 568 592 590 590 572 536 582 570 581 578 561 559 568 594 574 619 542 555 571 550 566 524 605 585 587 561 578 556 568 589 547 580 557 565 584 548 560 566 564 596 563 593 618 571 576 568 523 533 570 529 558 522 574 538 564 552 564 542 525 517 575 563 523 575 577 577 585 586 587 517 579 584 583 559 564 560 528 565 533 564 511 601 552 583 524 537 575 557 525 558 597 533 589 550 580 536 560 561 619 541 556 539 553 561 536 550 592 565 520 557 602 527 568 558 578 604 566 601 577 571 605 584 493 530 536 516 545 594 532 533 602 580 579 559 563 534 541 548 550 580 535 588 579 551 550 568 579 532 590 530 577 580 536 557 545 534 563 622 586 539 554 539 556 582 556 569 549 544 563 561 607 547 556 570 519 546 562 565 569 511 547 571 540 566 554 563 554 553 583 519 552 528 576 551 517 561 544 552 526 521 527 508 591 546 543 578 556 531 535 559 534 526 536 566 556 544 554 572 562 575 520 501 552 546 549 586 528 522 544 508 559 566 524 583 570 552 539 609 588 560 568 571 590 599 577 568 536 525 549 587 574 563 532 537 566 533 567 551 567 572 549 575 583 508 554 541 554 556 565 561 540 560 547 582 586 591 501 569 505 532 541 553 546 587 546 587 531 542 567 565 583 542 586 592 561 571 556 533 559 588 581 564 563 586 594 548 635 544 578 575 572 557 579 554 569 592 577 567 546 543 577 580 582 605 586 593 541 564 585 578 526 578 584 608 545 548 543 559 554 559 544 553 466 550 517 553 525 583 530 493 543 550 568 568 557 528 542 575 571 565 595 572 542 553 573 538 539 568 521 492 527 555 557 533 532 521 549 524 541 518 579 569 503 575 572 566 569 556 523 553 527 548 495 591 587 518 560 502 528 524 537 539 463 520 490 527 509 555 500 550 550 546 517 522 509 547 532 507 535 545 536 563 500 508 519 502 516 537 506 525 554 512 467 506 560 521 530 531 555 536 522 519 548 543 499 542 547 509 517 506 487 533 567 528 527 522 531 550 543 501 582 525 517 561 498 536 497 517 524 528 538 525 507 525 510 544 529 514 564 480 537 533 548 540 511 480 481 503 497 546 475 486 530 554 517 495 504 497 537 530 533 538 552 552 498 534 530 528 519 502 513 512 505 526 552 499 529 547 529 469 501 512 496 535 513 523 476 531 526 576 520 538 518 504 509 494 533 521 473 516 535 516 535 519 555 561 482 552 483 546 557 534 520 521 517 547 486 576 512 548 570 514 521 503 536 529 468 559 541 540 550 571 579 561 541 554 615 566 561 567 596 566 589 581 592 580 566 611 565 580 563 554 534 539 585 580 543 563 552 555 552 573 542 529 575 541 510 554 549 530 550 539 511 562 583 565 565 575 522 544 594 602 583 572 609 612 571 540 540 575 562 589 576 559 562 576 593 578 588 544 566 558 549 508 596 561 515 561 568 551 507 546 556 546 552 493 520 482 522 504 516 551 525 519 474 527 500 508 546 556 493 485 549 500 521 514 560 530 546 522 552 515 528 500 475 507 482 511 515 518 493 531 533 490 575 496 577 534 500 516 464 487 500 525 496 568 513 537 550 517 510 504 513 495 584 535 508 493 484 517 568 509 542 506 536 513 536 518 546 545 536 495 558 556 521 552 503 520 540 493 491 506 466 529 510 528 478 485 492 562 546 500 489 547 506 542 540 522 526 495 495 471 550 489 516 503 514 501 502 480 506 488 475 522 532 549 509 474 491 488 533 539 498 551 515 507 483 586 486 486 518 541 548 495 505 514 510 482 509 510 530 512 518 517 509 507 499 542 500 468 513 516 538 519 530 532 520 546 517 497 507 529 543 492 499 502 492 564 533 510 502 492 519 515 512 533 521 514 523 463 542 562 518 520 511 524 546 570 520 511 484 506 500 522 531 485 513 489 514 536 509 477 523 499 509 473 518 478 485 507 528 481 505 498 519 547 503 500 503 486 497 492 537 503 524 495 512 549 468 481 473 487 506 499 522 554 472 502 484 498 509 475 445 486 514 471 488 504 508 501 485 531 476 478 521 488 490 511 525 516 506 511 497 476 472 470 457 496 517 489 506 502 503 521 473 498 522 518 470 561 509 509 534 548 479 548 509 482 499 509 509 469 456 492 447 484 509 462 461 463 506 468 530 504 463 458 520 500 466 492 522 515 500 519 491 512 527 457 512 512 474 488 533 482 503 491 485 483 482 521 465 486 464 500 463 502 517 520 483 494 496 440 523 550 475 505 476 510 525 513 508 484 490 527 520 457 472 514 461 485 434 508 476 472 455 493 507 468 547 463 498 509 437 496 467 481 489 496 450 504 468 455 477 456 524 512 444 477 509 504 470 487 515 523 517 502 513 503 471 510 481 484 503 505 496 504 486 511 509 495 496 495 512 469 497 496 457 516 533 481 441 494 498 444 460 493 480 516 523 451 455 511 458 515 487 502 490 504 452 457 481 479 501 468 464 507 519 492 474 460 469 482 463 469 490 514 474 477 486 460 549 474 509 528 493 460 523 440 492 514 461 496 506 447 519 518 506 484 438 483 445 496 483 434 492 501 563 473 460 490 446 505 439 475 479 506 454 484 476 479 472 472 477 502 488 471 527 455 484 465 487 467 460 523 513 480 530 480 445 482 485 496 530 460 498 475 476 491 497 464 440 470 488 449 511 477 491 476 457 480 500 462 531 490 493 447 486 459 491 480 509 457 472 421 480 459 458 453 429 446 492 519 469 456 512 483 468 477 481 482 463 454 480 479 474 443 473 446 494 477 409 481 481 426 438 479 464 520 488 471 503 518 487 493 446 456 522 478 460 534 509 476 494 467 533 498 496 476 491 475 519 505 526 481 441 503 486 437 497 460 478 478 474 467 480 489 503 489 495 484 459 471 487 500 487 486 479 473 468 507 552 439 532 509 492 517 495 524 481 518 456 520 480 482 468 535 506 515 457 513 500 509 461 490 481 471 490 493 476 496 518 466 473 510 495 475 515 499 486 472 489 454 475 467 476 447 469 502 459 454 504 498 489 496 489 421 494 465 472 446 455 502 493 489 436 476 463 463 464 471 454 456 498 479 478 485 480 450 465 457 480 500 481 482 479 459 488 493 457 492 466 472 437 475 497 461 497 511 500 530 444 459 498 498 500 463 487 454 463 467 448 513 484 506 483 488 486 499 505 469 522 475 483 485 498 467 499 477 480 483 471 509 467 483 489 453 471 458 440 465 432 402 499 479 496 462 446 517 466 443 505 502 490 494 506 486 482 450 497 489 494 527 499 467 456 502 517 492 487 465 488 481 505 461 501 494 461 476 426 487 472 460 514 482 468 442 513 468 449 470 475 479 474 498 452 456 505 491 446 431 436 465 465 451 526 456 445 495 485 463 491 492 471 522 481 451 473 475 465 485 505 486 468 485 493 466 476 448 451 463 471 518 463 491 485 449 438 435 446 482 451 515 473 449 475 458 477 462 464 454 457 457 491 459 477 485 472 467 485 496 454 473 474 451 497 487 457 463 453 481 468 441 461 456 461 479 479 462 481 477 509 479 498 516 481 490 452 439 456 499 526 471 479 499 519 481 489 478 465 531 478 481 492 457 471 487 522 527 518 467 480 474 490 447 480 487 422 476 433 560 527 480 478 445 496 473 506 479 485 483 496 489 461 479 467 474 484 471 519 485 501 491 515 501 494 486 482 454 526 457 500 445 474 476 488 517 493 470 478 504 498 514 495 493 505 522 448 489 471 485 522 480 464 479 496 467 508 449 496 476 492 500 489 490 496 475 512 506 480 485 466 512 481 476 459 462 453 427 505 430 475 473 523 454 474 456 513 467 503 440 463 506 469 464 493 474 470 499 466 460 491 475 467 475 473 510 492 479 460 476 461 458 498 480 507 488 458 474 487 504 470 473 494 437 476 445 443 526 482 467 464 500 478 480 448 502 455 456 458 494 455 486 454 453 462 455 482 516 513 454 453 479 501 446 523 460 478 469 475 457 484 485 486 449 451 475 499 494 459 455 490 481 494 511 474 474 456 482 490 476 504 445 442 471 476 444 495 491 488 481 481 483 506 489 524 472 468 483 503 450 435 478 499 466 467 489 460 442 474 496 465 460 449 464 501 472 468 476 472 476 493 483 437 491 471 471 464 469 490 485 497 482 506 494 511 455 472 480 478 479 486 481 500 474 478 481 465 437 478 505 472 471 516 459 501 465 502 550 506 448 464 483 476 482 468 456 458 446 460 489 468 493 483 448 478 490 481 481 462 482 498 479 499 492 469 463 479 489 476 510 491 484 505 448 506 504 487 490 476 445 471 496 483 484 508 485 457 460 481 424 470 468 455 452 471 447 476 494 462 524 482 496 479 486 482 475 473 469 468 451 475 483 476 473 476 464 488 479 429 485 482 438 471 413 477 497 494 490 485 473 484 464 449 492 459 479 470 456 491 500 452 507 476 466 430 483 538 473 486 450 463 496 486 469 474 483 442 485 448 490 478 487 480 474 491 498 499 459 498 435 450 453 478 508 466 452 501 470 427 459 488 486 487 492 480 530 495 497 494 460 437 481 452 469 483 443 457 484 475 469 480 495 484 475 467 501 510 506 484 476 489 467 459 470 514 463 479 507 424 474 483 484 476 460 476 431 467 474 483 465 474 465 492 504 492 425 488 463 438 508 496 450 486 471 448 479 464 475 445 477 505 442 478 467 475 464 516 470 479 486 468 482 516 504 480 526 423 478 483 476 511 444 467 472 472 460 463 505 463 493 514 496 511 453 492 473 453 478 458 422 439 505 490 460 475 447 478 459 478 443 506 457 469 498 482 479 510 495 521 477 475 491 524 471 494 501 522 477 503 495 455 483 481 440 492 497 486 513 466 449 461 495 483 495 495 519 475 500 475 491 509 472 512 545 511 480 530 473 503 457 502 485 490 519 577 488 499 439 462 519 492 498 506 499 471 467 465 499 456 436 511 509 470 472 490 475 496 505 465 489 462 468 458 507 482 476 519 465 506 493 491 514 486 491 442 496 453 506 475 489 504 467 494 479 521 480 508 493 522 462 504 500 461 471 476 490 478 439 501 472 475 477 483 506 507 508 511 531 497 462 478 538 510 522 515 504 500 516 476 479 500 462 498 475 492 484 480 514 520 496 480 528 469 461 448 501 519 488 496 492 499 441 478 511 479 453 472 529 522 505 559 492 483 505 491 521 447 518 512 497 494 492 478 521 471 483 498 500 489 470 455 504 474 498 491 489 463 510 488 486 512 494 461 496 518 499 500 497 527 515 512 508 490 529 457 503 519 467 491 491 487 515 501 509 461 480 529 508 532 513 496 498 490 473 475 497 517 529 475 517 523 460 488 455 461 511 515 489 484 478 477 465 456 512 500 477 484 502 498 504 460 485 488 508 477 504 456 476 448 522 509 483 479 480 490 489 476 490 455 519 479 502 472 489 490 496 482 492 511 495 501 513 497 471 477 511 476 522 493 471 484 494 489 507 499 487 503 502 500 484 487 498 509 477 427 491 469 511 475 479 468 485 480 441 472 476 518 493 481 514 502 497 497 467 505 465 496 434 535 492 461 456 508 485 500 507 468 469 498 460 495 479 532 514 493 468 440 540 487 496 481 510 497 475 468 473 498 515 462 463 507 536 471 498 462 517 505 471 486 477 485 481 435 494 495 480 505 466 481 509 483 465 483 538 477 482 469 464 460 471 476 510 481 466 461 477 476 470 492 511 479 507 477 484 462 518 489 477 505 534 447 518 545 480 505 522 476 491 510 494 484 459 505 446 460 459 500 500 482 450 479 507 502 451 533 473 478 450 517 524 484 532 487 509 469 501 515 470 472 465 491 501 470 521 455 453 468 465 449 496 470 491 490 504 464 505 496 507 496 490 469 475 482 512 488 486 513 500 500 475 465 481 469 491 503 471 488 520 485 497 477 483 511 492 533 508 478 473 527 469 473 522 482 509 511 470 471 491 497 475 507 475 447 506 485 463 484 437 470 495 472 495 474 474 491 477 467 492 478 498 505 478 494 475 464 475 482 482 473 455 478 497 498 506 503 454 527 488 525 456 493 501 474 511 489 502 464 449 495 510 456 502 486 468 443 482 472 466 471 459 454 503 463 490 443 479 488 486 465 468 457 486 487 479 446 440 463 495 481 489 514 481 476 477 469 465 482 480 476 458 464 456 415 479 486 449 436 465 492 481 452 473 445 471 459 435 455 469 473 503 518 459 503 434 421 437 471 472 455 473 475 447 501 507 466 438 459 478 470 451 467 458 440 486 489 467 456 497 472 485 448 461 450 445 515 473 490 447 502 475 486 443 467 471 488 460 485 472 487 478 472 456 463 490 519 442 447 486 460 515 466 407 472 458 466 452 473 489 451 442 447 512 448 475 477 475 494 479 429 447 444 465 457 416 487 440 487 482 470 474 506 460 474 451 448 481 456 434 482 427 466 459 461 450 461 427 450 442 455 471 458 446 399 428 455 443 471 448 494 454 476 458 455 462 490 428 426 464 452 479 508 474 453 460 454 460 445 463 468 460 451 457 478 425 471 481 479 443 508 447 466 429 442 462 424 498 455 441 439 435 421 435 472 486 422 465 441 485 454 459 442 476 421 430 477 439 446 440 453 454 450 462 442 447 437 471 482 456 506 457 444 461 465 464 411 459 410 456 459 457 460 477 476 463 450 431 458 455 457 445 470 421 448 478 459 441 465 443 473 435 423 486 469 446 470 487 477 458 448 448 433 452 430 458 435 463 520 444 454 469 442 432 479 492 432 459 459 478 422 438 468 422 414 466 419 455 485 441 417 458 477 447 448 421 403 429 437 448 456 439 447 474 465 455 447 438 458 452 502 459 424 484 441 440 463 464 462 455 465 444 422 470 451 464 446 454 457 468 449 424 418 450 430 433 471 448 441 471 467 488 448 438 442 438 448 470 402 454 392 424 466 444 446 448 423 439 455 470 444 473 487 455 448 465 471 460 421 445 426 425 419 438 467 439 431 475 438 435 465 478 442 389 461 454 455 467 469 454 451 442 480 433 419 436 484 486 444 454 429 424 450 477 479 410 469 430 475 431 453 463 412 466 404 482 434 447 393 437 427 416 463 477 428 422 439 424 412 441 446 449 444 452 472 429 443 458 437 427 436 474 467 458 491 468 457 441 474 454 420 465 431 454 445 419 446 455 426 460 401 436 447 448 428 440 488 458 443 454 439 451 480 446 474 426 475 442 415 438 455 428 450 441 453 453 436 490 473 436 499 460 461 439 452 448 440 430 485 474 448 457 462 431 464 470 516 449 477 460 440 442 474 447 416 429 497 473 425 507 434 450 464 491 421 469 430 464 469 441 471 436 452 464 424 470 441 437 485 474 502 413 461 461 453 436 451 451 417 417 458 464 467 461 426 473 444 447 434 461 436 450 460 426 459 455 443 439 438 417 462 435 411 464 422 443 438 465 454 452 436 453 461 440 445 487 461 437 447 446 471 451 423 426 430 435 436 436 443 451 478 451 428 434 433 436 433 404 420 424 415 441 424 430 449 457 438 454 437 458 420 472 412 467 427 464 449 414 428 440 457 441 459 436 436 467 418 447 442 457 422 495 427 425 421 463 449 434 426 418 443 451 466 463 415 466 433 457 440 443 419 466 394 444 426 411 412 463 437 420 412 420 413 422 455 501 433 434 430 442 441 444 426 408 433 430 440 437 447 418 418 462 445 453 466 435 457 436 460 440 449 483 407 457 443 429 429 380 454 480 434 458 423 437 422 456 410 480 463 509 422 465 437 438 432 457 463 450 460 458 411 457 435 397 489 448 449 467 427 440 437 438 477 409 441 441 468 477 428 448 442 453 416 432 419 428 484 464 440 425 435 427 463 404 441 452 482 429 459 481 474 469 425 447 436 466 428 445 448 474 438 462 483 405 454 472 392 432 451 422 471 427 446 489 462 409 465 443 459 484 443 444 435 434 423 485 436 456 465 449 464 417 488 438 434 487 433 483 431 480 482 448 470 474 469 480 449 437 446 482 432 489 487 527 470 453 454 473 431 437 485 468 438 462 474 464 452 483 455 485 403 424 426 458 450 431 451 483 453 434 451 429 446 460 469 445 446 497 452 455 455 465 457 477 426 434 467 443 457 453 472 470 451 445 473 414 478 456 469 433 439 443 439 438 472 422 475 500 437 460 467 469 462 451 434 475 453 449 459 406 472 437 433 459 439 449 436 453 456 450 421 435 445 456 470 462 443 378 441 415 442 430 430 454 448 438 453 392 472 422 417 443 467 445 459 425 425 451 471 448 432 453 453 510 432 433 468 436 466 449 470 453 495 446 443 442 447 437 433 442 429 463 428 460 407 435 434 450 420 456 435 434 437 405 425 406 437 474 441 471 427 445 436 445 441 398 445 449 412 439 410 415 443 433 424 461 476 474 464 454 454 438 453 442 427 465 472 476 421 445 383 470 500 467 438 413 484 419 427 459 436 469 453 407 417 467 463 431 439 450 453 460 433 395 449 510 466 438 473 449 435 486 444 426 455 436 443 434 433 456 419 481 430 445 463 467 446 449 436 474 450 447 462 473 445 478 462 425 426 472 434 430 485 470 436 466 453 444 419 423 482 440 418 417 446 435 458 412 449 429 402 428 455 428 424 404 436 401 437 412 442 454 466 413 426 457 448 425 410 443 404 398 471 437 413 394 465 426 439 449 462 468 421 428 449 435 451 476 442 440 436 478 438 462 429 401 449 445 458 425 462 434 423 418 407 421 472 431 463 471 417 416 458 403 467 420 433 471 430 468 471 428 457 452 415 393 419 454 413 425 431 410 458 397 407 400 451 432 424 423 431 436 443 425 427 438 411 435 426 421 423 441 446 389 389 444 437 426 427 461 433 429 425 446 471 415 444 446 455 451 406 438 459 449 414 424 409 466 436 456 434 454 450 428 449 460 406 444 441 400 430 446 437 442 432 466 416 428 469 412 446 402 463 433 443 422 414 447 417 429 431 427 442 409 448 424 442 435 449 418 441 452 454 486 456 463 464 470 407 451 433 408 407 440 461 457 489 438 445 424 425 466 413 422</counts>
			</dataPoints>
		</scan>
	</xrdMeasurement>
</xrdMeasurements>
