<?xml version="1.0"?>
<xrdMeasurements xmlns="http://www.xrdml.com/XRDMeasurement/2.3" xmlns:xsi="http://www.w3.org/2001/XMLSchema-instance" xsi:schemaLocation="http://www.xrdml.com/XRDMeasurement/2.3 http://www.xrdml.com/XRDMeasurement/2.3/XRDMeasurement.xsd" status="Completed" recordIdentifier="{FBA41CA3-7354-4571-B31B-C7DC4F36AC63}">
	<comment>
		<entry/>
	</comment>
	<sample type="To be analyzed">
		<id>GPSS_Li1p45Mn0p45Sc0p55Cl4_111725_691b7e20f3837ac4a0a99374</id>
		<name></name>
		<preparedBy></preparedBy>
	</sample>
	<xrdMeasurement measurementType="Scan" status="Completed" sampleMode="Reflection">
		<usedWavelength intended="K-Alpha 1">
			<kAlpha1 unit="Angstrom">1.5405980</kAlpha1>
			<kAlpha2 unit="Angstrom">1.5444260</kAlpha2>
			<kBeta unit="Angstrom">1.3922500</kBeta>
			<ratioKAlpha2KAlpha1>0.5000</ratioKAlpha2KAlpha1>
		</usedWavelength>
		<incidentBeamPath>
			<radius unit="mm">145.00</radius>
			<xRayTube id="1010048" name="Empyrean Cu LFF HR (9430 033 7310x)">
				<tension unit="kV">40.0</tension>
				<current unit="mA">15.0</current>
				<anodeMaterial>Cu</anodeMaterial>
				<focus type="Line">
					<length unit="mm">12.0</length>
					<width unit="mm">0.4</width>
					<takeOffAngle unit="deg">6.0</takeOffAngle>
				</focus>
			</xRayTube>
			<sollerSlit id="21010002" name="Soller slits 0.04 rad.">
				<opening unit="rad">0.0400</opening>
			</sollerSlit>
			<mask id="22031000" name="Fixed mask 13 mm">
				<width unit="mm">9.00</width>
			</mask>
			<divergenceSlit id="22120001" name="Divergence slit 1°" xsi:type="fixedDivergenceSlitType">
				<distanceToSample unit="mm">50.00</distanceToSample>
				<height unit="mm">1.52</height>
			</divergenceSlit>
		</incidentBeamPath>
		<sampleMovement xsi:type="spinningSampleMovementType">
			<spinnerRevolutionTime unit="seconds">1.0</spinnerRevolutionTime>
		</sampleMovement>
		<diffractedBeamPath>
			<radius unit="mm">145.00</radius>
			<antiScatterSlit id="22090040" name="AS slit 9 mm (PIXcel)" xsi:type="fixedAntiScatterSlitType">
				<height unit="mm">9.00</height>
			</antiScatterSlit>
			<sollerSlit id="21020003" name="Large Soller slits 0.04 rad.">
				<opening unit="rad">0.0400</opening>
			</sollerSlit>
			<filter id="20030001" name="Large beta-filter Nickel">
				<material>Ni</material>
				<thickness unit="mm">0.020</thickness>
			</filter>
			<detector id="7010019" name="PIXcel1D-Medipix3 detector" xsi:type="rtmsDetectorType">
				<phd unit="keV">
					<lowerLevel>4.02</lowerLevel>
					<upperLevel>11.27</upperLevel>
				</phd>
				<mode>Scanning</mode>
				<activeLength unit="deg">5.542</activeLength>
			</detector>
		</diffractedBeamPath>
		<scan appendNumber="0" mode="Continuous" scanAxis="Gonio" status="Completed">
			<header>
				<startTimeStamp>2025-11-20T19:21:34-08:00</startTimeStamp>
				<endTimeStamp>2025-11-20T19:29:41-08:00</endTimeStamp>
				<author>
					<name>AutomatedUser</name>
				</author>
				<source>
					<applicationSoftware version="1.7b (136)">PANalytical Aeris Instrument Suite</applicationSoftware>
					<instrumentControlSoftware version="3.2.00000000 20240306">AERIS</instrumentControlSoftware>
					<instrumentID>950485</instrumentID>
				</source>
			</header>
			<dataPoints>
				<positions axis="2Theta" unit="deg">
					<startPosition>10.00943322</startPosition>
					<endPosition>99.99442286</endPosition>
				</positions>
				<positions axis="Omega" unit="deg">
					<startPosition>5.00471661</startPosition>
					<endPosition>49.99721143</endPosition>
				</positions>
				<commonCountingTime unit="seconds">12.495</commonCountingTime>
				<counts unit="counts">2910 2884 2966 2867 2963 2966 2921 2959 2994 2965 2872 2888 3041 2927 2828 3036 2950 2926 2847 2907 2947 3054 2950 3001 2908 3107 2914 2986 3002 3011 2982 3029 2900 2944 2982 3060 2997 2956 2959 2970 3152 2963 3054 2993 2973 3027 3036 3033 3125 3052 3088 3104 3087 3038 3015 3025 3053 3012 3112 3048 3105 3070 3061 3093 3015 3114 3090 3181 3144 3105 3050 3108 3100 3155 3054 3257 3097 3047 3134 3162 3163 3107 3204 3154 3101 3130 3202 3112 3133 3182 3136 3191 3261 3268 3168 3230 3161 3225 3068 3173 3131 3091 3173 3221 3128 3289 3202 3177 3165 3144 3261 3157 3284 3144 3136 3147 3124 3212 3139 3156 3151 3261 3197 3214 3068 3116 3095 3260 3170 3203 3259 3233 3091 3167 3124 3185 3157 3175 3178 3215 3253 3145 3170 3306 3163 3202 3200 3280 3128 3324 3156 3182 3181 3337 3272 3138 3193 3205 3158 3211 3182 3239 3160 3182 3260 3195 3192 3232 3247 3272 3176 3146 3263 3099 3073 3173 3216 3121 3087 3108 3106 3093 3189 3216 3168 3234 3187 3214 3143 3265 3179 3260 3122 3249 3220 3055 3151 3170 3113 3174 3125 3182 3137 3139 3205 3152 3174 3027 3210 3095 3158 3252 3121 3037 3067 3147 3140 3066 3139 3079 3124 3142 3019 3111 3134 3062 3097 3043 3076 3073 3080 3079 3129 3069 3068 3058 3074 3201 3070 3045 3113 3127 3024 3021 3107 3024 3024 3087 2973 3055 2922 3050 3043 3037 3061 3151 2978 3081 3022 3068 3003 3068 3127 2942 3162 3017 3064 3003 2965 3025 3115 3083 3032 3005 2983 3034 2987 3043 2980 2905 3079 2967 3053 3018 2972 3031 2877 2907 3027 2956 3058 3042 3018 3032 3087 3017 2960 2992 2931 3000 3133 2951 3032 3039 3024 2968 3021 2958 3046 3079 3044 2972 2916 3026 3090 2998 2969 3039 3149 2988 2927 3111 3011 2993 3011 3135 3055 3123 3022 3074 3193 3030 2937 3050 3100 3108 3096 3023 3118 3030 3123 3069 3093 3197 3117 3170 3168 3123 3071 3135 3133 3109 3134 3084 3143 3205 3236 3005 3135 3123 3026 3136 3244 3178 3174 3201 3156 3245 3258 3171 3235 3149 3158 3104 3284 3312 3310 3204 3321 3238 3298 3325 3231 3350 3318 3406 3256 3334 3254 3378 3316 3268 3424 3245 3324 3296 3330 3283 3274 3321 3406 3352 3332 3389 3422 3335 3342 3426 3393 3443 3420 3446 3412 3461 3437 3517 3645 3613 3617 3599 3649 3700 3717 3730 3678 3741 3751 3803 3883 3860 3931 3993 4081 3996 4176 4226 4330 4283 4426 4446 4544 4713 4842 4940 4911 5036 5009 5164 5174 5425 5478 5545 5807 5775 5962 6158 6172 6339 6263 6302 6475 6390 6258 6089 6147 5891 5792 5855 5913 5696 5644 5396 5220 5047 4888 4689 4515 4468 4317 4331 4269 4101 3930 3894 3864 3790 3751 3784 3611 3651 3651 3488 3418 3467 3489 3370 3338 3460 3443 3390 3417 3392 3401 3427 3381 3321 3293 3387 3204 3314 3321 3184 3192 3268 3252 3239 3183 3168 3184 3163 3282 3211 3318 3136 3230 3135 3236 3055 3173 3187 3214 3068 3072 3186 3096 3004 3217 3136 3073 3099 3074 3110 3040 3098 3118 3125 3108 2968 3013 3069 3062 2953 3118 3034 3032 3082 3182 3196 3090 3176 3021 3137 3148 3163 3176 3253 3107 3107 3173 3196 3077 3301 3205 3088 3246 3169 3158 3084 3132 3109 3048 3154 3051 3086 3126 3010 3079 3047 2972 2864 2963 2917 2892 2988 2949 2924 2897 2857 2797 2999 2882 2978 2951 2889 2972 2854 2881 2878 2942 2814 2758 2871 2882 2787 2814 2847 2903 2915 2780 2809 2820 2887 2871 2886 2893 2907 2891 2885 2887 2983 2879 2816 2883 2889 3000 2799 2900 2862 2849 2925 2909 2888 2927 2864 2831 2876 2839 2805 2872 2917 2746 2909 2882 2906 2852 2753 2728 2925 2867 2895 2765 2783 2804 2763 2858 2736 2894 2768 2816 2837 2758 2767 2852 2809 2718 2766 2718 2676 2759 2759 2702 2729 2675 2792 2767 2718 2770 2763 2744 2734 2809 2766 2775 2677 2654 2758 2652 2726 2757 2766 2693 2762 2672 2628 2710 2706 2591 2768 2836 2799 2706 2689 2731 2756 2689 2802 2736 2831 2731 2727 2772 2751 2776 2779 2691 2764 2834 2739 2746 2811 2838 2781 2779 2740 2743 2786 2837 2790 2747 2764 2814 2834 2859 2781 2738 2731 2735 2814 2839 2856 2674 2736 2739 2699 2820 2765 2696 2615 2748 2651 2673 2590 2697 2608 2676 2613 2644 2674 2694 2597 2644 2733 2702 2683 2663 2665 2785 2662 2595 2639 2544 2570 2558 2574 2638 2643 2608 2681 2666 2569 2591 2732 2668 2709 2653 2645 2762 2660 2576 2586 2606 2634 2674 2612 2659 2647 2628 2649 2663 2631 2592 2610 2660 2649 2630 2654 2687 2629 2639 2628 2635 2629 2721 2727 2727 2766 2632 2608 2585 2640 2625 2655 2550 2603 2624 2656 2543 2634 2597 2527 2556 2595 2543 2580 2591 2574 2552 2442 2557 2654 2564 2562 2532 2594 2581 2533 2530 2566 2462 2494 2432 2560 2631 2526 2555 2446 2661 2590 2538 2487 2607 2452 2538 2591 2552 2510 2509 2462 2513 2481 2508 2419 2512 2475 2489 2467 2529 2434 2490 2533 2453 2427 2593 2579 2558 2458 2524 2436 2428 2521 2369 2488 2518 2502 2573 2416 2414 2503 2367 2502 2500 2509 2504 2390 2474 2431 2510 2404 2446 2533 2400 2490 2419 2570 2487 2513 2417 2553 2410 2484 2391 2451 2381 2398 2514 2428 2485 2473 2490 2554 2620 2467 2514 2518 2543 2483 2488 2554 2501 2509 2480 2581 2539 2435 2407 2475 2432 2468 2448 2472 2487 2491 2427 2358 2421 2454 2477 2478 2390 2386 2479 2445 2436 2472 2394 2450 2405 2397 2432 2343 2429 2339 2370 2438 2456 2410 2389 2455 2372 2424 2352 2417 2433 2366 2374 2466 2341 2367 2304 2466 2301 2415 2451 2414 2386 2413 2449 2343 2393 2358 2397 2464 2318 2420 2431 2380 2296 2415 2368 2344 2485 2399 2305 2435 2373 2419 2330 2349 2329 2385 2273 2291 2395 2458 2384 2337 2308 2334 2312 2354 2391 2335 2379 2411 2369 2349 2459 2424 2220 2425 2367 2453 2374 2440 2430 2338 2519 2341 2382 2394 2423 2378 2383 2426 2383 2442 2341 2347 2337 2331 2454 2355 2415 2476 2391 2377 2403 2389 2424 2457 2328 2357 2452 2465 2447 2423 2481 2443 2404 2421 2350 2384 2423 2350 2398 2456 2471 2436 2449 2375 2369 2433 2454 2421 2439 2382 2338 2469 2381 2409 2397 2381 2436 2374 2540 2333 2466 2403 2362 2234 2385 2382 2362 2311 2368 2415 2342 2329 2424 2330 2429 2338 2388 2331 2293 2286 2442 2267 2351 2300 2330 2230 2297 2348 2259 2275 2350 2364 2248 2290 2293 2249 2193 2272 2276 2290 2269 2259 2271 2242 2245 2250 2202 2274 2259 2258 2171 2270 2210 2097 2245 2264 2152 2216 2215 2262 2191 2191 2165 2130 2232 2298 2113 2215 2188 2143 2188 2104 2150 2138 2153 2091 2145 2208 2053 2180 2091 2091 2129 2114 2065 2136 2103 2059 2119 2023 2079 2165 2060 2081 2037 2086 2057 2039 1996 1961 2021 2077 2051 2134 1993 2015 1951 2005 2062 1977 2062 2067 2029 2044 2021 1952 2072 2053 2040 2039 2026 1971 2000 1973 2031 1996 1997 1999 1925 1978 1968 2012 1900 2047 1986 2040 1955 1928 1929 1932 1979 1945 1994 1892 1939 1968 2136 2031 1912 1917 1877 1974 1936 1985 1888 1898 1845 1958 1900 1939 1883 1939 1943 1847 1841 1841 1838 1933 1883 1893 1870 1743 1861 1842 1805 1893 1873 1854 1846 1901 1844 1825 1785 1807 1920 1845 1848 1891 1815 1833 1834 1788 1798 1834 1774 1859 1774 1872 1847 1918 1750 1839 1755 1817 1881 1775 1810 1765 1797 1861 1873 1756 1690 1729 1783 1859 1750 1739 1811 1696 1793 1823 1813 1762 1791 1860 1744 1690 1774 1771 1747 1787 1727 1730 1797 1827 1778 1749 1787 1769 1832 1780 1764 1787 1833 1765 1711 1738 1733 1788 1775 1891 1762 1776 1805 1706 1676 1789 1840 1711 1791 1813 1714 1701 1755 1737 1742 1746 1738 1769 1724 1840 1726 1804 1829 1783 1836 1730 1764 1773 1816 1761 1834 1763 1809 1685 1726 1742 1693 1774 1749 1689 1681 1762 1723 1758 1777 1810 1767 1694 1794 1800 1735 1799 1722 1755 1749 1745 1676 1736 1722 1763 1744 1718 1792 1691 1843 1640 1730 1760 1758 1705 1767 1804 1792 1739 1772 1689 1779 1730 1795 1764 1735 1818 1815 1827 1735 1703 1703 1763 1797 1724 1808 1777 1729 1802 1767 1710 1761 1787 1719 1780 1700 1754 1697 1733 1761 1698 1746 1788 1725 1776 1772 1688 1745 1672 1736 1732 1746 1811 1722 1724 1749 1703 1762 1756 1693 1727 1712 1754 1663 1720 1688 1672 1707 1680 1660 1669 1743 1722 1673 1729 1707 1747 1705 1716 1738 1733 1641 1718 1691 1641 1646 1732 1733 1632 1744 1674 1686 1646 1648 1671 1681 1646 1699 1720 1628 1715 1693 1669 1686 1649 1704 1614 1763 1641 1683 1650 1646 1629 1677 1631 1719 1684 1643 1654 1715 1676 1613 1681 1705 1611 1584 1605 1589 1630 1620 1620 1637 1563 1660 1580 1699 1594 1597 1702 1616 1602 1677 1585 1587 1576 1627 1637 1650 1581 1557 1549 1567 1596 1558 1594 1551 1550 1547 1462 1541 1547 1440 1537 1545 1515 1446 1543 1546 1503 1568 1540 1558 1493 1546 1521 1488 1526 1498 1534 1499 1571 1522 1494 1488 1561 1509 1555 1572 1415 1546 1490 1460 1459 1465 1485 1477 1482 1435 1497 1473 1451 1466 1482 1495 1493 1492 1447 1399 1546 1475 1484 1495 1434 1447 1504 1601 1423 1475 1405 1459 1474 1441 1473 1460 1441 1439 1409 1432 1383 1456 1436 1493 1482 1482 1460 1505 1482 1473 1462 1462 1514 1549 1476 1527 1550 1582 1593 1639 1617 1691 1707 1712 1712 1728 1805 1903 1901 2085 1997 2129 2091 2142 2181 2141 2159 2228 2345 2301 2333 2225 2278 2195 2145 2166 2080 2040 2057 2022 1794 1795 1794 1667 1674 1581 1622 1572 1516 1519 1450 1469 1402 1453 1433 1458 1401 1313 1307 1411 1368 1323 1305 1424 1331 1381 1333 1329 1290 1334 1310 1323 1362 1291 1322 1310 1386 1342 1340 1310 1349 1341 1373 1272 1293 1357 1269 1294 1322 1259 1310 1301 1319 1347 1278 1366 1261 1261 1315 1337 1369 1325 1352 1387 1312 1336 1335 1336 1379 1357 1480 1408 1416 1482 1474 1436 1445 1520 1539 1579 1629 1606 1633 1665 1637 1747 1889 1852 1942 2002 2038 2126 2301 2331 2570 2613 2859 3015 3067 3221 3335 3460 3798 3912 4093 4248 4562 4584 4554 4776 4925 4928 4943 4857 4695 4819 4604 4621 4477 4229 4082 4038 3842 3653 3680 3432 3408 3464 3427 3175 3225 3120 3059 2950 2937 2748 2665 2613 2616 2390 2457 2252 2216 2129 2122 2005 1943 1883 1943 1869 1814 1941 1801 1883 1871 1892 1909 1928 1917 1865 1774 1809 1733 1694 1706 1596 1521 1536 1457 1455 1349 1351 1355 1231 1251 1206 1266 1183 1169 1161 1197 1224 1195 1092 1152 1173 1215 1229 1182 1190 1182 1186 1148 1141 1179 1140 1176 1025 1170 1164 1093 1105 1135 1133 1098 1070 1128 1119 1075 1111 1177 1082 1177 1117 1150 1171 1115 1119 1061 1129 1063 1128 1121 1140 1152 1131 1108 1125 1069 1071 1112 1092 1146 1114 1120 1135 1084 1127 1117 1129 1107 1097 1116 1111 1138 1113 1091 1123 1042 1101 1067 1118 1069 1088 1073 1139 1100 1081 1049 1137 1083 1003 1045 1101 999 1116 1114 1050 1123 1107 1086 1044 1112 1071 1050 1065 1004 1070 1082 1067 1114 1011 1096 1093 1088 1066 1071 1037 1079 1067 1087 1067 1110 1146 1119 1150 1094 1163 1148 1110 1107 1148 1148 1177 1110 1128 1161 1162 1096 1236 1189 1305 1220 1191 1214 1143 1226 1217 1310 1194 1160 1248 1256 1186 1164 1154 1129 1243 1147 1147 1143 1145 1072 1094 1065 1056 1062 1058 1033 1079 1025 1054 1002 1030 1024 1072 1002 1046 1063 1048 1049 1053 1063 1036 1068 995 1014 1038 1008 1050 1021 1080 1031 1036 981 993 967 1022 1006 992 1048 1009 1004 1040 1062 1053 1029 1015 1019 1042 996 1046 990 984 1059 1082 1022 998 1011 1089 1005 1013 1022 1039 1009 1018 1000 1026 973 1042 967 1043 996 1001 965 993 1021 1045 1060 1012 1081 1039 1046 972 1063 1010 1057 997 1017 1005 1031 995 1069 1041 1027 996 1037 1022 1043 1009 1071 1041 984 969 1070 1021 1103 1011 1016 1034 1038 1024 1123 1037 1042 1072 1064 1110 1047 1091 1053 1093 1102 1081 1127 1083 1043 1092 1123 1070 1163 1082 1147 1123 1111 1106 1167 1149 1103 1150 1112 1190 1114 1114 1108 1092 1121 1094 1158 1109 1169 1195 1165 1115 1143 1185 1197 1176 1221 1214 1200 1151 1225 1164 1242 1322 1291 1250 1282 1322 1388 1321 1417 1436 1371 1450 1474 1619 1635 1549 1668 1736 1794 1858 1846 2084 2119 2249 2266 2425 2538 2738 2860 3074 3227 3386 3744 3886 4264 4476 4722 5049 5324 5684 5989 6303 6766 6859 7368 7599 7799 8130 8502 8707 9056 9198 9341 9590 9458 9599 9535 9485 9209 9065 8913 8460 8003 7697 7153 6588 6240 5795 5467 5018 4748 4212 3969 3534 3258 3037 2833 2564 2460 2175 2062 1982 1836 1743 1640 1527 1573 1607 1480 1391 1373 1315 1356 1267 1342 1248 1269 1331 1184 1246 1265 1243 1197 1202 1177 1147 1149 1184 1112 1159 1132 1089 1120 1064 1075 1084 1006 1083 1065 1020 1034 1023 1051 1068 1065 1003 1023 1013 1049 1007 949 926 992 967 947 982 943 996 1012 928 1024 990 1055 950 950 964 912 940 995 919 1014 948 966 896 941 942 1010 988 963 972 961 922 946 941 947 953 982 976 929 927 969 930 954 983 1005 911 945 937 913 964 974 917 961 1003 939 939 904 913 937 895 971 877 956 958 914 947 929 990 901 904 939 913 947 920 969 870 959 976 933 951 945 961 893 892 924 906 967 934 980 938 904 967 916 918 854 885 964 967 897 994 941 919 972 920 876 905 953 950 885 907 949 906 909 941 914 964 889 912 921 946 902 858 888 957 900 902 893 819 834 961 913 923 907 861 943 872 909 885 943 877 920 904 896 917 914 914 901 934 896 890 938 909 972 966 935 907 915 881 863 874 908 959 899 888 955 844 908 935 867 905 841 911 830 889 855 934 837 906 855 900 878 932 824 918 861 852 886 835 879 893 870 915 939 946 929 885 941 886 860 893 923 935 975 940 916 901 876 907 863 948 913 959 931 977 958 957 950 942 944 984 963 926 949 937 924 939 944 917 931 972 922 973 946 915 884 867 900 852 859 909 873 827 845 846 888 834 840 893 802 840 845 819 849 872 885 898 860 855 834 835 884 847 874 773 791 772 821 800 825 841 836 800 822 808 845 865 837 777 810 841 843 838 812 807 833 770 828 833 867 801 859 820 799 815 816 824 810 777 817 793 813 804 777 842 742 809 854 864 759 822 831 826 797 768 770 841 827 790 757 814 724 824 810 830 819 779 800 793 845 778 852 757 779 748 821 848 820 754 801 839 774 792 791 841 813 780 804 828 815 826 811 834 798 774 793 807 840 806 823 780 804 859 806 822 817 824 856 785 857 836 853 815 856 718 838 813 842 768 834 806 750 786 809 813 808 836 759 832 778 815 805 778 807 774 803 755 831 790 804 780 787 755 805 787 817 759 838 764 809 758 800 861 796 839 790 795 832 752 781 795 802 763 760 743 727 747 790 798 805 788 758 774 789 766 783 739 804 739 799 766 763 747 735 777 759 780 811 747 780 783 784 797 797 813 750 763 813 761 809 752 752 775 777 818 762 785 777 798 717 815 757 840 832 779 768 787 759 757 772 788 709 786 718 714 747 785 802 854 779 805 828 817 789 759 802 762 787 746 724 749 735 792 704 785 764 796 757 755 856 736 759 789 765 755 782 735 735 769 890 772 723 781 746 743 765 789 781 756 743 813 794 761 802 758 760 693 778 770 782 803 762 815 847 756 774 722 773 792 806 850 779 821 809 791 819 801 795 832 820 840 848 792 854 792 774 803 789 803 812 801 844 802 819 802 836 877 848 847 889 908 917 934 933 901 890 963 951 967 949 957 928 911 901 919 885 992 874 793 798 815 839 779 829 859 752 817 834 789 797 785 787 723 743 822 777 731 793 741 766 782 736 764 789 732 779 753 689 761 771 749 728 806 758 809 779 722 733 736 778 807 753 780 759 728 790 784 728 786 797 759 776 730 775 734 741 790 756 765 756 782 749 762 785 765 779 814 727 733 743 756 748 808 740 764 763 749 746 736 771 743 791 769 752 731 747 750 767 729 770 730 786 785 716 790 764 711 744 716 717 795 800 783 806 808 735 719 773 759 800 794 808 777 771 766 809 791 776 776 774 750 731 755 789 744 822 800 783 780 751 713 763 755 746 775 752 740 764 763 741 738 751 775 763 781 765 727 825 743 776 747 789 737 784 713 750 727 746 748 735 740 757 775 756 769 760 732 747 764 789 736 824 753 704 753 801 821 781 784 804 767 797 813 724 811 776 753 807 723 737 730 777 750 801 776 755 787 754 725 738 722 762 747 737 784 718 774 778 752 765 754 735 763 748 722 758 767 733 780 780 789 807 741 695 772 726 758 803 747 738 745 756 749 793 755 766 803 775 704 773 805 764 756 774 755 767 764 746 771 796 688 805 772 785 774 773 782 761 766 797 772 789 809 794 793 773 762 782 757 762 727 763 760 740 812 765 813 818 789 849 830 882 866 867 860 920 904 954 924 899 932 923 981 1026 946 969 1015 999 1049 996 1049 1049 1004 994 998 983 1031 996 1055 1007 1004 1044 1062 1056 1052 1151 1144 1184 1163 1166 1155 1250 1242 1242 1201 1215 1232 1226 1225 1224 1196 1188 1213 1154 1151 1127 1102 1065 1113 1054 1069 975 1014 949 893 952 887 872 840 846 809 816 819 823 795 794 755 776 774 803 816 759 853 767 822 812 769 790 801 781 795 783 769 799 765 842 801 779 809 791 778 790 807 821 788 811 789 788 797 769 784 763 740 792 700 756 734 708 708 747 719 790 701 718 764 700 770 783 760 761 718 746 766 703 683 731 699 728 730 754 715 683 743 762 786 744 705 795 694 775 748 806 723 783 775 740 805 769 716 766 745 777 794 736 718 709 740 771 778 764 730 734 706 700 720 825 742 766 756 791 694 728 792 733 739 701 749 750 728 711 739 682 754 728 781 661 733 704 714 741 726 672 695 686 703 712 714 678 671 716 696 741 691 716 709 731 727 749 725 688 729 681 742 685 761 704 686 726 687 732 724 708 789 686 745 721 745 716 707 670 698 695 756 720 723 739 708 672 716 753 703 728 729 701 722 768 774 713 741 721 818 709 734 747 749 756 711 744 740 688 759 749 711 750 677 773 731 736 715 737 773 725 723 744 687 733 731 744 769 685 776 708 750 695 730 710 750 765 751 720 763 728 675 801 704 767 764 722 791 785 691 776 752 809 740 713 751 713 789 846 801 801 781 736 743 707 732 763 766 749 768 729 741 758 732 730 797 753 772 744 727 718 786 775 718 761 746 750 819 805 769 753 787 755 746 785 805 802 765 777 799 780 748 853 805 834 842 802 844 788 793 787 854 931 867 904 951 946 928 960 996 997 1063 997 1116 1124 1173 1213 1247 1347 1433 1500 1563 1765 1781 1927 1890 2089 2158 2326 2363 2537 2585 2775 2975 3031 3173 3119 3252 3386 3507 3662 3915 3823 3963 3897 3941 3793 3857 3921 3835 3715 3796 3665 3604 3651 3645 3535 3407 3356 3407 3421 3342 3426 3250 3218 3213 3272 3169 3194 3010 2988 2984 2772 2760 2713 2564 2484 2377 2386 2310 2251 2071 2048 1911 1849 1751 1610 1700 1546 1487 1365 1435 1296 1219 1152 1161 1125 1064 1115 1013 999 992 961 1028 910 925 891 860 844 868 853 860 889 822 846 869 838 840 837 793 824 807 822 847 794 779 814 814 792 788 779 811 789 769 781 793 783 813 813 723 744 780 754 732 727 780 750 756 774 747 746 762 704 727 749 725 691 707 776 736 745 757 733 734 758 767 697 754 764 735 742 714 675 749 693 761 713 773 701 699 695 691 667 725 713 681 714 655 686 714 673 711 694 690 720 701 730 669 738 717 682 717 688 715 658 688 653 673 690 692 685 667 673 708 674 670 737 711 681 674 653 691 739 727 700 674 689 662 688 659 631 724 704 720 716 720 727 740 754 744 730 770 719 750 737 764 787 816 811 862 836 871 869 864 914 919 929 951 958 942 960 1007 969 1037 990 1018 1048 1033 1082 1037 1089 1064 1060 1108 1053 1035 962 988 998 948 975 923 881 875 894 906 887 878 860 838 809 830 772 713 824 797 764 780 764 710 695 689 759 708 726 691 720 679 711 680 620 667 704 639 667 694 663 700 695 734 654 674 624 676 635 659 686 628 677 638 652 647 640 675 616 666 662 645 702 694 677 721 660 645 644 673 654 673 682 665 612 655 624 609 657 643 605 606 669 694 661 665 691 668 672 607 709 650 639 687 627 678 684 645 612 690 675 702 643 674 613 642 640 648 635 686 642 682 671 687 643 637 606 665 653 599 618 647 618 628 604 623 645 601 695 637 673 642 685 637 622 632 671 652 651 658 645 590 634 627 611 610 630 611 629 609 695 617 618 630 659 691 640 647 683 654 670 643 651 644 625 632 617 589 623 635 645 649 622 664 610 636 667 584 620 671 623 664 618 625 645 669 666 596 645 614 602 657 582 635 625 629 680 597 649 624 677 641 659 674 664 676 618 676 631 639 653 608 608 633 637 613 661 598 632 587 621 707 677 597 630 653 640 665 624 610 684 674 678 626 697 669 664 685 700 629 700 688 719 688 696 715 751 797 743 714 710 738 762 785 743 795 728 717 788 730 760 825 758 730 715 779 778 735 762 675 777 667 674 660 691 675 655 637 648 651 636 612 664 616 609 657 643 605 621 611 656 626 607 653 654 630 653 628 655 586 620 641 593 591 683 585 595 625 609 670 586 650 592 627 595 599 655 654 636 610 609 625 629 594 604 638 709 650 636 610 624 618 602 654 590 642 564 668 581 532 644 606 624 620 601 617 651 588 651 650 640 590 611 578 599 646 619 561 568 614 645 581 597 611 602 577 575 584 599 592 605 632 588 603 611 641 604 645 614 574 591 638 600 594 590 592 552 644 596 601 592 607 611 613 605 612 593 594 649 611 582 608 625 621 677 539 645 568 600 586 595 623 613 652 646 640 624 648 581 582 648 641 631 619 639 620 604 612 588 632 601 638 591 587 593 606 622 600 634 636 634 602 661 632 605 629 594 609 649 551 629 691 622 631 582 615 550 600 583 609 609 590 616 613 642 575 602 611 636 657 579 612 590 604 619 618 572 648 605 631 562 560 569 610 579 562 589 595 590 619 591 615 629 651 615 614 611 573 632 616 605 603 588 629 618 606 578 614 625 628 628 622 597 636 585 596 617 584 609 630 647 602 611 653 620 657 651 626 626 610 666 602 697 625 653 661 651 693 650 662 639 641 662 667 692 667 676 692 678 690 668 692 651 694 676 675 666 635 651 693 702 679 653 649 651 672 652 678 614 694 652 626 656 673 652 666 614 640 641 630 640 643 643 672 705 669 707 665 735 659 660 715 736 716 719 764 799 774 756 839 823 854 816 855 856 884 893 853 927 884 960 933 942 965 998 990 1044 1045 1057 1069 1079 1113 1122 1176 1127 1176 1082 1111 1135 1119 1162 1151 1166 1165 1109 1253 1124 1084 1131 1088 1087 1093 1097 1069 1060 1165 1069 1087 1030 1022 1047 1002 948 1010 921 935 896 844 913 843 834 792 835 846 794 753 757 820 804 750 775 743 754 750 741 712 662 697 719 687 673 686 659 667 653 669 678 656 664 702 642 613 632 652 637 646 624 631 653 609 639 643 657 629 598 681 621 663 673 608 665 625 658 599 634 663 603 650 653 615 631 629 633 655 579 624 643 657 637 656 623 596 614 647 589 594 661 607 594 606 598 610 614 661 575 625 631 621 641 636 622 670 658 660 651 580 604 611 606 638 626 620 625 616 643 613 630 617 665 628 606 618 686 620 627 604 608 591 615 587 624 568 643 604 635 656 633 668 602 592 593 608 591 651 675 632 615 626 656 606 586 595 636 655 633 600 626 600 582 626 655 663 601 618 596 594 597 600 620 632 595 653 613 657 652 573 662 681 653 641 614 600 626 659 655 625 641 687 634 711 691 706 630 671 639 656 686 674 687 620 672 707 704 817 731 770 749 809 846 864 858 826 930 941 936 968 932 961 1034 1019 1028 1085 1043 1104 1096 1114 1174 1155 1163 1215 1269 1301 1355 1381 1364 1429 1488 1415 1488 1466 1430 1442 1426 1380 1384 1280 1300 1357 1268 1280 1190 1225 1157 1215 1182 1126 1059 1092 1091 1041 970 1026 972 989 908 924 954 939 931 899 875 901 881 862 901 868 848 837 876 848 859 929 846 891 863 851 828 833 815 881 856 845 809 799 836 839 802 786 793 789 761 742 728 752 719 725 705 714 685 706 719 728 721 667 663 681 621 723 662 645 637 651 688 700 630 639 637 663 669 653 710 748 666 764 756 684 781 734 792 756 753 831 815 881 840 847 842 754 754 721 736 738 752 729 693 706 704 660 702 764 669 710 731 671 725 702 636 623 595 640 633 647 568 586 642 554 594 603 564 612 606 587 592 576 559 623 588 604 590 606 592 584 637 602 604 612 596 605 628 622 617 663 591 592 657 677 647 665 649 598 651 618 641 675 682 649 614 666 602 621 660 626 681 647 661 622 625 646 613 677 635 678 655 611 610 625 609 672 656 603 606 628 631 669 570 608 641 634 596 660 617 652 672 655 659 688 655 701 716 696 679 670 708 667 706 687 690 755 726 718 736 722 664 702 680 705 696 611 662 647 690 643 660 649 649 669 655 611 648 681 618 603 611 642 588 613 596 575 590 595 606 608 634 583 584 572 544 559 586 605 597 550 579 563 566 545 587 527 559 585 588 584 642 525 561 550 582 597 577 532 548 581 535 568 551 556 566 572 522 600 524 546 582 533 567 539 551 580 550 584 558 580 589 577 529 516 522 586 546 519 556 518 536 559 559 564 554 524 560 547 566 571 593 545 548 579 572 556 545 551 582 543 571 561 561 541 510 594 553 567 560 546 538 529 542 564 582 543 543 509 593 515 566 563 518 534 568 569 522 559 532 538 571 550 540 523 508 565 585 550 543 532 541 555 517 541 553 543 548 558 546 562 549 550 549 533 541 524 542 533 574 552 538 550 530 574 532 514 585 518 581 528 517 538 540 479 548 561 568 542 565 544 566 559 548 536 539 506 520 558 544 537 557 518 531 539 515 539 558 524 519 504 521 547 558 549 542 581 556 521 519 543 548 548 575 595 552 559 536 580 516 521 585 533 614 575 555 563 547 564 511 573 554 624 554 546 520 540 607 560 480 585 576 507 551 571 542 605 558 545 555 554 515 571 548 581 501 573 592 537 528 555 517 542 509 536 519 538 543 516 544 536 555 543 542 546 565 543 509 537 539 563 542 540 493 540 498 564 540 560 544 567 514 551 539 597 548 538 541 532 559 547 529 561 561 576 573 536 496 532 540 531 564 594 512 516 513 527 534 511 545 562 512 520 575 525 569 476 559 554 541 492 504 521 537 506 515 560 539 512 563 549 551 529 507 536 534 559 547 528 526 524 523 561 536 531 560 528 509 522 500 532 504 503 497 499 522 558 540 558 572 507 532 546 522 524 582 531 546 548 513 553 497 540 509 521 505 522 536 628 541 530 531 523 573 482 516 512 561 533 547 543 523 564 557 566 581 558 559 563 543 541 495 526 501 574 570 572 550 550 583 578 572 559 587 589 557 546 541 565 556 589 577 620 527 546 539 625 571 545 551 519 564 589 573 596 580 564 529 587 588 580 606 621 606 575 577 604 574 591 605 652 634 580 601 589 607 595 624 594 574 602 588 584 600 610 538 592 580 623 605 610 591 565 552 615 536 600 568 587 567 502 541 529 575 583 550 542 561 533 549 586 537 516 529 563 548 537 524 537 552 542 548 517 527 531 517 569 493 559 527 538 487 496 566 539 530 509 496 535 550 556 540 566 567 529 537 526 519 545 548 550 553 579 545 555 566 592 519 543 528 520 518 528 533 508 528 531 528 502 543 536 525 498 535 539 516 510 583 521 532 511 526 576 538 574 550 528 499 537 560 520 500 525 541 542 516 512 490 512 478 551 495 537 530 518 466 534 543 506 556 503 499 494 488 497 512 540 467 481 527 526 463 526 551 481 505 543 560 518 484 542 535 527 543 555 548 546 518 543 541 533 506 507 483 504 516 526 568 551 527 509 552 533 512 512 541 515 535 544 552 512 523 538 501 538 516 526 515 534 527 522 534 493 550 521 533 505 531 519 485 569 558 548 524 541 504 574 557 490 539 552 528 518 569 566 498 566 548 500 541 522 550 484 510 559 559 497 521 549 530 520 513 559 531 559 578 527 591 537 544 592 554 552 564 540 540 540 614 580 585 543 629 603 631 657 626 650 651 675 612 652 620 671 681 623 609 653 652 658 670 587 655 695 694 697 636 655 723 668 743 731 712 746 822 751 743 714 815 750 747 835 781 829 802 743 805 822 888 827 786 809 780 821 836 775 769 798 810 768 826 781 780 766 737 793 791 808 740 738 733 706 716 676 677 710 681 672 689 644 610 614 625 612 638 600 656 620 601 588 598 581 575 613 560 547 562 545 584 561 557 553 559 539 565 539 566 532 530 551 520 536 522 563 550 516 537 579 515 519 506 545 533 540 518 516 472 505 517 508 522 520 544 564 545 508 563 553 517 523 538 526 495 573 507 556 521 521 532 499 557 550 487 556 572 533 521 531 541 514 522 511 529 492 558 550 499 561 509 517 494 538 517 570 557 523 503 524 472 519 481 502 513 489 530 482 514 519 464 489 526 552 495 541 519 465 536 539 529 548 494 500 518 485 524 517 485 525 552 518 460 556 486 508 527 560 489 507 514 529 518 456 524 511 528 528 490 546 485 480 498 519 480 543 548 523 484 538 484 548 504 488 535 495 481 470 503 490 532 539 473 511 555 501 506 533 486 521 491 515 557 485 498 486 523 520 539 526 522 480 549 529 501 506 489 526 473 499 507 543 507 534 490 549 568 473 521 509 536 501 488 536 523 504 538 523 484 517 494 512 511 504 514 477 521 485 490 480 552 494 517 533 530 491 481 492 493 529 497 505 458 513 518 517 492 503 501 542 514 524 529 474 543 507 537 517 461 536 529 509 543 497 490 516 515 476 528 538 525 489 534 532 482 464 505 490 466 488 519 486 521 514 510 514 538 481 480 481 490 521 518 517 495 543 514 474 493 513 506 503 509 499 540 479 472 527 522 496 479 510 522 521 537 521 463 498 467 528 522 497 535 498 510 528 502 494 485 510 507 521 515 577 548 531 523 486 509 538 555 501 511 492 526 522 494 536 512 530 526 538 519 496 497 525 509 523 509 557 536 485 521 498 507 513 566 525 511 492 520 548 514 518 520 516 525 535 546 522 542 515 506 534 485 578 470 500 528 501 516 486 474 497 502 523 516 513 513 527 475 532 526 533 518 495 485 529 519 513 513 509 482 485 519 467 533 515 503 508 514 570 520 545 525 497 508 530 497 467 496 488 542 575 495 502 486 511 501 493 504 499 504 489 482 516 484 495 497 493 530 505 511 538 502 566 504 543 502 540 550 539 539 539 513 530 507 517 508 527 477 502 532 491 527 538 501 554 499 535 502 513 502 527 500 524 487 521 529 500 575 507 497 519 488 489 482 555 523 534 551 562 509 514 534 516 517 537 510 513 587 488 508 531 513 546 531 521 540 536 521 479 489 507 507 564 527 512 537 517 493 526 518 529 545 500 497 523 522 523 489 522 529 508 518 513 554 541 504 506 533 495 535 529 494 547 537 526 533 535 506 569 523 537 521 502 574 552 533 536 503 561 532 560 560 518 554 579 537 550 530 547 534 579 547 556 548 563 602 505 559 558 560 567 553 592 552 573 611 615 583 566 578 601 573 566 563 594 567 523 578 582 565 494 583 561 593 605 580 616 576 585 577 529 593 569 553 540 591 599 546 549 525 559 560 537 622 626 586 636 580 598 603 650 609 605 589 588 600 601 630 591 637 660 643 619 636 671 706 710 651 640 680 695 674 681 649 675 638 723 672 695 641 660 618 618 662 609 623 674 655 677 629 660 654 639 649 700 652 620 666 591 605 679 679 651 615 641 577 567 555 553 656 583 582 589 621 653 620 649 607 680 627 591 598 652 583 592 579 598 574 562 615 572 551 571 636 575 594 543 610 587 561 537 536 578 547 543 531 578 582 544 541 528 551 547 606 596 567 598 575 607 553 563 550 589 584 565 548 566 612 593 534 553 567 546 560 568 499 570 534 526 572 559 564 528 522 516 547 525 588 517 581 557 564 568 551 559 576 535 543 608 505 535 561 525 547 572 551 595 554 529 531 570 495 519 537 585 606 542 501 532 538 563 533 533 527 561 554 543 559 569 484 542 572 579 534 538 569 612 582 547 564 563 584 616 575 581 581 574 597 607 609 545 559 612 628 582 612 647 588 655 650 663 675 673 672 711 716 715 870 788 776 840 848 828 868 840 824 826 941 866 865 862 876 875 892 893 952 907 909 920 936 976 951 929 1029 976 1078 1035 1067 1057 1061 1044 985 1106 1060 1043 1018 1067 1012 1033 1050 1030 908 1025 938 1007 916 935 984 952 964 971 964 1055 905 982 962 931 990 992 1016 960 1011 994 947 1014 986 968 975 921 954 859 934 911 857 909 869 906 837 847 869 827 882 838 867 851 777 848 822 846 786 759 784 813 747 775 762 756 729 686 724 658 691 698 702 677 659 676 660 666 663 666 636 633 604 629 628 600 616 570 635 594 628 622 617 648 584 608 621 594 614 559 582 628 583 566 596 619 629 616 621 574 603 602 622 586 570 581 602 541 599 564 534 579 609 564 567 616 549 570 558 562 580 578 557 601 585 570 603 572 603 592 579 579 615 636 565 547 610 596 570 554 566 596 532 622 547 519 570 570 548 517 548 549 540 591 593 603 597 595 547 535 605 591 548 546 543 544 519 525 545 543 555 523 545 526 593 545 564 541 599 576 553 593 549 596 545 563 526 535 566 544 584 545 544 623 559 588 547 567 535 569 559 556 541 546 507 549 557 551 568 571 551 536 531 573 545 578 557 583 574 504 570 545 569 587 573 529 528 536 563 563 538 537 556 502 565 532 502 573 529 534 490 533 551 547 514 495 548 551 532 513 496 537 545 510 524 571 551 497 520 464 556 475 507 507 566 499 546 518 518 558 500 567 506 531 533 521 542 549 519 529 515 506 549 523 517 530 500 499 551 500 547 521 575 495 519 490 522 507 497 492 542 529 485 522 533 513 529 516 532 489 510 517 489 538 512 529 498 553 532 536 501 524 563 513 515 541 523 503 524 493 497 487 480 494 530 540 517 522 533 500 485 452 512 493 537 529 492 518 502 544 487 522 528 505 531 491 509 479 510 507 496 559 536 495 541 533 489 517 496 499 508 550 528 519 533 519 502 520 512 514 486 540 522 553 516 542 544 526 582 513 494 518 499 512 515 541 516 498 516 517 510 516 508 516 505 544 519 522 513 506 534 529 571 537 519 563 523 554 503 517 525 511 501 539 566 532 548 552 522 536 499 548 510 576 519 508 523 503 511 480 568 529 492 549 531 560 504 494 552 517 537 556 577 590 561 571 545 518 537 577 576 488 507 515 535 561 553 638 577 576 547 568 585 577 571 578 582 578 541 533 511 541 526 535 547 558 507 550 525 543 519 504 579 569 476 560 542 510 510 530 519 534 556 528 537 524 546 508 495 540 512 526 489 535 533 543 464 525 519 495 545 549 486 550 478 561 503 521 541 529 528 465 524 515 530 518 525 536 511 475 476 535 498 534 487 526 468 524 510 533 503 514 543 512 528 517 541 548 527 539 472 547 549 555 567 499 503 536 508 544 540 499 513 510 505 555 553 581 497 549 542 533 518 566 511 567 578 565 531 607 553 565 569 567 554 539 553 542 574 549 575 573 580 560 542 557 567 543 568 596 568 597 516 564 537 561 543 575 569 533 529 525 588 575 594 567 609 575 583 519 582 551 548 566 588 552 554 596 552 599 590 578 575 574 560 565 541 547 572 521 533 518 509 564 613 539 549 600 530 555 560 529 545 545 534 562 521 533 560 529 556 505 531 539 541 540 545 550 526 554 530 497 532 487 498 525 507 474 503 527 499 545 513 518 524 511 566 494 536 542 486 527 502 504 537 538 505 540 504 520 442 515 498 496 493 510 494 515 525 547 474 511 538 540 524 496 483 531 504 494 515 506 490 517 500 537 475 492 512 498 513 490 485 528 489 498 532 507 506 518 550 503 532 492 517 520 489 473 541 533 511 489 521 507 496 497 546 527 552 508 489 508 548 495 475 533 504 525 511 512 524 536 553 503 553 517 507 543 543 541 509 555 545 524 539 507 519 515 551 531 547 520 522 481 512 528 535 530 533 537 498 515 554 521 547 545 523 531 520 498 487 517 525 523 541 539 554 532 535 534 516 579 527 511 558 559 553 553 556 548 550 520 513 532 564 548 525 521 563 546 525 555 561 535 562 563 623 607 635 630 589 643 625 594 620 599 678 639 593 602 698 680 663 741 690 660 677 674 666 698 735 663 708 657 661 734 736 701 727 737 711 712 736 763 747 773 728 726 712 750 779 747 772 782 811 813 837 777 854 835 867 836 831 858 844 820 837 819 875 822 805 850 877 842 909 835 835 832 835 865 848 846 805 825 790 747 795 782 791 827 775 768 771 727 774 757 743 741 716 747 707 709 805 714 722 736 741 704 698 698 667 660 654 682 657 697 727 633 718 638 673 651 636 715 689 659 636 656 618 665 663 567 627 670 644 598 603 622 595 630 628 600 611 563 643 626 648 592 618 623 606 570 595 602 614 663 622 568 525 557 601 599 617 600 541 581 545 531 559 558 610 544 557 554 566 549 549 582 538 601 571 551 547 594 540 531 559 563 526 554 544 531 512 553 577 519 578 500 529 535 546 535 520 554 535 551 525 521 581 508 535 554 573 580 577 529 521 572 581 525 551 537 548 548 571 601 552 557 543 524 508 563 509 572 547 567 558 553 566 559 515 542 551 531 520 546 568 511 513 525 539 549 555 506 490 549 539 548 510 571 508 486 522 527 533 533 522 510 546 530 527 524 510 564 573 500 536 527 505 525 510 547 542 524 511 508 528 507 563 520 528 550 517 556 544 516 486 501 512 527 505 553 515 497 513 520 480 488 535 517 535 596 546 558 514 536 533 498 546 512 570 490 527 463 526 500 540 513 513 512 508 539 540 487 537 566 550 525 530 516 529 514 489 510 510 508 558 509 508 521 519 558 494 554 475 508 525 508 497 514 551 529 526 503 474 539 483 519 503 557 526 517 538 515 529 519 538 507 541 526 536 501 522 480 521 535 493 501 520 547 546 518 512 525 528 534 493 533 490 526 481 525 531 488 516 504 546 523 499 545 555 507 451 491 491 538 516 503 516 513 517 476 519 522 518 517 546 501 491 512 515 453 526 530 470 561 493 525 505 495 559 540 527 524 514 508 553 551 513 521 553 551 538 542 520 566 523 496 514 529 528 526 524 497 537 490 494 491 516 500 494 506 497 528 524 556 539 575 508 521 544 517 477 516 469 516 505 536 553 522 514 541 506 552 553 520 528 489 508 527 481 532 498 525 527 483 513 502 493 563 503 525 512 487 541 507 521 517 493 557 507 483 479 515 525 469 522 518 489 559 537 501 498 483 519 528 502 498 512 515 549 520 502 506 499 525 526 495 517 494 459 508 483 535 539 500 497 568 537 535 488 507 505 528 508 568 510 542 505 515 509 487 548 529 504 529 523 480 486 495 516 506 518 498 532 502 500 548 527 545 487 523 510 509 495 522 535 551 501 513 487 502 494 500 506 480 495 498 528 511 502 477 528 516 510 529 522 504 548 496 529 484 545 471 515 519 519 488 497 458 547 490 543 539 531 505 515 530 484 518 554 507 513 553 534 567 554 561 552 518 503 520 561 529 533 575 582 540 556 547 524 542 567 601 555 573 566 550 501 530 530 547 561 508 529 516 539 537 528 527 496 508 526 476 572 576 547 570 539 498 530 494 532 504 525 546 575 515 524 552 560 555 535 579 524 582 505 543 553 558 602 556 540 551 587 547 545 519 532 608 541 587 551 567 595 566 582 597 556 581 564 546 605 614 600 587 606 609 608</counts>
			</dataPoints>
		</scan>
	</xrdMeasurement>
</xrdMeasurements>
