<?xml version="1.0"?>
<xrdMeasurements xmlns="http://www.xrdml.com/XRDMeasurement/2.3" xmlns:xsi="http://www.w3.org/2001/XMLSchema-instance" xsi:schemaLocation="http://www.xrdml.com/XRDMeasurement/2.3 http://www.xrdml.com/XRDMeasurement/2.3/XRDMeasurement.xsd" status="Completed" recordIdentifier="{70DE688D-004D-49E5-8EA7-25857F768F14}">
	<comment>
		<entry/>
	</comment>
	<sample type="To be analyzed">
		<id>GPSS_Li1p7Fe0p85Y0p2Cl4_122325_694ae824ae15af25ac372775</id>
		<name></name>
		<preparedBy></preparedBy>
	</sample>
	<xrdMeasurement measurementType="Scan" status="Completed" sampleMode="Reflection">
		<usedWavelength intended="K-Alpha 1">
			<kAlpha1 unit="Angstrom">1.5405980</kAlpha1>
			<kAlpha2 unit="Angstrom">1.5444260</kAlpha2>
			<kBeta unit="Angstrom">1.3922500</kBeta>
			<ratioKAlpha2KAlpha1>0.5000</ratioKAlpha2KAlpha1>
		</usedWavelength>
		<incidentBeamPath>
			<radius unit="mm">145.00</radius>
			<xRayTube id="1010048" name="Empyrean Cu LFF HR (9430 033 7310x)">
				<tension unit="kV">40.0</tension>
				<current unit="mA">15.0</current>
				<anodeMaterial>Cu</anodeMaterial>
				<focus type="Line">
					<length unit="mm">12.0</length>
					<width unit="mm">0.4</width>
					<takeOffAngle unit="deg">6.0</takeOffAngle>
				</focus>
			</xRayTube>
			<sollerSlit id="21010002" name="Soller slits 0.04 rad.">
				<opening unit="rad">0.0400</opening>
			</sollerSlit>
			<mask id="22031000" name="Fixed mask 13 mm">
				<width unit="mm">9.00</width>
			</mask>
			<divergenceSlit id="22120001" name="Divergence slit 1°" xsi:type="fixedDivergenceSlitType">
				<distanceToSample unit="mm">50.00</distanceToSample>
				<height unit="mm">1.52</height>
			</divergenceSlit>
		</incidentBeamPath>
		<sampleMovement xsi:type="spinningSampleMovementType">
			<spinnerRevolutionTime unit="seconds">1.0</spinnerRevolutionTime>
		</sampleMovement>
		<diffractedBeamPath>
			<radius unit="mm">145.00</radius>
			<antiScatterSlit id="22090040" name="AS slit 9 mm (PIXcel)" xsi:type="fixedAntiScatterSlitType">
				<height unit="mm">9.00</height>
			</antiScatterSlit>
			<sollerSlit id="21020003" name="Large Soller slits 0.04 rad.">
				<opening unit="rad">0.0400</opening>
			</sollerSlit>
			<filter id="20030001" name="Large beta-filter Nickel">
				<material>Ni</material>
				<thickness unit="mm">0.020</thickness>
			</filter>
			<detector id="7010019" name="PIXcel1D-Medipix3 detector" xsi:type="rtmsDetectorType">
				<phd unit="keV">
					<lowerLevel>4.02</lowerLevel>
					<upperLevel>11.27</upperLevel>
				</phd>
				<mode>Scanning</mode>
				<activeLength unit="deg">5.542</activeLength>
			</detector>
		</diffractedBeamPath>
		<scan appendNumber="0" mode="Continuous" scanAxis="Gonio" status="Completed">
			<header>
				<startTimeStamp>2025-12-25T18:58:12-08:00</startTimeStamp>
				<endTimeStamp>2025-12-25T19:06:19-08:00</endTimeStamp>
				<author>
					<name>AutomatedUser</name>
				</author>
				<source>
					<applicationSoftware version="1.7b (136)">PANalytical Aeris Instrument Suite</applicationSoftware>
					<instrumentControlSoftware version="3.2.00000000 20240306">AERIS</instrumentControlSoftware>
					<instrumentID>950485</instrumentID>
				</source>
			</header>
			<dataPoints>
				<positions axis="2Theta" unit="deg">
					<startPosition>10.00943322</startPosition>
					<endPosition>99.99442286</endPosition>
				</positions>
				<positions axis="Omega" unit="deg">
					<startPosition>5.00471661</startPosition>
					<endPosition>49.99721143</endPosition>
				</positions>
				<commonCountingTime unit="seconds">12.495</commonCountingTime>
				<counts unit="counts">3109 3091 3140 3106 3046 2968 3069 3021 3195 3107 3090 2989 3108 3153 3161 3173 3010 3101 3147 2985 3038 3108 3047 2997 2987 3004 2985 3141 3002 3173 3119 3073 3119 2999 3136 3181 3049 3154 3013 3086 3122 3107 3018 3140 3057 3054 3064 3106 3086 3066 3057 3084 3146 3053 3095 3110 3096 3056 3066 3064 3117 3110 3182 3117 3113 3057 3231 3198 3042 3187 3085 3185 3102 3091 3232 3212 3106 3139 3130 3260 3122 3106 3236 3158 3222 3110 3194 3084 3193 3163 3151 3172 3189 3125 3176 3214 3140 3196 3167 3283 3251 3167 3233 3272 3215 3245 3170 3188 3166 3136 3153 3181 3171 3232 3239 3236 3183 3174 3298 3234 3231 3245 3272 3180 3219 3256 3234 3195 3233 3287 3232 3119 3195 3165 3176 3286 3220 3168 3205 3219 3112 3138 3314 3173 3195 3242 3253 3145 3230 3243 3242 3216 3307 3110 3267 3089 3151 3119 3177 3179 3224 3167 3323 3254 3201 3207 3176 3139 3139 3269 3196 3140 3122 3158 3202 3180 3168 3214 3259 3130 3153 3126 3042 3110 3184 3122 3240 3189 3175 3241 3191 3141 3107 3219 3188 3239 3151 3033 3134 3188 3029 3213 3197 3128 3135 3137 3073 3135 3029 3133 3210 3159 3118 3119 2987 3158 3175 3051 3090 3160 3199 3035 3157 2966 3122 3064 3100 3130 3097 3067 3024 3130 3037 2985 3019 3069 3055 3085 3081 3040 3142 3050 3043 3116 3081 3006 3016 3017 3039 2990 3031 3077 3097 3019 2929 2973 3109 3004 2994 2972 2946 3162 3090 3073 2957 3013 3043 3018 2950 3029 3025 2953 3016 2997 2920 2963 2899 3037 2948 2955 2945 3037 2932 3073 2946 2952 2963 2974 2998 3003 2895 3008 3048 2995 3053 2979 2910 2976 3083 2946 2984 3009 3010 3017 3079 2958 3016 3002 3022 2982 2886 2934 2936 3000 2987 2951 3014 3044 3039 2993 3087 2991 2952 3054 3021 3097 3067 3017 3039 3151 3033 3022 2977 3132 3002 3004 3089 3099 3165 3159 3176 3057 3093 3048 3158 3122 3072 3106 3152 3205 3182 3069 3180 3178 3190 3200 3081 3165 3126 3220 3170 3210 3206 3115 3148 3247 3239 3233 3299 3198 3141 3218 3273 3266 3222 3299 3179 3369 3249 3341 3270 3351 3155 3333 3321 3406 3269 3204 3296 3322 3218 3352 3430 3366 3331 3232 3274 3302 3409 3370 3299 3338 3340 3430 3439 3442 3344 3479 3441 3419 3351 3281 3419 3451 3455 3460 3424 3449 3537 3563 3440 3509 3511 3464 3617 3485 3535 3583 3461 3511 3507 3657 3662 3628 3595 3722 3693 3660 3562 3562 3581 3697 3694 3737 3693 3617 3650 3753 3725 3765 3761 3723 3784 3779 3746 3825 3762 3670 3797 3843 4029 3950 3913 4059 3935 3904 4068 4057 3962 4063 4100 4128 4224 4153 4172 4141 4172 4224 4215 4189 4091 4219 3984 4062 3917 3850 3699 3835 3842 3692 3623 3657 3470 3546 3532 3405 3348 3360 3471 3428 3289 3337 3389 3315 3365 3384 3291 3384 3385 3336 3298 3400 3288 3343 3279 3394 3228 3339 3324 3289 3305 3301 3290 3231 3269 3266 3287 3222 3284 3139 3217 3213 3181 3187 3295 3252 3199 3233 3207 3156 3260 3237 3122 3261 3136 3092 3205 3073 3167 3192 3147 3085 3183 3181 3066 3081 3096 3088 3059 3023 3175 3164 3071 3075 3037 3171 3012 3207 3189 3099 3075 3002 3008 3105 3022 3163 3088 3121 3097 3037 3114 3093 3185 3085 3121 2966 2913 3001 2952 3038 2950 2968 3010 2927 2980 2897 3028 2925 2898 2948 3007 2903 2903 2981 2967 2922 2852 2906 2864 2936 2841 2973 2948 2877 2902 2981 3016 2997 2937 2903 2843 2897 3076 2986 2844 2978 2812 2920 2832 2959 2888 2926 2825 2936 2962 2855 2859 2960 2831 2867 2844 2860 2856 2794 2882 2797 2843 2845 2848 2872 2876 2784 2940 2805 2801 2803 2873 2827 2928 2796 2891 2998 2857 2866 2874 2853 2817 2906 2861 2866 2825 2904 2889 2743 2857 2790 2831 2792 2865 2712 2810 2759 2778 2800 2747 2779 2747 2791 2767 2883 2775 2745 2829 2756 2864 2869 2891 2930 2680 2779 2847 2839 2770 2826 2709 2865 2767 2895 2794 2811 2788 2844 2785 2803 2828 2774 2733 2802 2744 2752 2820 2794 2694 2777 2721 2730 2756 2667 2770 2719 2691 2820 2737 2776 2702 2764 2784 2799 2693 2799 2696 2762 2813 2656 2712 2787 2754 2676 2672 2715 2734 2723 2646 2703 2692 2808 2730 2736 2766 2597 2758 2637 2669 2655 2634 2679 2632 2720 2660 2634 2722 2615 2702 2718 2797 2613 2730 2658 2660 2694 2604 2754 2661 2699 2570 2694 2631 2671 2660 2581 2590 2637 2580 2691 2601 2628 2634 2608 2735 2574 2665 2739 2578 2578 2681 2619 2630 2652 2597 2615 2637 2563 2707 2523 2673 2625 2565 2673 2700 2658 2701 2625 2569 2654 2600 2578 2592 2569 2631 2666 2604 2567 2674 2618 2713 2475 2562 2559 2534 2595 2596 2544 2611 2607 2629 2550 2531 2504 2665 2503 2519 2614 2509 2607 2586 2591 2474 2511 2602 2571 2575 2595 2540 2629 2611 2520 2498 2615 2526 2558 2599 2514 2602 2523 2589 2579 2442 2625 2568 2575 2493 2539 2501 2603 2512 2551 2513 2447 2558 2572 2462 2461 2528 2491 2567 2473 2429 2450 2482 2545 2433 2516 2580 2526 2537 2480 2489 2469 2498 2545 2624 2402 2468 2431 2345 2531 2492 2522 2507 2521 2526 2502 2419 2456 2471 2486 2480 2493 2452 2403 2410 2476 2545 2442 2395 2441 2531 2547 2523 2435 2522 2508 2422 2484 2407 2472 2405 2474 2388 2460 2475 2413 2540 2463 2515 2392 2475 2407 2325 2363 2451 2461 2523 2382 2465 2530 2438 2385 2503 2397 2432 2436 2543 2438 2510 2384 2406 2458 2424 2445 2376 2437 2350 2415 2511 2395 2353 2470 2330 2432 2356 2481 2350 2428 2422 2344 2356 2336 2354 2403 2378 2295 2471 2407 2461 2365 2317 2351 2399 2357 2383 2397 2495 2457 2380 2406 2395 2381 2388 2377 2435 2416 2425 2367 2421 2385 2361 2375 2337 2412 2368 2456 2426 2377 2399 2337 2353 2409 2407 2453 2434 2348 2473 2424 2399 2433 2356 2393 2349 2356 2511 2386 2386 2363 2350 2479 2426 2418 2373 2417 2381 2452 2385 2379 2453 2423 2413 2360 2528 2388 2427 2373 2455 2486 2384 2452 2358 2453 2451 2421 2474 2389 2330 2506 2342 2440 2370 2405 2394 2448 2352 2432 2359 2418 2415 2302 2426 2429 2428 2399 2361 2417 2424 2428 2417 2358 2416 2487 2385 2471 2382 2492 2475 2297 2407 2446 2448 2476 2410 2363 2360 2382 2336 2383 2353 2376 2454 2439 2413 2376 2377 2407 2286 2351 2344 2289 2340 2354 2386 2444 2370 2354 2334 2375 2321 2376 2319 2372 2402 2393 2367 2327 2345 2314 2382 2315 2266 2385 2353 2274 2359 2298 2301 2270 2218 2410 2304 2281 2362 2218 2358 2329 2321 2338 2222 2353 2256 2389 2380 2303 2291 2194 2208 2224 2229 2214 2329 2298 2172 2261 2199 2280 2217 2286 2229 2258 2114 2284 2172 2284 2244 2286 2212 2150 2243 2096 2273 2175 2246 2198 2236 2196 2190 2202 2186 2173 2118 2194 2150 2164 2117 2109 2151 2146 2163 2111 2063 2150 2241 2112 2158 2131 2080 2030 2166 2123 2131 2137 2059 2160 2108 2048 2128 2095 2121 1999 2026 2075 2009 2036 2077 2001 2026 2043 2072 2059 2044 2074 1977 2060 2005 2039 1981 1977 2041 1915 2185 2014 1979 2013 1995 1910 1992 1974 1970 1959 2109 2002 1940 2036 1959 1957 2041 2001 2076 1977 2051 1934 2023 1983 1993 2002 1983 1957 1965 1962 1960 1880 1911 1957 1913 1920 1824 1913 2000 1900 1907 1951 1941 1925 1974 1954 1888 1886 1886 1910 1948 1882 1872 1861 1908 1777 1915 1925 1896 1844 1898 1843 1932 1919 1889 1896 1872 1846 1889 1877 1831 1842 1818 1860 1843 1885 1813 1838 1883 1855 1808 1850 1848 1854 1892 1769 1816 1890 1843 1883 1856 1817 1853 1845 1844 1803 1913 1896 1873 1821 1799 1830 1897 1913 1945 1824 1829 1942 1826 1908 1881 1885 1881 1854 1818 1869 1851 1845 1847 1879 1855 1848 1841 1839 1806 1851 1863 1925 1808 1876 1771 1871 1843 1902 1904 1871 1887 1931 1821 1791 1868 1810 1794 1861 1903 1891 1916 1837 1817 1883 1795 1835 1898 1904 1794 1881 1817 1877 1819 1820 1903 1936 1718 1872 1916 1838 1909 1890 1847 1854 1852 1883 1889 1805 1869 1812 1896 1811 1971 1763 1906 1966 1841 1875 1788 1856 1837 1873 1842 1842 1876 1916 1879 1809 1802 1891 1939 1866 1785 1908 1894 1854 1861 1878 1911 1845 1841 1863 1876 1915 1850 1852 1993 1928 1862 1919 1915 1882 1922 1845 1879 1994 1884 1906 1835 1823 1823 1900 1824 1817 1915 1897 1813 1921 1847 1908 1878 1865 1841 1832 1948 1777 1904 1838 1920 1883 1861 1839 1864 1805 1893 1869 1881 1844 1801 1919 1880 1917 1815 1838 1822 1803 1811 1821 1856 1852 1849 1819 1850 1911 1745 1818 1867 1944 1813 1816 1856 1846 1808 1866 1836 1887 1876 1791 1876 1832 1758 1793 1849 1811 1845 1798 1849 1796 1884 1860 1798 1815 1766 1865 1816 1795 1804 1922 1831 1849 1814 1717 1761 1807 1761 1767 1792 1752 1732 1680 1749 1878 1722 1772 1686 1759 1784 1838 1709 1768 1796 1773 1720 1737 1739 1648 1700 1669 1754 1660 1704 1737 1735 1736 1607 1706 1774 1608 1631 1613 1679 1593 1685 1633 1663 1679 1708 1656 1623 1730 1571 1738 1679 1718 1591 1613 1666 1650 1643 1745 1626 1691 1570 1671 1600 1645 1669 1693 1663 1718 1699 1554 1632 1560 1663 1668 1631 1671 1720 1557 1590 1566 1531 1590 1645 1623 1613 1635 1645 1643 1634 1618 1607 1582 1613 1641 1671 1615 1680 1621 1599 1548 1663 1539 1657 1563 1639 1620 1591 1581 1601 1617 1711 1613 1697 1626 1722 1617 1711 1701 1688 1638 1718 1752 1684 1688 1695 1644 1613 1653 1572 1639 1614 1651 1561 1626 1709 1613 1632 1576 1603 1546 1629 1652 1644 1687 1665 1676 1696 1730 1734 1714 1728 1719 1791 1770 1759 1755 1812 1784 1786 1868 1845 1833 1896 1852 1926 1946 1967 1842 1846 1818 1796 1756 1799 1740 1717 1732 1755 1653 1640 1643 1675 1569 1666 1663 1599 1513 1534 1491 1536 1532 1447 1572 1519 1535 1492 1539 1507 1417 1480 1486 1487 1458 1473 1582 1498 1450 1432 1538 1481 1467 1402 1508 1484 1460 1545 1480 1509 1433 1390 1496 1523 1523 1467 1476 1527 1611 1524 1545 1542 1607 1641 1667 1608 1695 1587 1624 1579 1667 1698 1666 1634 1674 1609 1647 1701 1678 1673 1680 1680 1551 1623 1642 1529 1657 1638 1620 1611 1586 1599 1704 1699 1686 1754 1729 1822 1724 1792 1727 1777 1788 1855 1958 1977 1963 1933 1907 2022 2016 2073 2089 2075 2113 2210 2214 2187 2174 2120 2138 2001 2040 1994 1976 1965 1816 1817 1791 1676 1682 1701 1505 1614 1541 1510 1488 1577 1438 1386 1476 1392 1455 1444 1473 1367 1403 1427 1395 1419 1305 1433 1391 1420 1360 1382 1384 1361 1357 1429 1303 1309 1360 1373 1344 1381 1371 1320 1328 1341 1360 1318 1296 1332 1304 1335 1356 1421 1356 1352 1303 1323 1305 1289 1293 1411 1280 1361 1377 1321 1377 1380 1342 1342 1390 1277 1355 1309 1294 1366 1366 1331 1387 1383 1341 1367 1386 1367 1358 1404 1353 1401 1417 1485 1445 1358 1430 1484 1380 1400 1487 1405 1422 1475 1430 1478 1373 1418 1415 1398 1370 1418 1403 1314 1427 1439 1401 1419 1382 1395 1339 1451 1385 1436 1400 1425 1431 1524 1488 1479 1552 1535 1508 1506 1562 1550 1647 1589 1697 1563 1689 1683 1709 1744 1608 1717 1632 1550 1627 1599 1534 1474 1449 1584 1451 1433 1441 1362 1428 1351 1447 1343 1253 1284 1258 1387 1368 1317 1358 1290 1275 1310 1254 1317 1286 1279 1346 1228 1268 1276 1295 1275 1280 1340 1277 1291 1333 1300 1241 1276 1338 1321 1358 1280 1282 1270 1383 1286 1285 1341 1261 1260 1296 1358 1280 1306 1319 1342 1260 1270 1326 1295 1338 1256 1253 1276 1260 1346 1285 1286 1279 1281 1242 1300 1307 1271 1381 1302 1326 1243 1157 1303 1307 1240 1382 1291 1333 1273 1260 1293 1301 1336 1324 1259 1294 1298 1290 1353 1358 1262 1241 1279 1248 1273 1283 1274 1239 1305 1263 1236 1275 1235 1208 1294 1219 1189 1258 1232 1206 1266 1269 1241 1209 1249 1224 1250 1233 1260 1189 1292 1268 1271 1249 1220 1178 1243 1215 1175 1267 1154 1244 1199 1194 1211 1283 1213 1256 1203 1269 1282 1210 1271 1245 1266 1255 1265 1210 1265 1260 1287 1256 1243 1188 1246 1222 1232 1237 1289 1227 1258 1334 1335 1238 1240 1276 1245 1313 1263 1262 1249 1237 1261 1283 1272 1254 1288 1241 1259 1294 1240 1327 1342 1223 1288 1250 1278 1293 1274 1250 1302 1265 1306 1330 1315 1353 1278 1340 1396 1330 1336 1332 1365 1332 1357 1348 1324 1399 1422 1393 1483 1463 1465 1548 1569 1485 1498 1683 1682 1626 1706 1711 1755 1775 1961 1844 1930 1886 2026 1843 1964 1872 1983 1925 1916 1912 1963 1900 2038 1856 2046 1907 1930 1992 1992 1899 1959 1992 2081 2048 1990 2113 2116 2190 2199 2345 2367 2579 2444 2632 2677 2864 2899 3080 3239 3309 3606 3901 4187 4365 4426 4688 4650 4667 4440 4426 4301 4059 3963 3960 3701 3564 3340 3117 3013 2793 2628 2387 2270 2220 2049 1952 1939 1845 1813 1665 1665 1539 1569 1471 1499 1407 1446 1452 1349 1398 1375 1427 1356 1404 1359 1326 1357 1317 1321 1305 1312 1279 1259 1348 1365 1408 1329 1258 1360 1330 1320 1375 1297 1312 1281 1239 1312 1322 1270 1304 1291 1260 1333 1335 1262 1334 1332 1273 1346 1331 1314 1397 1261 1346 1327 1301 1315 1267 1332 1327 1309 1363 1293 1291 1297 1395 1313 1374 1362 1332 1235 1279 1279 1374 1322 1300 1281 1335 1300 1335 1338 1306 1321 1294 1257 1270 1227 1333 1168 1272 1194 1245 1245 1273 1241 1204 1211 1172 1271 1191 1294 1247 1234 1214 1267 1230 1245 1266 1218 1260 1221 1223 1261 1238 1267 1185 1247 1237 1266 1245 1246 1164 1213 1202 1164 1189 1189 1257 1162 1172 1237 1166 1235 1254 1197 1316 1203 1155 1233 1194 1215 1197 1217 1194 1241 1303 1172 1107 1193 1239 1211 1161 1155 1202 1168 1219 1249 1215 1208 1196 1299 1244 1208 1154 1301 1151 1217 1220 1230 1199 1151 1179 1182 1206 1197 1177 1190 1234 1197 1211 1234 1243 1120 1186 1147 1228 1218 1173 1164 1225 1184 1148 1163 1155 1224 1222 1200 1224 1213 1271 1207 1167 1203 1193 1111 1162 1263 1175 1181 1190 1212 1179 1137 1198 1178 1156 1230 1212 1201 1226 1197 1185 1146 1248 1233 1154 1172 1186 1273 1176 1170 1221 1123 1192 1230 1194 1167 1150 1115 1162 1231 1184 1191 1177 1133 1111 1241 1229 1204 1151 1224 1203 1226 1232 1208 1194 1230 1121 1194 1185 1229 1231 1184 1211 1215 1191 1203 1201 1179 1250 1222 1247 1205 1214 1175 1183 1219 1199 1204 1255 1204 1241 1192 1213 1227 1193 1215 1177 1173 1181 1175 1132 1171 1269 1120 1160 1185 1150 1179 1191 1149 1156 1168 1187 1129 1119 1190 1212 1130 1244 1191 1175 1181 1179 1125 1182 1151 1178 1134 1158 1143 1141 1135 1159 1120 1170 1155 1143 1151 1212 1145 1199 1173 1178 1104 1137 1170 1155 1203 1131 1169 1154 1088 1160 1192 1187 1180 1156 1175 1168 1140 1172 1157 1211 1181 1179 1160 1170 1117 1180 1158 1150 1146 1174 1127 1135 1178 1137 1164 1119 1168 1191 1149 1108 1122 1141 1155 1146 1163 1179 1131 1139 1141 1122 1177 1158 1167 1123 1160 1158 1162 1222 1128 1102 1170 1143 1178 1130 1139 1150 1138 1113 1121 1116 1210 1158 1178 1182 1093 1202 1145 1147 1223 1117 1189 1167 1167 1188 1173 1149 1201 1229 1175 1125 1156 1120 1195 1139 1173 1177 1159 1149 1211 1141 1085 1065 1189 1155 1150 1099 1146 1157 1187 1201 1119 1131 1097 1128 1115 1124 1165 1142 1117 1189 1114 1175 1166 1205 1208 1150 1170 1154 1178 1152 1192 1151 1154 1199 1158 1136 1194 1155 1128 1177 1171 1147 1115 1160 1196 1132 1125 1156 1132 1149 1152 1208 1124 1182 1209 1157 1135 1190 1216 1127 1063 1132 1156 1137 1200 1147 1213 1169 1118 1137 1156 1187 1171 1174 1141 1190 1189 1230 1238 1309 1224 1191 1180 1175 1206 1207 1185 1201 1197 1197 1201 1224 1284 1183 1253 1158 1293 1270 1296 1223 1219 1267 1243 1256 1303 1152 1239 1223 1181 1243 1263 1288 1258 1255 1251 1315 1315 1267 1321 1285 1228 1301 1287 1302 1363 1347 1340 1298 1407 1347 1370 1324 1321 1323 1245 1256 1365 1333 1288 1291 1269 1186 1221 1230 1205 1168 1216 1200 1157 1180 1163 1149 1186 1181 1179 1196 1081 1189 1175 1200 1184 1128 1153 1169 1203 1184 1147 1174 1184 1104 1125 1125 1179 1174 1190 1120 1099 1258 1156 1137 1117 1120 1167 1155 1104 1138 1095 1131 1145 1192 1143 1163 1147 1150 1107 1156 1215 1106 1140 1198 1152 1143 1115 1148 1045 1185 1127 1177 1145 1186 1127 1103 1075 1142 1188 1097 1163 1136 1131 1115 1180 1137 1148 1151 1157 1187 1123 1147 1191 1133 1139 1145 1130 1190 1153 1126 1112 1105 1196 1140 1141 1201 1175 1186 1120 1235 1168 1166 1139 1123 1145 1187 1214 1134 1182 1190 1190 1149 1212 1121 1154 1190 1177 1217 1233 1155 1225 1172 1212 1169 1169 1198 1148 1179 1146 1249 1175 1145 1201 1143 1179 1193 1193 1218 1235 1224 1268 1219 1194 1172 1232 1198 1249 1234 1251 1224 1192 1169 1216 1184 1232 1225 1171 1229 1201 1169 1138 1239 1225 1211 1195 1145 1148 1188 1173 1161 1201 1151 1172 1153 1149 1197 1120 1096 1193 1130 1125 1117 1192 1128 1138 1084 1128 1150 1157 1214 1145 1112 1169 1172 1122 1185 1164 1140 1138 1208 1158 1135 1228 1183 1140 1213 1236 1219 1226 1148 1154 1132 1135 1136 1224 1163 1211 1110 1174 1194 1241 1164 1076 1166 1157 1149 1214 1136 1163 1120 1199 1202 1194 1092 1156 1129 1251 1115 1212 1154 1220 1116 1154 1241 1194 1183 1159 1177 1150 1148 1170 1212 1153 1083 1158 1246 1162 1243 1074 1135 1094 1165 1177 1144 1183 1193 1172 1122 1145 1136 1211 1185 1181 1170 1114 1135 1198 1134 1174 1183 1125 1200 1174 1148 1158 1210 1145 1173 1095 1083 1185 1129 1203 1208 1132 1157 1130 1145 1171 1156 1151 1197 1140 1191 1231 1121 1218 1192 1199 1160 1129 1118 1122 1107 1110 1145 1199 1211 1186 1108 1180 1144 1117 1199 1140 1148 1110 1209 1170 1234 1170 1156 1204 1204 1153 1192 1242 1185 1229 1210 1210 1172 1205 1196 1229 1140 1200 1203 1275 1330 1172 1297 1249 1281 1198 1282 1292 1252 1282 1312 1229 1343 1239 1248 1297 1213 1267 1283 1295 1252 1285 1277 1254 1332 1308 1322 1375 1343 1336 1352 1379 1425 1380 1405 1357 1388 1386 1345 1400 1453 1449 1372 1361 1369 1445 1433 1396 1294 1371 1354 1377 1352 1305 1333 1358 1342 1310 1233 1207 1266 1222 1298 1239 1207 1202 1219 1174 1205 1267 1132 1201 1212 1182 1177 1191 1170 1212 1182 1141 1173 1226 1213 1190 1173 1101 1236 1146 1158 1113 1109 1131 1169 1131 1105 1109 1200 1185 1120 1161 1153 1213 1106 1137 1159 1117 1113 1201 1193 1204 1271 1118 1161 1158 1139 1180 1182 1121 1185 1163 1125 1181 1161 1155 1185 1117 1214 1208 1150 1120 1171 1125 1167 1177 1176 1137 1127 1212 1105 1190 1180 1145 1208 1199 1220 1205 1174 1180 1117 1163 1177 1179 1175 1214 1157 1210 1198 1262 1177 1205 1177 1264 1206 1263 1192 1172 1148 1195 1172 1162 1145 1182 1199 1160 1201 1170 1190 1197 1154 1132 1168 1160 1150 1141 1143 1164 1145 1160 1135 1143 1121 1141 1184 1115 1150 1112 1152 1179 1091 1182 1116 1144 1175 1201 1196 1202 1115 1142 1104 1069 1113 1109 1138 1115 1132 1211 1131 1200 1139 1116 1142 1142 1127 1138 1201 1129 1127 1081 1196 1183 1127 1172 1147 1151 1188 1164 1094 1134 1070 1123 1160 1216 1146 1209 1161 1167 1145 1163 1144 1202 1180 1117 1110 1156 1176 1123 1182 1154 1178 1226 1200 1184 1144 1174 1171 1190 1230 1210 1112 1162 1174 1169 1170 1223 1188 1100 1233 1212 1159 1155 1193 1191 1125 1157 1198 1206 1242 1202 1221 1269 1151 1169 1167 1171 1269 1228 1266 1288 1228 1264 1241 1196 1212 1128 1214 1233 1211 1235 1226 1199 1160 1239 1200 1177 1223 1168 1178 1226 1217 1264 1197 1254 1278 1227 1193 1241 1247 1199 1247 1266 1218 1229 1232 1233 1200 1222 1254 1254 1260 1283 1264 1248 1274 1321 1243 1278 1330 1285 1339 1377 1347 1290 1290 1338 1306 1297 1318 1338 1327 1379 1323 1378 1362 1309 1287 1328 1362 1299 1324 1347 1345 1306 1343 1358 1373 1322 1301 1403 1359 1334 1330 1401 1360 1422 1377 1426 1482 1444 1433 1456 1527 1575 1628 1576 1605 1565 1679 1715 1707 1860 1730 1748 1776 1802 1709 1788 1773 1839 1791 1819 1800 1826 1963 1899 1960 2033 1958 2078 2199 2320 2369 2314 2353 2428 2405 2428 2495 2525 2419 2496 2393 2523 2555 2484 2488 2507 2507 2485 2437 2402 2375 2245 2273 2253 2155 2142 2062 2008 1995 1790 1854 1863 1735 1658 1669 1640 1515 1547 1592 1475 1475 1477 1372 1419 1421 1334 1348 1255 1358 1295 1338 1321 1274 1333 1263 1284 1253 1265 1259 1235 1276 1201 1201 1208 1167 1196 1271 1198 1258 1190 1247 1300 1144 1221 1178 1251 1185 1206 1207 1174 1190 1183 1178 1211 1176 1208 1190 1149 1191 1208 1224 1204 1132 1231 1213 1222 1227 1208 1159 1150 1178 1175 1163 1197 1165 1222 1165 1132 1165 1193 1211 1221 1150 1192 1236 1180 1167 1154 1134 1177 1233 1196 1114 1186 1179 1145 1211 1153 1165 1172 1187 1252 1128 1211 1198 1154 1179 1134 1125 1071 1161 1218 1136 1212 1136 1138 1146 1178 1152 1228 1121 1127 1147 1136 1147 1170 1203 1194 1093 1166 1123 1093 1194 1196 1199 1155 1217 1147 1139 1152 1132 1159 1206 1140 1147 1141 1203 1165 1144 1135 1141 1158 1165 1168 1192 1195 1263 1219 1273 1194 1251 1178 1236 1179 1191 1237 1206 1186 1248 1200 1277 1231 1193 1230 1294 1263 1185 1154 1171 1236 1217 1211 1233 1206 1249 1255 1278 1245 1236 1294 1235 1325 1307 1247 1273 1411 1332 1368 1332 1317 1363 1339 1313 1350 1307 1267 1305 1368 1311 1397 1379 1372 1298 1357 1281 1332 1346 1317 1225 1291 1322 1319 1269 1240 1343 1261 1260 1308 1293 1234 1262 1215 1231 1229 1200 1190 1224 1093 1263 1177 1195 1228 1251 1192 1226 1245 1157 1134 1238 1238 1184 1176 1189 1180 1180 1226 1198 1195 1170 1129 1162 1164 1170 1204 1187 1226 1274 1203 1250 1203 1236 1186 1207 1174 1185 1227 1245 1161 1148 1163 1162 1149 1226 1227 1257 1180 1148 1198 1250 1146 1166 1153 1232 1199 1140 1159 1205 1215 1211 1161 1232 1189 1204 1152 1266 1193 1214 1173 1162 1153 1181 1180 1119 1144 1185 1236 1196 1172 1220 1210 1222 1247 1241 1188 1159 1233 1146 1200 1170 1155 1152 1097 1234 1129 1199 1215 1152 1201 1188 1129 1188 1224 1160 1235 1188 1219 1207 1110 1166 1145 1221 1188 1209 1175 1128 1144 1172 1156 1237 1180 1192 1259 1218 1097 1208 1133 1204 1198 1214 1164 1173 1155 1107 1181 1216 1232 1134 1133 1220 1185 1156 1083 1187 1133 1229 1144 1175 1133 1144 1150 1241 1148 1175 1181 1170 1130 1138 1138 1155 1089 1155 1156 1124 1109 1140 1164 1136 1180 1164 1140 1141 1181 1185 1105 1177 1127 1177 1145 1164 1133 1093 1104 1120 1227 1144 1183 1081 1135 1192 1153 1157 1177 1194 1128 1108 1171 1233 1131 1162 1161 1129 1125 1197 1107 1133 1155 1214 1099 1103 1199 1161 1238 1204 1140 1101 1180 1171 1132 1212 1146 1158 1180 1128 1157 1137 1173 1129 1151 1123 1108 1152 1100 1191 1078 1129 1132 1141 1150 1189 1233 1181 1180 1115 1197 1199 1205 1134 1138 1185 1112 1141 1154 1158 1169 1154 1140 1108 1148 1124 1104 1161 1174 1123 1131 1209 1149 1196 1192 1155 1091 1163 1167 1162 1137 1184 1122 1196 1140 1140 1091 1160 1214 1134 1127 1102 1222 1101 1158 1138 1114 1106 1137 1133 1157 1136 1122 1158 1165 1169 1129 1124 1087 1122 1122 1123 1110 1137 1145 1165 1256 1099 1160 1159 1191 1170 1092 1171 1144 1104 1074 1112 1109 1162 1157 1226 1083 1162 1135 1075 1148 1072 1171 1112 1157 1183 1185 1087 1146 1101 1138 1231 1121 1144 1170 1224 1161 1141 1169 1165 1196 1229 1104 1139 1135 1125 1187 1170 1135 1083 1123 1117 1194 1192 1182 1194 1114 1142 1102 1140 1173 1128 1168 1127 1143 1154 1149 1135 1095 1056 1216 1138 1080 1176 1125 1127 1067 1174 1147 1196 1141 1132 1152 1147 1147 1136 1138 1140 1174 1146 1253 1141 1163 1171 1135 1126 1168 1097 1133 1121 1138 1155 1139 1163 1149 1188 1128 1163 1274 1119 1189 1208 1212 1124 1128 1172 1150 1122 1123 1190 1119 1135 1178 1131 1112 1151 1140 1135 1129 1151 1084 1165 1120 1180 1129 1162 1115 1200 1119 1119 1095 1131 1136 1103 1163 1135 1153 1121 1162 1144 1176 1097 1156 1200 1123 1147 1129 1168 1147 1113 1186 1107 1183 1102 1162 1169 1147 1181 1175 1172 1108 1135 1159 1163 1181 1169 1139 1142 1155 1143 1210 1176 1157 1148 1168 1130 1177 1174 1190 1246 1169 1152 1196 1236 1190 1124 1225 1131 1186 1183 1185 1203 1206 1182 1171 1170 1203 1116 1235 1116 1170 1251 1214 1147 1175 1138 1179 1302 1154 1109 1163 1245 1222 1219 1120 1201 1217 1267 1171 1265 1149 1193 1138 1177 1216 1180 1191 1188 1211 1208 1209 1205 1250 1212 1178 1244 1262 1195 1193 1197 1200 1204 1278 1167 1156 1288 1230 1253 1239 1228 1269 1192 1258 1205 1267 1179 1290 1248 1209 1255 1273 1254 1250 1251 1280 1243 1210 1365 1235 1334 1290 1290 1279 1326 1256 1308 1313 1393 1282 1353 1284 1360 1319 1365 1336 1278 1266 1350 1265 1287 1223 1291 1352 1252 1284 1295 1267 1276 1306 1278 1326 1237 1253 1279 1276 1253 1292 1273 1184 1160 1202 1274 1149 1198 1128 1206 1172 1240 1189 1243 1210 1229 1221 1179 1145 1226 1179 1189 1240 1221 1260 1188 1195 1173 1166 1214 1186 1202 1177 1189 1166 1112 1186 1170 1155 1178 1196 1216 1250 1181 1162 1248 1252 1202 1199 1189 1170 1143 1195 1174 1235 1203 1169 1224 1219 1133 1242 1183 1216 1254 1165 1199 1211 1226 1202 1166 1222 1220 1252 1238 1181 1230 1152 1238 1178 1208 1150 1236 1155 1182 1219 1210 1177 1188 1260 1193 1187 1123 1227 1147 1147 1153 1159 1223 1182 1188 1106 1155 1231 1186 1191 1182 1189 1112 1093 1257 1121 1167 1111 1185 1212 1143 1119 1177 1170 1164 1095 1165 1156 1171 1158 1218 1161 1173 1102 1176 1189 1134 1198 1178 1196 1156 1146 1155 1136 1148 1215 1181 1162 1156 1141 1151 1221 1134 1130 1184 1211 1178 1134 1181 1208 1231 1189 1145 1155 1162 1157 1217 1157 1104 1249 1108 1193 1193 1131 1235 1219 1179 1207 1151 1196 1182 1170 1217 1159 1164 1171 1236 1206 1171 1199 1107 1225 1190 1188 1263 1269 1264 1306 1274 1284 1323 1276 1259 1274 1339 1335 1201 1317 1339 1351 1392 1311 1257 1372 1309 1364 1375 1375 1415 1371 1382 1340 1374 1344 1346 1379 1316 1351 1368 1439 1377 1431 1397 1474 1406 1438 1397 1462 1471 1495 1436 1529 1439 1488 1426 1516 1470 1473 1453 1494 1565 1551 1516 1593 1500 1467 1476 1435 1437 1465 1460 1427 1462 1449 1437 1390 1423 1330 1358 1340 1295 1288 1320 1292 1297 1299 1276 1294 1284 1295 1205 1295 1154 1223 1257 1187 1248 1164 1150 1223 1208 1212 1186 1242 1202 1138 1137 1168 1207 1217 1184 1184 1188 1188 1150 1194 1215 1202 1184 1227 1169 1174 1192 1205 1200 1159 1222 1266 1366 1142 1250 1208 1152 1162 1277 1189 1196 1204 1165 1174 1176 1157 1188 1151 1109 1184 1170 1156 1210 1129 1197 1205 1150 1181 1187 1200 1211 1147 1150 1255 1189 1183 1187 1162 1138 1221 1192 1212 1136 1192 1187 1169 1148 1116 1146 1098 1188 1171 1197 1210 1143 1064 1158 1298 1117 1175 1227 1246 1249 1201 1183 1178 1213 1215 1189 1215 1211 1173 1221 1170 1237 1218 1191 1218 1212 1244 1237 1245 1205 1256 1148 1231 1254 1236 1204 1250 1182 1198 1262 1263 1190 1343 1264 1235 1242 1293 1249 1225 1251 1173 1263 1217 1328 1253 1335 1210 1221 1315 1242 1276 1293 1224 1195 1254 1252 1293 1252 1341 1225 1278 1392 1265 1285 1237 1206 1283 1252 1253 1167 1256 1250 1348 1278 1264 1309 1267 1228 1168 1220 1237 1272 1230 1256 1207 1238 1266 1162 1187 1208 1189 1277 1177 1237 1207 1250 1216 1215 1188 1192 1139 1201 1193 1245 1199 1113 1282 1216 1228 1182 1231 1105 1164 1157 1181 1206 1169 1136 1172 1155 1176 1173 1168 1139 1186 1105 1137 1130 1129 1212 1225 1191 1171 1137 1211 1143 1152 1167 1187 1134 1160 1191 1146 1121 1171 1201 1145 1092 1186 1146 1203 1257 1216 1142 1143 1154 1151 1178 1226 1146 1158 1167 1182 1201 1142 1165 1122 1190 1152 1140 1187 1153 1215 1184 1152 1160 1155 1123 1202 1200 1094 1222 1180 1207 1148 1187 1182 1147 1202 1240 1160 1242 1207 1276 1246 1222 1219 1220 1162 1194 1181 1180 1189 1211 1218 1191 1228 1212 1278 1185 1199 1143 1144 1179 1157 1235 1177 1294 1203 1158 1150 1247 1197 1133 1243 1203 1246 1276 1195 1172 1226 1201 1165 1194 1183 1190 1203 1229 1187 1172 1158 1134 1230 1143 1188 1175 1182 1139 1183 1144 1123 1128 1226 1199 1188 1202 1157 1160 1146 1196 1183 1208 1147 1173 1101 1168 1112 1135 1172 1222 1209 1149 1188 1229 1227 1125 1161 1139 1204 1133 1180 1216 1175 1225 1161 1121 1230 1139 1162 1145 1145 1203 1112 1186 1158 1249 1186 1125 1077 1115 1176 1193 1125 1169 1179 1157 1192 1201 1154 1169 1159 1115 1172 1138 1194 1203 1132 1140 1216 1208 1155 1215 1134 1196 1154 1218 1230 1207 1167 1230 1221 1148 1289 1186 1185 1154 1139 1229 1176 1164 1114 1139 1205 1180 1173 1112 1179 1147 1172 1137 1217 1164 1173 1212 1136 1150 1202 1149 1198 1134 1210 1123 1159 1214 1183 1149 1200 1205 1132 1162 1133 1219 1128 1176 1148 1101 1199 1157 1151 1210 1215 1159 1201 1168 1217 1184 1184 1135 1145 1200 1176 1151 1213 1137 1146 1151 1213 1157 1186 1192 1170 1253 1142 1183 1209 1227 1241 1196 1198 1215 1194 1140 1232 1210 1157 1227 1219 1208 1183 1202 1208 1231 1156 1212 1152 1178 1164 1191 1219 1099 1223 1152 1215 1143 1144 1181 1199 1220 1192 1265 1114 1146 1235 1217 1177 1170 1108 1248 1174 1134 1139 1223 1233 1162 1144 1163 1125 1196 1140 1154 1168 1173 1145 1128 1241 1157 1182 1108 1217 1181 1102 1099 1187 1103 1104 1175 1209 1111 1201 1211 1094 1157 1127 1139 1142 1197 1169 1186 1145 1210 1176 1163 1195 1191 1104 1169 1232 1201 1193 1151 1228 1195 1217 1271 1187 1216 1176 1177 1169 1124 1196 1193 1184 1208 1162 1214 1187 1223 1190 1204 1212 1222 1226 1181 1209 1230 1214 1219 1122 1165 1225 1207 1219 1273 1151 1196 1156 1239 1252 1198 1162 1247 1178 1180 1197 1196 1145 1231 1276 1271 1277 1182 1243 1186 1216 1264 1291 1184 1176 1209 1192 1222 1200 1161 1216 1261 1202 1231 1255 1221 1226 1214 1251 1211 1242 1265 1229 1179 1248 1227 1262 1211 1270 1199 1186 1275 1310 1242 1242 1243 1229 1166 1198 1200 1179 1193 1178 1225 1223 1177 1187 1215 1201 1131 1207 1160 1164 1179 1132 1172 1198 1174 1234 1149 1152 1163 1211 1173 1173 1200 1196 1173 1139 1163 1159 1169 1177 1144 1181 1151 1184 1185 1268 1247 1196 1226 1196 1268 1157 1142 1213 1196 1133 1127 1206 1194 1258 1194 1166 1153 1163 1181 1240 1209 1204 1206 1228 1195 1162 1174 1236 1175 1199 1232 1158 1256 1181 1139 1159 1242 1162 1155 1160 1115 1164 1238 1214 1226 1271 1214 1193 1159 1146 1174 1190 1186 1219 1204 1208 1191 1130 1181 1142 1150 1199 1227 1187 1112 1162 1138 1184 1160 1152 1248 1159 1137 1200 1170 1254 1146 1175 1180 1157 1182 1209 1231 1165 1152 1224 1217 1131 1155 1196 1187 1168 1167 1126 1163 1208 1172 1269 1222 1175 1198 1180 1100 1227 1221 1236 1188 1205 1214 1220 1228 1155 1202 1212 1165 1242 1178 1170 1166 1206 1211 1139 1213 1182 1260 1194 1169 1281 1194 1177 1177 1200 1165 1093 1161 1192 1227 1177 1168 1202 1237 1212 1178 1140 1100 1153 1127 1172 1172 1198 1199 1234 1207 1178 1219 1210 1175 1253 1167 1212 1124 1175 1184 1194 1241 1180 1188 1256 1204 1162 1245 1177 1168 1213 1226 1142 1202 1210 1180 1247 1249 1162 1213 1237 1201 1175 1258 1209 1194 1253 1262 1190 1244 1271 1265 1208 1222 1233 1194 1236 1257 1260 1202 1290 1313 1206 1288 1245 1284 1247 1338 1296 1292 1303 1302 1237 1308 1288 1350 1291 1259 1362 1321 1313 1370 1352 1394 1353 1395 1423 1390 1362 1476 1390 1354 1462 1472 1406 1436 1392 1433 1383 1424 1407 1371 1423 1380 1435 1446 1357 1376 1436 1313 1343 1312 1337 1381 1357 1375 1353 1308 1289 1279 1358 1259 1244 1251 1207 1302 1229 1204 1269 1235 1254 1157 1140 1266 1202 1210 1191 1155 1291 1236 1198 1196 1237 1138 1209 1205 1232 1176 1224 1215 1198 1191 1193 1148 1204 1223 1207 1226 1190 1216 1182 1280 1186 1243 1194 1162 1262 1217 1160 1265 1213 1155 1199 1188 1170 1190 1237 1198 1163 1220 1203 1192 1244 1268 1188 1159 1198 1231 1184 1149 1147 1212 1215 1223 1164 1257 1203 1150 1209 1144 1184 1217 1238 1219 1220 1201 1216 1187 1216 1161 1238 1191 1237 1202 1212 1229 1267 1194 1161 1188 1180 1171 1221 1169 1139 1238 1227 1154 1223 1128 1188 1220 1154 1206 1220 1179 1209 1203 1240 1277 1185 1216 1191 1236 1211 1203 1194 1186 1193 1175 1197 1203 1223 1193 1195 1263 1204 1208 1215 1154 1276 1213 1233 1168 1230 1206 1193 1157 1176 1217 1141 1174 1224 1259 1263 1263 1258 1211 1273 1190 1244 1217 1175 1269 1181 1179 1218 1201 1181 1237 1174 1215 1233 1178 1217 1205 1183 1127 1182 1195 1236 1211 1184 1187 1263 1224 1170 1261 1221 1167 1231 1200 1190 1236 1206 1218 1171 1274 1248 1201 1250 1168 1262 1183 1229 1234 1202 1225 1266 1233 1252 1190 1162 1183 1196 1207 1206 1204 1240 1199 1207 1227 1263 1187 1228 1215 1211 1192 1243 1271 1187 1207 1273 1217 1224 1153 1205 1167 1220 1182 1217 1172 1218 1218 1202 1202 1229 1155 1191 1215 1187 1235 1268 1208 1232 1220 1222 1208 1223 1291 1238 1292 1242 1259 1167 1179 1136 1194 1159 1171 1218 1214 1167 1236 1281 1185 1208 1175 1260 1242 1153 1199 1235 1194 1287 1178 1180 1301 1281 1234 1187 1201 1247 1170 1161 1195 1210 1179 1205 1268 1172 1185 1203 1255 1229 1174 1282 1234 1216 1218 1199 1184 1264 1202 1160 1190 1231 1239 1170 1155 1266 1271 1191 1155 1227 1216 1188 1150 1198 1209 1258 1139 1179 1186 1271 1208 1228 1256 1159 1183 1246 1259 1225 1199 1182 1225 1216 1175 1219 1191 1223 1131 1158 1213 1227 1226 1261 1277 1197 1263 1199 1183 1220 1144 1178 1200 1205 1192 1204 1219 1223 1180 1177 1190 1169 1220 1163 1207 1208 1250 1221 1264 1267 1210 1214 1189 1259 1248 1202 1212 1174 1216 1205 1234 1216 1209 1231 1262 1234 1253 1193 1217 1209 1199 1248 1240 1206 1256 1201 1229 1300 1213 1205 1310 1242 1267 1222 1323 1228 1228 1262 1224 1273 1275 1251 1191 1165 1297 1186 1247 1172 1209 1223 1137 1253 1165 1278 1163 1285 1243 1239 1182 1224 1227 1216 1128 1203 1197 1157 1222 1240 1278 1250 1213 1182 1216 1258 1226 1256 1144 1180 1253 1250 1256 1270 1263 1269 1217 1279 1181 1210 1225 1262 1180 1218 1210 1244 1277 1215 1257 1168 1169 1233 1238 1213 1278 1222 1217 1176 1201 1185 1203 1233 1153 1238 1190 1263 1203 1183 1197 1133 1232 1251 1242 1269 1184 1256 1209 1243 1209 1250 1182 1243 1235 1256 1186 1265 1130 1207 1226 1251 1214 1167 1212 1234 1189 1278 1166 1309 1236 1206 1271 1239 1217 1282 1234 1263 1164 1286 1208 1252 1225 1206 1249 1231 1311 1232 1293 1245 1214 1216 1260 1243 1217 1177 1280 1283 1262 1279 1247 1260 1215 1223 1265 1255 1199 1204 1203 1340 1233 1244 1215 1255 1240 1157 1249 1318 1253 1234 1251 1212 1288 1214 1270 1292 1316 1232 1281 1284 1244 1243 1281 1231 1199 1227 1305 1187 1304 1235 1217 1262 1278 1242 1305 1269 1268 1303 1270 1279 1283 1258 1311 1231 1227 1254 1235 1316 1256 1255 1270 1333 1313 1232 1315 1264 1319 1314 1332 1291 1333 1387 1333 1335 1304 1352 1344 1306 1276 1294 1324 1302 1314 1309 1256 1288 1354 1314 1309 1370 1349 1322 1327 1336 1359 1304 1329 1261 1358 1348 1357 1308 1325 1304 1295 1313 1310 1269 1350 1277 1277 1349 1304 1293 1249 1325 1299 1326 1311 1300 1321 1267 1293 1244 1250 1311 1257 1263 1290 1222 1333 1258 1285 1284 1335 1324 1248 1263 1229 1263 1264 1237 1249 1276 1303 1234 1270 1245 1259 1253 1315 1282 1282 1244 1316 1266 1271 1246 1276 1261 1266 1252 1304 1253 1242 1245 1261 1328 1280 1244 1311 1308 1227 1209 1267 1216 1238 1274 1201 1237 1221 1273 1188 1251 1190 1201 1247 1213 1339 1226 1252 1318 1243 1245 1228 1198 1259 1236 1286 1246 1218 1211 1219 1353 1319 1312 1216 1249 1271 1291 1276 1183 1252 1271 1223 1262 1259 1182 1250 1251 1260 1232 1206 1247 1263 1243 1265 1244 1269 1219 1325 1262 1199 1243 1316 1263 1268 1235 1252 1235 1253 1245 1217 1277 1270 1247 1290 1209 1312 1210 1269 1264 1276 1208 1312 1276 1298 1251 1301 1303 1285 1274 1237 1231 1290 1259 1249 1296 1271 1297 1311 1303 1300 1249 1276 1278 1260 1287 1230 1286 1274 1263 1322 1266 1261 1263 1334 1289 1206 1280 1224 1321 1299 1304 1294 1303 1267 1303 1300 1266 1238 1311 1301 1362 1234 1326 1267 1366 1324 1336 1274 1353 1331 1334 1312 1330 1337 1326 1345 1361 1336 1310 1432 1340 1411 1353 1367 1330 1389 1315 1387 1408 1464 1421 1402 1369 1456 1442 1494 1457 1482 1495 1478 1520 1561 1440 1501 1531 1560 1434 1548 1508 1512 1546 1485 1559 1531 1613 1510 1620 1574 1559 1549 1670 1585 1624 1567 1635 1637 1574 1528 1541 1562 1537 1546 1609 1498 1507 1461 1514 1506 1554 1485 1542 1463 1448 1494 1387 1402 1434 1445 1443 1453 1336 1393 1397 1428 1371 1457 1357 1437 1350 1427 1412 1389 1353 1339 1338 1305 1336 1309 1310 1338 1334 1335 1223 1325 1308 1311 1320 1292 1271 1249 1333 1313 1331 1262 1325 1313 1308 1250 1276 1355 1299 1297 1276 1365 1238 1277 1248 1219 1285 1264 1251 1269 1313 1245 1263 1265 1285 1251 1286 1317 1278 1223 1270 1239 1256 1205 1303 1270 1294 1233 1319 1216 1222 1261 1232 1273 1232 1270 1304 1251 1301 1338 1280 1228 1262 1278 1259 1314 1303 1313 1260 1229 1204 1315 1215 1286 1165 1286 1283 1266 1278 1311 1214 1283 1200 1222 1247 1237 1281 1300 1238 1185 1243 1209 1199 1265 1307 1276 1338 1253 1247 1299 1241 1262 1300 1249 1366 1282 1307 1314 1218 1284 1253 1210 1279 1265 1265 1248 1363 1309 1296 1231 1226 1291 1271 1361 1253 1308 1281 1303 1216 1268 1300 1337 1242 1282 1271 1288 1339 1216 1315 1251 1272 1362 1230 1347 1317 1245 1283 1253 1275 1326 1274 1317 1237 1280 1284 1289 1291 1285 1221 1317 1280 1269 1233 1322 1272 1277 1298 1279 1254 1274 1317 1280 1287 1292 1273 1293 1278 1338 1265 1300 1289 1215 1336 1321 1277 1274 1252 1214 1253 1253 1340 1345 1255 1313 1269 1272 1310 1326 1306 1283 1310 1236 1271 1264 1275 1273 1249 1301 1270 1280 1284 1341 1257 1273 1281 1257 1280 1216 1257 1209 1288 1257 1230 1289 1261 1327 1259 1372 1267 1318 1348 1285 1318 1310 1218 1262 1232 1263 1281 1234 1286 1251 1275 1273 1219 1265 1271 1275 1220 1258 1266 1286 1213 1180 1286 1208 1262 1271 1239 1309 1235 1213 1261 1259 1271 1284 1285 1254 1282 1281 1251 1266 1174 1259 1231 1225 1283 1279 1198 1185 1294 1247 1223 1244 1317 1274 1339 1250 1313 1268 1205 1204 1227 1287 1236 1269 1166 1282 1224 1313 1261 1283 1294 1229 1283 1254 1246 1208 1293 1307 1290 1249 1216 1256 1334 1337 1322 1272 1288 1253 1281 1300 1280 1244 1293 1233 1285 1259 1278 1258 1171 1248 1297 1223 1307 1349 1220 1248 1315 1225 1250 1300 1222 1315 1266 1288 1224 1229 1239 1297 1234 1305 1241 1274 1297 1256 1299 1236 1358 1251 1324 1213 1284 1289 1276 1210 1288 1299 1310 1315 1221 1261 1237 1226 1263 1276 1231 1283 1272 1304 1257 1246 1356 1249 1166 1281 1230 1262 1263 1277 1198 1257 1235 1237 1253 1279 1320 1235 1304 1234 1204 1279 1209 1293 1281 1259 1196 1284 1229 1178 1318 1252 1246 1338 1317 1279 1260 1249 1288 1174 1318 1210 1232 1293 1246 1236 1304 1231 1235 1267 1264 1239 1337 1232 1283 1275 1268 1283 1266 1294 1277 1246 1276 1293 1313 1254 1249 1285 1243 1238 1287 1317 1254 1326 1230 1265 1300 1268 1272 1311 1245 1257 1248 1220 1266 1375 1352 1251 1285 1345 1275 1222 1290 1301 1244 1235 1280 1297 1219 1209 1298 1264 1284 1293 1253 1240 1279 1231 1312 1240 1172 1255 1282 1215 1302 1276 1296 1300 1226 1304 1313 1319 1258 1276 1244 1298 1265 1296 1316 1305 1258 1254 1331 1306 1277 1260 1306 1323 1265 1237 1265 1271 1284 1253 1285 1250 1250 1293 1196 1303 1334 1242 1336 1301 1297 1205 1233 1256 1341 1285 1241 1252 1332 1288 1330 1316 1266 1303 1317 1356 1307 1317 1342 1332 1362 1339 1345 1351 1244 1342 1267 1287 1291 1359 1312 1312 1328 1261 1346 1302 1295 1280 1293 1258 1287 1316 1298 1317 1267 1271 1304 1319 1319 1316 1312 1295 1358 1297 1378 1333 1349 1318 1282 1297 1277 1283 1286 1298 1284 1369 1348 1256 1340 1285 1287 1312 1241 1306 1364 1297 1299 1301 1275 1324 1289 1277 1257 1315 1339 1284 1340 1258 1310 1289 1288 1359 1270 1311 1322 1378 1333 1219 1327 1304 1332 1213 1259 1319 1319 1288 1258 1286 1263 1291 1295 1288 1270 1266 1286 1246 1224 1240 1241 1242 1296 1254 1257 1304 1247 1263 1198 1256 1177 1275 1327 1333 1296 1318 1367 1305 1259 1358 1304 1310 1351 1319 1285 1263 1274 1264 1275 1284 1322 1297 1260 1331 1277 1289 1360 1304 1265 1343 1352 1284 1309 1302 1288 1336 1315 1291 1305 1342 1283 1282 1353 1295 1292 1240 1299 1311 1338 1311 1305 1301 1341 1318 1261 1268 1265 1235 1304 1388 1254 1353 1220 1320 1310 1330 1276 1270 1321 1305 1290 1282 1319 1323 1265 1315 1262 1276 1332 1324 1265 1274 1376 1315 1282 1326 1308 1268 1268 1293 1227 1316 1261 1316 1310 1263 1291 1296 1202 1272 1348 1362 1358 1332 1283 1335 1263 1279 1292 1262 1287 1334 1221 1283 1319 1290 1307 1305 1334 1304 1258 1277 1328 1287 1305 1271 1302 1306 1274 1226 1287 1330 1271 1236 1260 1280 1307 1233 1355 1228 1253 1285 1316 1375 1252 1284 1376 1340 1259 1320 1333 1313 1240 1344 1322 1295 1294 1324 1341 1281 1400 1333 1334 1359 1403 1241 1374 1322 1332 1311 1383 1340 1396 1397 1386 1381 1375 1387 1389 1443 1438 1361 1424 1390 1395 1331 1397 1513 1464 1436 1512 1487 1430 1419 1424 1436 1460 1469 1480 1529 1509 1366 1469 1463 1507 1520 1524 1401 1479 1484 1477 1457 1548 1447 1542 1547 1468 1547 1515 1597 1521 1599 1569 1529 1572 1501 1472 1552 1550 1563 1568 1419 1489 1491 1499 1500 1505 1467 1450 1459 1474 1442 1364 1448 1425 1467 1444 1445 1450 1409 1403 1391 1480 1475 1431 1385 1412 1400 1404 1395 1362 1353 1348 1364 1367 1346 1354 1352 1357 1334 1396 1411 1292 1302 1322 1295 1349 1301 1256 1289 1276 1306 1322 1314 1276 1295 1295 1289 1361 1347 1372 1287 1251 1291 1292 1307 1305 1323 1309 1346 1292 1302 1254 1252 1342 1291 1330 1286 1267 1309 1310 1352 1350 1338 1279 1346 1295 1320 1375 1318 1283 1353 1250 1286 1265 1301 1328 1228 1325 1335 1274 1284 1275 1363 1286 1332 1257 1327 1307 1253 1277 1357 1289 1281 1371 1325 1308 1299 1264 1380 1250 1275 1270 1387 1229 1324 1353 1290 1255 1304 1324 1332 1350 1334 1382 1311 1269 1341 1313 1298 1324 1256 1268 1357 1350 1324 1322 1313 1296 1366 1304 1388 1354 1353 1247 1271 1309 1251 1363 1290 1311 1406 1313 1330 1306 1299 1318 1327 1289 1320 1364 1314 1226 1263 1342 1374 1349 1272 1316 1312 1356 1319 1419 1246 1321 1323 1272 1348 1273 1370 1295 1399 1331 1321 1314 1340 1336 1250 1281 1277 1305 1324 1328 1235 1266 1278 1292 1310 1294 1286 1369 1305 1260 1318 1217 1281 1307 1347 1266 1350 1271 1248 1364 1222 1258 1346 1298 1283 1297 1348 1327 1259 1257 1306 1255 1327 1183 1238 1291 1262 1283 1332 1325 1323 1315 1316 1349 1359 1171 1291 1267 1267 1242 1283 1334 1355 1333 1270 1310 1248 1264 1276 1342 1260 1317 1236 1305 1297 1271 1298 1298 1355 1243 1237 1369 1316 1304 1335 1328 1277 1280 1268 1257 1261 1325 1339 1333 1311 1262 1315 1351 1336 1279 1360 1302 1291 1349 1245 1267 1285 1279 1308 1296 1347 1309 1286 1299 1414 1207 1320 1377 1352 1279 1320 1355 1262 1287 1330 1294 1325 1284 1210 1311 1309 1310 1354 1286 1326 1322 1361 1388 1339 1357 1278 1362 1335 1336 1340 1339 1298 1323 1323 1328 1258 1293 1363 1354 1278 1290 1300 1344 1236 1290 1326 1332 1338 1280 1234 1311 1323 1294 1322 1312 1380 1338 1352 1233 1240 1363 1336 1288 1346 1287 1258 1294 1366 1273 1288 1328 1264 1312 1265 1343 1283 1353 1283 1275 1357 1298 1306 1323 1357 1326 1334 1357 1362 1268 1207 1279 1277 1315 1383 1287 1293 1333 1315 1285 1345 1324 1264 1357 1318 1345 1355 1281 1369 1380 1302 1318 1300 1381 1352 1311 1265 1347 1298 1309 1313 1268 1326 1331 1293 1301 1341 1295 1328 1408 1304 1317 1242 1328 1248 1363 1295 1249 1283 1255 1312 1315 1296 1360 1299 1300 1304 1291 1298 1344 1314 1282 1310 1323 1297 1325 1296 1294 1323 1290 1301 1288 1302 1263 1302 1322 1263 1234 1255 1313 1255 1272 1269 1328 1392 1248 1342 1277 1267 1327 1222 1367 1305 1318 1360 1281 1264 1311 1329 1287 1257 1290 1302 1340 1364 1313 1309 1301 1287 1347 1316 1270 1237 1300 1314 1292 1276 1356 1403 1300 1402 1357 1265 1273 1349 1286 1295 1321 1319 1283 1330 1316 1309 1332 1340 1299 1262 1314 1290 1274 1365 1304 1355 1292 1300 1270 1281 1266 1275 1300 1361 1352 1413 1274 1356 1372 1278 1374 1320 1334 1327 1311 1340 1290 1321 1354 1276 1361 1287 1334 1289 1300 1270 1375 1327 1262 1303 1353 1294 1309 1345 1312 1340 1314 1338 1320 1388 1362 1342</counts>
			</dataPoints>
		</scan>
	</xrdMeasurement>
</xrdMeasurements>
