<?xml version="1.0"?>
<xrdMeasurements xmlns="http://www.xrdml.com/XRDMeasurement/2.3" xmlns:xsi="http://www.w3.org/2001/XMLSchema-instance" xsi:schemaLocation="http://www.xrdml.com/XRDMeasurement/2.3 http://www.xrdml.com/XRDMeasurement/2.3/XRDMeasurement.xsd" status="Completed" recordIdentifier="{B2C719F1-EEDB-4253-868F-B1CB4A655AEF}">
	<comment>
		<entry/>
	</comment>
	<sample type="To be analyzed">
		<id>GPSS_Li1p45Mn0p51Sc0p51Cl4_122625_694efed0ae15af25ac374c53</id>
		<name></name>
		<preparedBy></preparedBy>
	</sample>
	<xrdMeasurement measurementType="Scan" status="Completed" sampleMode="Reflection">
		<usedWavelength intended="K-Alpha 1">
			<kAlpha1 unit="Angstrom">1.5405980</kAlpha1>
			<kAlpha2 unit="Angstrom">1.5444260</kAlpha2>
			<kBeta unit="Angstrom">1.3922500</kBeta>
			<ratioKAlpha2KAlpha1>0.5000</ratioKAlpha2KAlpha1>
		</usedWavelength>
		<incidentBeamPath>
			<radius unit="mm">145.00</radius>
			<xRayTube id="1010048" name="Empyrean Cu LFF HR (9430 033 7310x)">
				<tension unit="kV">40.0</tension>
				<current unit="mA">15.0</current>
				<anodeMaterial>Cu</anodeMaterial>
				<focus type="Line">
					<length unit="mm">12.0</length>
					<width unit="mm">0.4</width>
					<takeOffAngle unit="deg">6.0</takeOffAngle>
				</focus>
			</xRayTube>
			<sollerSlit id="21010002" name="Soller slits 0.04 rad.">
				<opening unit="rad">0.0400</opening>
			</sollerSlit>
			<mask id="22031000" name="Fixed mask 13 mm">
				<width unit="mm">9.00</width>
			</mask>
			<divergenceSlit id="22120001" name="Divergence slit 1°" xsi:type="fixedDivergenceSlitType">
				<distanceToSample unit="mm">50.00</distanceToSample>
				<height unit="mm">1.52</height>
			</divergenceSlit>
		</incidentBeamPath>
		<sampleMovement xsi:type="spinningSampleMovementType">
			<spinnerRevolutionTime unit="seconds">1.0</spinnerRevolutionTime>
		</sampleMovement>
		<diffractedBeamPath>
			<radius unit="mm">145.00</radius>
			<antiScatterSlit id="22090040" name="AS slit 9 mm (PIXcel)" xsi:type="fixedAntiScatterSlitType">
				<height unit="mm">9.00</height>
			</antiScatterSlit>
			<sollerSlit id="21020003" name="Large Soller slits 0.04 rad.">
				<opening unit="rad">0.0400</opening>
			</sollerSlit>
			<filter id="20030001" name="Large beta-filter Nickel">
				<material>Ni</material>
				<thickness unit="mm">0.020</thickness>
			</filter>
			<detector id="7010019" name="PIXcel1D-Medipix3 detector" xsi:type="rtmsDetectorType">
				<phd unit="keV">
					<lowerLevel>4.02</lowerLevel>
					<upperLevel>11.27</upperLevel>
				</phd>
				<mode>Scanning</mode>
				<activeLength unit="deg">5.542</activeLength>
			</detector>
		</diffractedBeamPath>
		<scan appendNumber="0" mode="Continuous" scanAxis="Gonio" status="Completed">
			<header>
				<startTimeStamp>2025-12-28T11:47:52-08:00</startTimeStamp>
				<endTimeStamp>2025-12-28T11:55:59-08:00</endTimeStamp>
				<author>
					<name>AutomatedUser</name>
				</author>
				<source>
					<applicationSoftware version="1.7b (136)">PANalytical Aeris Instrument Suite</applicationSoftware>
					<instrumentControlSoftware version="3.2.00000000 20240306">AERIS</instrumentControlSoftware>
					<instrumentID>950485</instrumentID>
				</source>
			</header>
			<dataPoints>
				<positions axis="2Theta" unit="deg">
					<startPosition>10.00943322</startPosition>
					<endPosition>99.99442286</endPosition>
				</positions>
				<positions axis="Omega" unit="deg">
					<startPosition>5.00471661</startPosition>
					<endPosition>49.99721143</endPosition>
				</positions>
				<commonCountingTime unit="seconds">12.495</commonCountingTime>
				<counts unit="counts">2545 2543 2497 2458 2543 2478 2519 2525 2491 2494 2461 2566 2527 2557 2606 2443 2521 2540 2551 2474 2540 2528 2611 2442 2486 2426 2545 2481 2653 2537 2455 2531 2641 2564 2610 2572 2542 2513 2615 2503 2504 2508 2618 2528 2538 2509 2570 2512 2554 2527 2516 2642 2505 2554 2545 2552 2491 2570 2541 2603 2499 2503 2576 2520 2474 2589 2496 2596 2531 2567 2633 2627 2584 2576 2607 2515 2661 2653 2642 2650 2598 2565 2565 2602 2568 2529 2626 2568 2645 2516 2503 2498 2676 2665 2599 2626 2584 2548 2575 2624 2616 2587 2559 2656 2618 2622 2667 2609 2583 2586 2525 2549 2613 2563 2687 2502 2520 2607 2565 2595 2556 2630 2568 2655 2577 2581 2643 2637 2553 2629 2594 2575 2651 2536 2493 2619 2589 2471 2446 2548 2623 2594 2612 2587 2590 2551 2434 2542 2581 2560 2575 2557 2500 2554 2549 2644 2616 2510 2528 2568 2480 2528 2509 2487 2633 2514 2521 2587 2669 2502 2550 2545 2566 2559 2519 2606 2542 2561 2496 2540 2497 2549 2511 2567 2509 2523 2584 2466 2463 2486 2503 2595 2440 2518 2538 2624 2469 2482 2526 2417 2462 2492 2480 2495 2523 2404 2475 2583 2383 2377 2586 2370 2467 2484 2489 2496 2465 2382 2467 2428 2527 2381 2470 2446 2520 2376 2447 2439 2389 2394 2459 2402 2393 2389 2522 2387 2428 2317 2340 2411 2379 2416 2380 2369 2444 2452 2425 2423 2417 2455 2460 2346 2338 2373 2336 2439 2416 2299 2344 2403 2282 2314 2241 2216 2343 2302 2354 2321 2335 2201 2383 2276 2328 2274 2315 2283 2281 2377 2318 2272 2280 2261 2278 2291 2355 2301 2308 2267 2273 2265 2273 2202 2284 2356 2309 2428 2194 2295 2240 2254 2279 2313 2185 2214 2333 2262 2249 2248 2307 2198 2242 2341 2205 2288 2270 2246 2312 2232 2203 2257 2275 2211 2143 2195 2184 2230 2321 2229 2230 2158 2256 2238 2280 2204 2184 2229 2107 2226 2222 2286 2214 2224 2188 2209 2205 2162 2191 2208 2262 2258 2213 2246 2240 2216 2216 2184 2190 2186 2257 2178 2194 2159 2143 2145 2192 2252 2277 2250 2306 2286 2285 2232 2193 2205 2307 2245 2267 2356 2207 2261 2301 2293 2286 2149 2227 2263 2285 2308 2269 2220 2252 2219 2330 2399 2380 2369 2299 2340 2306 2351 2302 2396 2412 2395 2480 2354 2491 2450 2538 2488 2504 2515 2676 2639 2760 2726 2914 2827 2891 3189 3016 3232 3333 3462 3496 3489 3506 3562 3587 3470 3482 3277 3218 3056 2994 2941 2999 2850 2825 2713 2700 2775 2711 2686 2710 2695 2661 2575 2551 2528 2571 2555 2585 2489 2548 2525 2685 2543 2567 2556 2538 2422 2490 2459 2488 2519 2529 2533 2557 2477 2424 2584 2539 2433 2479 2539 2581 2401 2530 2533 2542 2414 2545 2452 2518 2419 2488 2456 2494 2573 2548 2481 2566 2440 2454 2541 2418 2623 2540 2574 2511 2611 2588 2542 2592 2498 2528 2503 2495 2551 2646 2643 2635 2560 2610 2651 2601 2633 2682 2730 2673 2690 2697 2656 2654 2669 2702 2647 2694 2572 2617 2531 2586 2539 2550 2550 2512 2446 2341 2290 2383 2316 2327 2416 2327 2314 2283 2271 2243 2317 2281 2250 2239 2139 2226 2232 2380 2218 2170 2190 2269 2184 2163 2239 2167 2210 2181 2270 2148 2137 2138 2242 2111 2111 2184 2145 2155 2274 2260 2069 2195 2145 2203 2143 2182 2142 2073 2180 2134 2105 2180 2061 2135 2087 2017 2033 2149 2158 2216 2102 2032 2188 2011 2054 2050 2063 2142 2098 2126 2089 2147 2100 2081 2003 2113 2063 2102 2030 2068 2073 2072 2137 2065 2027 2035 2097 2105 2155 1986 1956 2053 2010 2126 2068 2053 1957 2111 1993 2031 2027 2063 2055 2082 1997 2073 2027 2053 1987 1983 1993 2010 1935 2007 1984 2049 1996 1987 2013 1969 2030 1917 1971 2031 1915 1885 1951 1962 1997 1938 2005 2046 2021 2033 2029 1955 1947 1927 1996 1995 1971 1980 1949 1972 2000 1852 1958 1941 1948 2021 1941 1927 2023 1884 1938 1898 1886 1860 1945 1908 1951 2025 1934 2025 1946 1950 1997 1931 1996 1936 1972 2015 2004 1930 2022 1964 1976 1956 1952 1935 2036 1969 1985 1867 1916 1978 1910 1891 1969 1967 1936 1948 1872 1899 1915 1943 1903 1924 1877 1930 1927 1877 1948 1904 1937 1879 1930 1894 1900 1932 1862 1985 1946 1868 1914 1879 1871 1889 2000 1900 1917 1903 1977 1890 1964 1909 1871 1844 1870 1921 1879 1942 1905 1951 1911 1854 1837 1955 1835 1866 1862 1830 1877 1871 1825 1876 1892 1967 1801 1923 1861 1945 1866 1806 1933 1800 1868 1883 1859 1903 1865 1903 1839 1900 1869 1778 1906 1790 1973 1949 1748 1860 1855 1929 1851 1855 1850 1847 1844 1901 1840 1879 1882 1907 1838 1877 1843 1876 1819 1862 1790 1837 1868 1853 1818 1827 1845 1819 1786 1890 1799 1810 1838 1849 1813 1724 1764 1811 1835 1762 1901 1825 1823 1781 1842 1822 1863 1787 1787 1881 1739 1834 1852 1805 1752 1800 1874 1820 1821 1796 1722 1772 1769 1781 1789 1816 1850 1877 1778 1761 1792 1847 1710 1739 1810 1734 1876 1885 1793 1815 1780 1776 1759 1829 1827 1825 1812 1770 1783 1840 1881 1696 1825 1812 1745 1819 1776 1783 1795 1787 1762 1752 1739 1879 1836 1791 1801 1761 1820 1834 1740 1774 1764 1726 1837 1854 1763 1826 1796 1833 1787 1788 1854 1813 1756 1759 1819 1669 1810 1770 1851 1761 1670 1747 1716 1766 1706 1747 1704 1728 1763 1816 1582 1716 1743 1792 1723 1735 1750 1804 1759 1668 1682 1740 1728 1763 1746 1748 1772 1707 1771 1666 1669 1781 1690 1734 1714 1726 1669 1732 1697 1828 1668 1769 1724 1742 1755 1692 1704 1791 1672 1784 1645 1730 1733 1764 1771 1706 1672 1696 1703 1702 1704 1711 1766 1742 1755 1736 1706 1773 1709 1659 1783 1778 1706 1701 1736 1769 1648 1702 1739 1733 1728 1752 1752 1728 1687 1753 1763 1718 1724 1708 1752 1725 1785 1741 1706 1643 1742 1780 1710 1679 1665 1710 1723 1724 1662 1669 1708 1690 1689 1727 1725 1730 1715 1663 1687 1696 1735 1712 1646 1720 1733 1658 1702 1725 1638 1714 1728 1742 1751 1781 1698 1619 1652 1671 1750 1721 1711 1649 1788 1710 1722 1684 1679 1736 1751 1751 1713 1703 1752 1648 1553 1748 1695 1751 1740 1782 1723 1714 1727 1640 1689 1696 1725 1738 1765 1681 1651 1780 1771 1743 1669 1696 1681 1767 1646 1674 1671 1771 1720 1773 1734 1678 1764 1716 1718 1671 1760 1733 1709 1751 1703 1729 1649 1750 1673 1724 1696 1701 1693 1752 1757 1742 1715 1738 1619 1726 1667 1708 1708 1719 1729 1713 1621 1693 1668 1739 1715 1722 1664 1623 1573 1709 1630 1691 1631 1694 1679 1642 1670 1619 1724 1659 1742 1649 1658 1758 1679 1702 1687 1743 1664 1619 1584 1613 1699 1779 1653 1624 1587 1638 1688 1627 1637 1648 1696 1636 1632 1595 1635 1660 1636 1617 1683 1551 1651 1723 1568 1533 1544 1540 1651 1597 1602 1655 1664 1621 1608 1654 1563 1566 1564 1618 1601 1603 1672 1528 1643 1586 1549 1614 1570 1556 1654 1659 1524 1501 1552 1557 1593 1644 1515 1556 1580 1559 1559 1575 1552 1513 1566 1494 1539 1501 1480 1502 1561 1515 1524 1496 1519 1537 1558 1566 1578 1654 1517 1536 1535 1481 1502 1484 1484 1466 1462 1446 1542 1449 1480 1481 1479 1501 1476 1494 1516 1496 1449 1513 1486 1512 1457 1458 1442 1502 1382 1438 1437 1466 1505 1429 1490 1366 1489 1400 1494 1467 1495 1496 1416 1437 1372 1454 1407 1491 1366 1424 1448 1444 1452 1428 1385 1409 1431 1416 1445 1431 1495 1447 1429 1414 1410 1463 1419 1444 1363 1367 1426 1369 1482 1361 1353 1374 1377 1448 1352 1304 1346 1417 1372 1451 1416 1409 1382 1391 1378 1335 1403 1399 1427 1400 1376 1389 1312 1306 1419 1354 1335 1401 1283 1419 1357 1312 1320 1381 1415 1369 1468 1378 1378 1335 1354 1373 1409 1381 1389 1371 1407 1358 1298 1359 1340 1332 1289 1380 1233 1365 1329 1399 1322 1323 1357 1343 1268 1243 1319 1337 1349 1382 1323 1312 1339 1296 1353 1400 1372 1324 1319 1347 1340 1299 1351 1316 1362 1328 1437 1302 1353 1356 1294 1370 1333 1327 1386 1347 1403 1306 1317 1325 1430 1333 1313 1356 1360 1351 1340 1351 1327 1364 1354 1357 1298 1412 1332 1481 1315 1303 1344 1399 1338 1310 1393 1361 1316 1351 1359 1377 1305 1417 1291 1347 1335 1298 1330 1303 1345 1371 1341 1312 1345 1327 1346 1333 1383 1322 1349 1290 1341 1333 1393 1349 1385 1370 1314 1326 1361 1317 1338 1397 1326 1373 1294 1264 1336 1318 1326 1366 1362 1318 1335 1305 1360 1371 1301 1362 1361 1250 1360 1338 1341 1325 1359 1313 1364 1316 1427 1376 1362 1294 1337 1339 1348 1339 1401 1319 1381 1377 1350 1368 1397 1300 1316 1237 1307 1415 1366 1318 1391 1285 1404 1353 1318 1339 1199 1312 1309 1309 1361 1246 1314 1353 1329 1359 1313 1298 1260 1319 1389 1317 1325 1261 1326 1291 1319 1276 1291 1307 1365 1338 1331 1289 1287 1366 1330 1294 1320 1231 1276 1279 1288 1276 1268 1223 1216 1226 1280 1252 1210 1298 1304 1349 1262 1250 1301 1283 1289 1302 1257 1277 1275 1216 1262 1266 1324 1246 1236 1269 1225 1283 1274 1234 1286 1351 1237 1203 1245 1246 1212 1295 1208 1230 1255 1261 1272 1293 1234 1274 1208 1279 1203 1289 1273 1255 1266 1241 1249 1161 1263 1243 1284 1246 1217 1251 1208 1240 1309 1356 1295 1293 1230 1329 1347 1348 1353 1418 1516 1576 1571 1609 1665 1670 1769 1804 1941 1761 1760 1745 1633 1744 1601 1681 1530 1473 1376 1401 1354 1315 1323 1245 1295 1297 1293 1272 1265 1283 1232 1165 1232 1172 1187 1187 1213 1141 1230 1167 1154 1204 1204 1164 1176 1194 1174 1227 1154 1092 1180 1203 1201 1145 1121 1148 1134 1167 1160 1217 1203 1117 1175 1134 1229 1145 1200 1196 1219 1084 1168 1156 1188 1120 1204 1162 1148 1116 1077 1210 1228 1157 1190 1141 1157 1241 1160 1149 1183 1103 1157 1128 1167 1084 1221 1062 1177 1179 1211 1156 1200 1220 1217 1156 1241 1166 1247 1196 1242 1248 1296 1275 1312 1379 1450 1426 1551 1587 1681 1800 1850 2017 2183 2329 2562 2685 2940 2942 2913 2916 2897 2809 2756 2626 2509 2420 2359 2222 2110 2094 2015 1946 1955 1930 1964 1975 1871 1902 1870 1849 1835 1741 1754 1691 1566 1548 1517 1507 1450 1339 1348 1323 1312 1335 1255 1256 1219 1221 1137 1159 1198 1240 1151 1214 1195 1181 1229 1178 1140 1150 1205 1157 1210 1154 1177 1172 1200 1189 1224 1170 1187 1152 1179 1201 1215 1197 1196 1168 1250 1186 1257 1206 1140 1189 1153 1110 1204 1209 1233 1101 1182 1170 1200 1234 1284 1262 1272 1187 1244 1179 1242 1238 1263 1261 1218 1203 1177 1267 1206 1135 1227 1188 1133 1132 1129 1108 1103 1105 1139 1190 1107 1104 1139 1113 1113 1134 1122 1043 1039 1098 1053 1046 1067 1056 1039 987 1017 993 952 938 938 1001 973 947 980 914 931 914 918 933 962 909 937 936 936 850 940 970 929 893 862 860 941 910 901 951 940 883 873 949 936 892 909 927 899 880 895 915 916 916 878 966 922 838 985 934 901 916 863 934 905 916 963 884 950 865 921 882 887 882 891 876 864 882 908 849 857 883 846 880 866 914 852 888 891 871 839 885 878 848 843 818 842 857 892 869 881 862 866 870 884 907 874 846 860 866 798 834 911 839 832 860 846 902 809 837 829 762 831 789 881 816 832 784 828 873 835 898 797 863 882 838 865 837 834 854 818 897 876 826 820 817 829 852 854 838 818 827 832 828 821 824 796 802 840 858 833 797 816 816 806 793 842 836 846 852 779 839 770 789 805 807 815 810 900 814 809 782 807 790 822 827 831 801 807 829 814 814 798 777 809 775 791 795 799 791 834 867 769 792 806 774 858 860 809 831 860 841 801 773 821 792 799 868 805 873 827 812 835 813 830 858 824 889 848 869 800 801 849 806 845 884 843 815 844 849 877 831 854 886 827 849 832 863 866 857 855 827 857 917 877 898 862 891 825 932 976 937 964 885 929 887 1027 1021 1023 1001 978 1018 983 987 1093 1017 999 1066 995 1047 1084 1020 1078 1026 1038 1073 1062 1081 1051 1099 1058 1113 1180 1129 1086 1218 1184 1167 1279 1229 1336 1417 1436 1469 1544 1599 1777 1866 2021 2165 2450 2596 2877 3209 3597 4057 4447 5049 5496 5949 6118 6310 6070 5866 5653 5420 5054 4896 4619 4424 3998 3547 3142 2814 2628 2270 2135 1882 1754 1541 1541 1346 1391 1316 1285 1193 1225 1162 1149 1117 1166 1177 1164 1127 1180 1164 1204 1138 1092 1170 1146 1162 1121 1119 1140 1165 1166 1137 1103 1120 1146 1158 1175 1157 1267 1179 1187 1206 1188 1217 1145 1204 1133 1195 1177 1177 1214 1236 1175 1138 1140 1173 1229 1243 1225 1226 1277 1210 1241 1210 1202 1241 1287 1243 1324 1256 1309 1223 1272 1301 1315 1242 1276 1225 1260 1203 1211 1224 1140 1152 1100 1128 1079 1027 957 973 947 914 895 880 835 836 815 811 752 814 798 733 800 775 757 752 807 784 761 746 710 712 789 758 779 700 777 757 739 741 700 758 782 733 756 730 744 762 746 705 736 707 700 756 768 756 773 706 766 747 736 676 722 725 739 739 759 787 740 723 696 726 730 724 766 781 706 710 702 714 708 756 687 739 752 747 715 763 764 688 729 747 745 715 744 702 698 715 674 710 708 696 706 695 701 722 728 722 643 695 729 712 684 729 739 707 669 800 687 750 685 743 726 687 672 688 680 716 699 734 703 697 716 782 699 694 696 714 688 770 744 701 757 684 725 714 724 659 723 669 729 709 716 750 670 715 727 658 702 708 698 689 669 684 691 703 676 687 713 674 705 722 723 693 688 673 638 718 663 688 686 649 698 715 720 696 734 642 651 761 703 699 636 690 698 759 718 751 706 703 745 716 739 765 787 810 729 741 753 739 769 758 653 705 704 651 722 733 648 681 701 720 689 664 649 700 668 669 650 634 681 680 700 630 663 637 640 613 675 648 668 692 674 664 636 645 670 653 677 671 663 651 646 674 663 651 635 663 671 589 655 655 639 646 671 668 645 607 668 646 683 663 650 617 603 628 627 599 676 631 644 618 635 684 658 643 669 630 626 635 629 661 646 659 660 681 612 653 667 608 663 669 625 671 600 589 654 652 606 609 642 612 641 628 633 592 669 674 626 613 640 635 647 649 652 612 627 633 677 633 633 656 611 647 686 653 588 633 599 640 642 615 636 614 613 606 610 634 635 646 633 650 607 582 630 631 674 615 594 632 640 630 610 639 603 654 642 632 624 564 695 608 635 632 621 669 624 628 637 580 630 582 619 589 573 586 614 607 600 598 626 576 633 664 621 644 600 605 635 573 575 576 598 621 624 629 629 573 613 609 657 583 627 686 644 600 639 617 611 557 606 619 625 610 602 595 578 578 623 602 572 613 589 647 594 641 626 614 557 598 578 624 580 576 576 644 621 576 603 601 621 588 614 567 630 623 610 623 582 593 634 651 615 596 637 646 646 575 581 603 606 570 582 550 596 619 645 591 584 571 614 596 592 614 581 616 558 574 613 610 611 581 565 647 609 607 639 557 563 600 554 573 565 569 594 575 654 625 603 605 607 573 621 588 588 531 593 587 572 614 577 584 614 594 593 606 567 589 642 596 600 584 632 564 602 657 584 604 643 609 572 570 583 575 618 564 638 616 604 605 590 601 557 577 565 582 590 590 536 643 547 569 587 531 602 618 600 608 611 605 579 595 611 562 614 647 571 570 550 573 580 575 566 558 641 619 593 574 631 588 600 574 594 620 592 533 619 590 591 565 612 549 536 596 557 563 601 615 588 565 603 552 610 561 604 602 590 552 570 589 512 505 582 590 579 564 555 562 564 525 588 580 566 605 566 587 570 574 574 542 580 567 592 597 578 648 581 594 626 582 601 592 554 561 566 543 566 558 565 537 579 588 558 567 565 572 571 617 626 554 561 571 580 565 596 591 538 586 499 582 584 591 579 611 581 582 568 610 579 601 541 608 607 573 596 622 569 594 589 579 571 626 628 583 619 611 596 584 606 587 577 565 567 614 602 594 577 588 601 548 572 536 592 603 592 588 580 589 563 610 586 583 550 595 570 592 583 584 550 566 550 546 561 569 533 592 580 585 602 599 563 577 547 577 582 566 591 585 586 534 571 526 539 595 570 595 609 615 577 574 618 581 605 544 588 575 534 583 557 616 554 561 513 581 543 574 576 544 603 597 565 574 583 611 586 597 565 561 573 616 553 551 604 585 560 564 576 555 558 560 574 539 531 555 565 573 601 560 539 565 578 540 555 598 528 539 592 549 580 534 556 529 543 570 561 584 548 519 570 585 559 563 537 574 555 583 617 555 583 533 520 553 558 586 557 552 551 538 550 589 601 585 574 523 546 600 575 575 576 566 571 564 635 576 609 580 578 604 599 656 622 630 635 572 595 631 621 631 590 635 591 624 609 632 637 646 646 608 709 774 753 773 801 784 843 810 850 853 844 831 793 842 751 811 785 794 778 733 717 683 691 721 670 677 593 726 615 653 653 607 678 562 614 567 558 589 564 584 546 579 585 593 540 562 545 570 593 590 621 573 620 587 593 599 579 579 556 602 576 587 574 598 569 617 595 586 589 593 614 613 581 585 565 616 576 600 596 568 589 534 598 556 604 546 621 563 572 562 620 620 574 545 633 617 607 549 597 565 597 590 572 596 542 561 584 557 572 572 552 627 563 622 584 556 523 554 586 530 607 614 536 569 586 511 554 560 523 551 581 570 565 531 543 545 546 535 552 543 502 583 558 543 559 540 542 543 495 562 526 547 525 548 528 513 525 515 570 556 508 563 549 534 511 559 558 520 553 524 523 550 553 549 513 543 520 557 568 540 563 541 534 551 578 551 560 535 521 546 511 551 530 552 510 539 571 554 548 567 538 544 534 525 526 532 569 532 531 577 550 553 560 526 582 567 531 577 552 521 511 575 558 550 506 579 536 545 587 532 537 554 577 527 560 552 561 561 528 558 540 549 534 542 563 524 540 567 547 520 578 553 513 555 564 577 528 530 553 564 551 546 536 530 513 532 544 548 552 571 567 537 566 503 564 517 570 529 521 549 537 515 535 542 530 549 570 545 499 579 511 530 528 531 553 596 538 568 551 534 543 595 560 533 540 586 571 542 546 566 533 557 565 521 585 531 610 508 574 559 569 559 525 555 491 558 513 546 566 592 549 583 537 614 607 539 604 549 638 600 596 612 546 614 627 621 623 620 573 639 645 594 641 646 650 626 648 685 699 722 678 738 766 758 811 850 825 994 947 1051 1124 1228 1401 1586 1800 1961 2118 2178 2171 2102 1918 1939 1686 1616 1619 1515 1577 1620 1674 1646 1635 1626 1603 1536 1473 1333 1442 1536 1482 1556 1572 1655 1556 1646 1574 1481 1497 1389 1434 1351 1437 1307 1331 1234 1303 1216 1203 1074 1116 1066 1022 980 887 896 907 876 799 823 831 825 772 737 811 760 807 794 785 736 759 882 778 757 777 743 743 780 770 753 790 740 782 775 813 781 860 835 788 732 834 794 810 818 845 806 826 810 771 828 818 808 832 888 813 751 788 774 766 737 736 718 724 754 721 694 706 700 745 754 732 679 709 715 642 713 652 679 689 597 670 602 637 653 628 612 603 612 590 563 580 593 559 550 575 599 517 536 528 549 547 574 507 523 583 531 548 538 584 513 558 528 531 562 534 478 566 517 538 529 550 515 523 562 502 519 508 512 502 516 538 515 476 543 524 516 506 533 512 563 500 502 496 491 513 466 505 480 513 508 510 523 486 517 466 546 492 522 486 470 540 537 547 461 525 527 555 519 468 519 507 474 484 532 552 564 550 598 587 584 658 646 681 662 713 688 729 692 700 628 662 635 625 686 662 590 597 622 616 667 626 595 581 549 587 544 535 535 493 524 522 513 530 509 505 490 495 510 533 484 489 491 502 518 518 521 495 494 500 496 494 463 468 499 496 505 513 491 491 540 472 525 506 464 543 501 510 501 496 455 534 481 494 525 495 521 498 480 513 431 456 469 538 501 464 511 496 498 515 507 508 526 532 502 514 452 486 490 524 513 484 496 484 501 492 506 496 441 475 514 536 452 478 440 482 486 499 498 483 456 465 479 437 494 482 414 483 483 433 462 450 480 483 431 482 456 460 503 451 457 437 417 453 490 476 413 430 462 460 500 434 484 462 492 451 442 458 469 472 413 457 464 427 464 477 438 472 457 455 447 418 452 418 484 457 488 469 503 415 456 483 473 477 492 460 474 487 479 484 503 456 442 476 477 472 479 432 431 444 456 486 482 443 433 433 458 448 439 456 449 436 455 476 452 471 430 475 464 443 464 485 468 449 407 460 432 438 473 470 467 466 472 448 474 501 415 470 471 481 446 435 469 450 452 444 435 401 442 414 438 439 471 442 474 462 458 423 462 469 455 436 438 421 464 435 442 423 463 473 466 432 462 446 458 436 465 448 458 417 445 443 443 446 450 461 452 460 448 463 447 448 439 440 436 420 431 438 464 442 441 440 435 458 472 455 456 453 442 469 457 456 423 440 496 435 448 505 487 484 463 456 436 458 477 412 471 496 437 462 434 484 459 460 440 441 442 465 479 428 474 447 438 413 419 466 436 435 433 427 432 454 424 445 444 478 454 432 488 428 466 480 447 424 442 457 460 444 461 421 453 446 397 439 473 429 453 433 473 437 434 463 437 416 466 450 459 462 461 381 438 442 395 482 436 453 418 458 469 440 459 423 438 445 430 439 427 444 417 451 422 448 422 456 435 454 458 447 476 462 447 436 448 431 456 447 447 440 469 430 417 417 452 427 406 428 475 429 435 403 419 437 428 415 431 443 439 396 438 390 417 464 414 422 417 438 418 408 415 434 466 442 430 446 435 468 458 429 439 446 440 450 419 475 445 396 455 420 460 418 468 484 446 456 413 443 460 409 443 468 458 438 457 417 389 411 416 438 427 433 431 407 364 439 433 453 388 427 458 436 421 449 394 412 453 408 454 416 444 422 396 494 414 419 444 387 433 425 424 422 435 442 434 405 459 443 442 406 476 461 395 433 417 445 452 409 421 486 459 422 404 433 446 425 437 443 414 429 465 482 446 449 463 492 440 459 456 443 501 480 443 456 452 473 467 495 427 481 462 476 483 438 462 408 421 460 406 439 424 419 419 460 430 449 442 477 445 473 493 440 449 462 412 432 434 452 442 442 449 507 415 469 461 456 449 449 488 487 476 461 457 453 489 479 499 463 463 503 530 550 503 570 535 554 583 600 573 608 587 592 608 619 640 629 629 621 608 596 643 650 623 567 557 641 589 584 588 627 574 587 608 573 565 587 554 544 571 518 532 569 513 553 508 537 476 480 501 502 482 505 468 431 482 464 497 510 511 491 496 494 459 459 456 485 447 500 500 484 446 448 417 462 460 510 453 499 461 473 480 505 464 458 514 444 477 461 461 461 519 497 517 488 452 451 505 467 506 464 469 451 469 466 477 460 422 451 461 454 462 482 452 445 454 432 484 430 467 439 456 446 448 439 448 443 449 454 458 443 413 398 428 476 448 428 438 423 366 439 412 460 413 404 449 451 428 421 431 424 406 413 396 403 406 421 457 395 406 412 423 403 401 407 378 395 434 406 441 398 444 416 416 422 422 443 436 409 422 413 399 418 401 384 422 394 415 426 407 431 427 420 402 412 427 421 421 419 411 440 391 393 376 392 423 396 374 406 458 437 422 371 407 433 406 410 422 407 424 410 414 422 400 447 432 430 429 481 442 461 452 447 423 443 476 436 475 428 475 420 408 460 465 451 467 465 455 474 455 485 480 482 425 487 459 477 477 439 501 508 508 484 509 515 543 508 545 577 688 735 738 810 815 839 839 850 843 801 737 709 654 669 608 653 611 622 624 636 708 641 681 615 627 589 579 596 514 528 531 519 530 475 479 469 462 506 470 473 535 514 464 525 576 547 579 568 601 534 569 562 554 559 551 531 591 534 517 521 539 536 526 525 548 575 522 529 535 539 507 477 538 545 536 517 532 517 492 501 502 514 490 506 493 505 487 522 527 464 507 445 496 494 458 457 477 436 438 454 445 426 483 457 450 418 457 448 493 425 461 447 426 484 437 441 453 424 426 478 413 431 446 436 420 422 441 418 442 426 486 419 421 430 426 446 408 413 437 404 439 449 424 387 411 403 444 377 420 400 387 426 409 395 385 397 426 424 394 392 409 366 400 406 431 424 421 415 396 367 419 408 395 425 381 413 407 373 401 361 381 396 423 399 365 409 419 365 442 411 406 434 388 440 386 427 400 424 419 403 376 415 410 428 374 392 384 378 411 431 392 393 409 419 376 403 370 394 429 386 420 390 400 413 401 413 465 463 453 453 400 436 421 449 489 464 439 451 469 465 423 452 421 488 443 433 465 428 390 417 472 429 457 416 436 382 436 443 401 378 409 424 404 374 386 388 401 396 428 469 401 413 404 382 383 378 395 414 371 434 408 386 391 379 389 400 425 396 406 408 389 434 409 395 388 386 409 390 418 452 371 408 372 388 402 398 405 444 422 441 416 376 379 384 406 402 413 422 359 370 412 422 379 371 407 375 373 421 344 393 383 395 375 408 395 387 345 400 398 422 365 427 390 394 375 396 389 368 364 394 373 372 384 391 403 369 385 386 387 382 354 388 390 366 323 399 373 349 412 349 405 387 365 360 379 347 337 400 376 367 380 318 373 408 372 404 394 373 393 371 346 352 361 376 359 405 370 374 369 385 419 390 360 400 388 379 406 377 390 373 399 408 392 356 366 399 345 397 352 366 371 414 363 362 379 398 357 406 354 362 377 380 360 357 388 412 364 313 330 380 372 363 357 357 329 372 403 381 359 351 348 365 373 386 372 364 361 361 359 347 377 358 331 377 364 373 392 379 384 356 374 379 357 389 349 382 365 383 372 357 366 331 394 359 372 357 355 373 366 363 384 350 340 346 356 369 372 361 337 347 390 374 361 355 343 363 305 405 392 374 375 367 383 353 361 381 362 392 369 346 393 361 393 349 361 353 387 350 328 377 373 357 361 404 367 374 360 410 364 381 402 414 377 396 363 367 352 377 374 421 376 369 368 381 365 336 365 346 375 345 382 358 349 373 377 371 385 391 385 354 363 344 409 382 345 351 353 345 374 369 407 371 345 374 338 368 340 357 365 340 338 346 336 326 363 378 391 361 375 360 359 371 326 367 373 337 341 390 394 364 383 355 400 399 356 350 398 315 378 389 410 361 381 371 334 377 351 347 374 350 343 326 366 344 365 371 367 365 388 367 369 360 363 329 344 406 387 346 375 365 379 362 367 349 383 366 356 343 361 362 347 371 379 357 359 364 340 337 363 399 365 352 380 361 348 369 390 388 371 362 348 394 399 378 346 388 353 386 357 367 360 408 354 379 355 360 360 371 373 411 388 389 390 409 383 382 393 417 385 397 417 412 401 370 396 386 378 402 375 419 356 365 350 402 377 366 396 428 372 415 355 396 419 385 374 361 364 367 344 352 388 364 380 368 397 427 358 360 360 372 350 384 353 362 372 348 376 415 370 359 348 354 402 371 374 361 380 364 377 378 357 371 377 360 406 390 390 340 335 355 355 370 353 353 317 387 364 326 384 359 351 378 374 359 369 360 377 387 347 348 354 348 375 338 385 339 360 375 332 362 377 376 365 342 370 374 315 356 325 365 374 378 376 370 341 354 374 358 353 348 341 382 329 362 345 353 348 362 323 371 350 352 361 402 338 359 342 327 364 361 362 354 306 394 368 366 370 341 385 317 344 351 352 373 391 367 338 361 397 322 410 319 351 354 356 350 339 355 350 364 340 348 331 354 391 330 314 392 334 350 346 334 349 319 344 321 377 354 345 362 355 365 359 364 315 356 346 368 354 390 336 361 340 379 360 364 371 357 330 347 360 376 360 375 355 338 370 365 350 351 356 328 384 363 385 312 336 358 350 367 307 347 388 359 359 389 361 369 330 342 357 339 383 376 352 370 365 367 356 348 334 340 358 365 356 350 358 346 341 332 324 375 363 400 398 400 345 359 401 370 344 390 350 370 393 346 397 416 345 335 358 363 397 360 345 374 409 380 404 343 391 372 389 385 391 366 412 363 427 405 435 475 459 479 448 536 520 517 527 539 489 489 518 471 448 475 436 433 427 425 448 432 476 435 470 471 446 464 472 456 400 461 444 437 410 415 400 390 407 398 409 370 378 390 403 362 372 375 376 363 380 379 357 387 384 363 388 342 344 388 341 370 385 357 385 398 378 343 373 352 390 381 365 365 378 371 344 388 403 347 398 407 371 397 364 400 366 384 385 363 400 386 330 350 390 354 377 386 367 427 365 369 352 348 365 367 327 344 355 327 369 308 382 368 342 360 387 366 351 348 357 364 361 338 373 339 383 359 386 377 348 346 371 351 359 333 366 352 351 343 368 352 356 384 350 349 336 373 336 371 337 363 377 364 347 330 375 343 348 337 370 352 379 321 357 345 338 338 340 379 309 352 329 346 326 367 329 338 336 335 358 344 378 321 383 309 358 335 335 375 381 360 343 345 352 339 391 367 379 319 336 346 326 340 384 323 327 348 362 346 315 312 354 371 340 345 367 347 323 309 329 333 348 369 345 341 331 334 350 324 344 343 308 354 359 339 329 378 357 348 356 359 344 344 364 337 333 328 345 338 328 344 344 356 336 336 308 348 337 375 340 366 339 324 327 341 346 348 339 365 319 364 339 339 332 321 351 353 372 334 358 325 326 366 374 358 365 360 393 340 376 361 324 356 364 323 351 335 363 354 370 342 324 369 370 332 332 373 321 367 317 337 347 329 323 329 329 374 326 310 369 347 338 360 349 350 356 339 371 323 356 348 358 319 335 344 336 345 321 347 357 344 358 340 376 345 339 351 318 345 362 343 332 393 353 350 384 350 366 358 361 347 347 356 341 329 343 360 388 376 402 334 328 366 345 358 349 329 364 398 335 370 291 335 337 340 339 364 332 340 394 316 351 341 355 324 339 348 347 355 362 353 321 368 384 377 357 349 352 326 380 347 339 350 345 366 376 334 390 340 310 306 368 349 354 376 372 345 324 364 372 354 365 346 320 320 367 333 363 304 360 338 338 356 358 325 352 340 335 325 332 340 372 358 336 344 313 363 381 348 344 348 344 335 333 333 383 353 307 348 319 335 334 309 378 351 396 332 348 383 338 392 377 347 407 354 362 365 349 390 335 356 368 343 327 340 351 373 323 367 370 364 372 317 369 372 375 352 316 358 377 375 355 367 340 371 315 342 333 346 362 378 338 341 340 371 384 328 364 337 378 349 364 396 339 383 325 344 324 372 329 338 354 344 343 349 355 328 323 366 339 342 335 348 346 355 319 347 378 359 393 323 360 320 344 313 306 362 348 342 351 382 339 392 348 365 330 343 368 354 335 335 383 341 372 380 355 322 352 355 348 329 362 373 367 345 345 380 365 377 410 349 345 367 368 376 379 357 366 352 343 325 346 347 354 354 355 342 357 327 357 347 404 374 359 346 367 344 341 364 390 379 392 348 374 353 371 341 397 365 367 406 387 355 356 323 384 371 395 386 345 430 359 381 379 343 394 385 348 357 395 383 413 330 367 359 374 395 358 373 358 388 370 385 396 327 371 376 336 342 394 388 396 386 341 368 401 379 357 404 379 389 415 407 411 406 435 401 444 415 415 386 445 436 418 426 365 384 412 365 396 388 422 389 403 364 433 398 384 405 406 390 389 407 394 383 414 417 400 392 379 363 429 384 387 403 382 380 412 376 383 383 397 349 395 360 399 399 372 389 399 413 395 403 403 397 390 420 384 453 389 366 413 411 412 380 384 375 358 405 385 350 422 384 391 405 400 398 374 383 401 372 382 340 419 366 360 351 376 347 356 360 372 350 374 410 397 388 333 376 396 368 382 376 343 384 400 380 362 367 378 379 375 375 419 348 376 364 369 368 349 351 370 378 368 345 355 362 383 385 349 368 391 356 368 378 372 389 367 403 373 424 354 359 375 357 366 357 406 356 347 382 353 402 393 361 363 394 338 336 384 357 370 375 372 366 395 395 371 405 388 381 374 389 361 382 318 386 354 376 379 364 379 384 369 360 367 393 379 398 348 392 416 381 401 370 370 424 392 380 374 369 356 414 383 381 376 386 416 410 398 397 388 444 426 443 405 386 383 431 423 424 414 425 413 468 478 502 526 583 541 598 583 575 623 610 566 592 520 518 554 542 520 488 484 529 482 446 473 497 466 518 482 444 475 507 517 521 502 502 526 524 464 547 492 474 507 551 511 546 549 515 542 552 542 512 499 516 503 475 511 451 459 478 471 458 483 489 427 431 480 483 474 493 509 507 504 461 445 442 475 476 506 468 431 443 432 438 406 447 430 431 391 438 450 402 384 388 415 426 442 406 409 419 427 404 407 384 436 440 400 387 429 402 415 396 375 428 392 397 387 368 384 384 409 374 377 392 401 354 362 402 403 398 379 376 394 384 410 373 412 369 356 351 338 398 376 400 376 378 364 383 347 381 374 354 357 356 384 326 334 371 342 360 361 371 377 382 362 383 368 349 347 362 383 371 407 353 337 348 347 360 380 378 349 354 379 358 383 361 367 365 350 403 351 370 399 337 324 368 335 385 341 396 365 396 341 365 356 352 364 391 359 386 383 392 332 395 367 354 402 390 389 381 372 362 374 334 368 398 364 357 369 397 349 351 371 349 369 374 357 340 352 361 343 363 384 395 363 362 342 341 372 360 370 354 336 360 359 348 393 372 379 372 370 362 365 338 386 371 326 375 352 395 377 347 374 348 331 389 340 346 356 345 329 348 315 358 352 348 370 395 367 354 364 361 365 373 330 348 336 371 343 376 337 326 327 306 396 329 325 350 358 361 342 362 325 343 359 364 309 381 336 343 369 347 323 332 337 319 334 320 332 351 329 333 343 337 335 342 364 345 369 314 365 350 322 330 350 323 363 356 354 355 341 380 374 348 371 358 331 363 346 354 330 310 344 310 344 335 314 359 347 349 314 344 324 350 355 316 321 346 318 342 320 372 322 366 309 330 344 328 332 326 357 329 355 341 330 358 370 368 360 351 354 406 367 355 355 324 330 340 325 337 363 346 335 352 347 359 358 343 343 344 354 335 325 339 332 375 334 335 355 346 348 318 339 310 336 330 290 353 317 290 343 337 332 309 295 346 336 386 364 357 302 382 367 335 356 361 343 340 364 330 304 333 311 347 316 340 342 346 390 360 324 347 363 320 338 340 361 335 371 349 312 376 363 342 346 355 331 355 343 330 324 323 343 319 325 352 341 351 308 356 324 338 325 361 332 308 352 333 322 354 350 334 336 358 341 341 333 351 364 356 319 345 361 315 340 314 318 346 326 311 342 307 332 348 335 355 349 338 363 356 375 342 308 322 354 369 349 324 349 313 327 362 324 344 373 384 349 326 349 346 327 342 355 344 333 337 333 363 347 327 352 327 315 351 304 365 331 350 322 349 315 326 314 337 344 340 319 328 328 335 353 324 336 321 344 341 310 338 338 340 353 341 350 332 362 349 322 298 325 332 359 318 341 337 371 358 364 324 322 360 352 301 331 366 363 378 360 322 331 332 329 365 336 359 381 375 372 336 349 362 348 371 339 352 349 332 346 356 348 340 354 373 368 372 353 352 375 374 339 324 319 321 336 355 334 320 358 352 339 346 360 369 364 326 339 381 364 367 318 311 334 365 344 351 319 352 326 378 348 351 318 304 339 328 355 313 343 345 341 320 374 340 310 346 340 327 357 291 324 322 367 327 338 350 344 324 348 343 340 351 353 295 332 325 365 349 306 335 329 348 333 368 337 315 317 348 328 297 330 293 360 330 333 321 328 357 331 339 356 347 349 316 331 331 316 360 321 345 328 338 312 312 325 352 331 343 338 327 323 268 323 306 291 335 315 337 326 323 348 331 345 300 339 360 321 346 313 343 312 326 338 326 297 330 326 336 296 293 352 345 326 349 312 345 312 330 332 340 317 327 330 357 321 336 338 336 331 342 316 313 314 311 353 362 310 339 349 356 291 342 312 302 328 312 345 324 319 323 360 301 277 334 373 322 340 294 339 326 362 360 319 337 363 328 317 302 343 343 331 348 368 344 316 366 369 303 378 332 339 336 344 336 325 342 325 319 338 341 330 338 314 364 349 355 361 309 334 332 374 340 343 347 326 376 365 362 365 309 354 335 367 343 360 367 356 339 374 387 336 357 371 382 364 343 392 368 373 432 400 453 424 424 430 425 447 446 419 406 394 409 400 393 428 416 440 419 419 469 431 461 442 461 483 500 458 465 418 446 491 439 488 445 433 419 406 419 417 430 416 370 393 447 381 416 443 395 369 406 402 375 409 414 409 408 413 423 410 400 343 382 398 374 388 421 400 387 383 369 406 397 397 410 402 392 416 413 391 421 434 376 363 398 388 367 422 433 388 407 392 397 377 386 402 409 366 373 384 379 364 381 372 347 390 339 386 376 354 365 360 359 374 387 343 341 365 403 356 330 339 364 364 325 331 354 352 352 357 372 356 348 316 329 372 343 361 315 350 377 370 336 334 329 344 361 348 379 335 351 353 336 346 353 367 330 354 334 316 314 373 320 364 335 315 342 335 315 296 329 324 301 378 375 368 370 364 365 342 345 348 339 357 355 334 372 363 373 338 365 329 344 311 315 345 323 316 327 355 310 344 335 366 330 341 326 327 308 362 344 365 324 325 350 332 347 314 317 329 339 349 321 335 322 351 321 314 352 339 349 344 314 337 310 330 357 317 312 315 319 308 323 344 347 294 344 334 355 308 331 358 347 328 335 333 349 354 347 357 317 338 340 319 347 324 332 293 281 287 290 319 320 331 321 341 315 314 335 294 336 345 307 337 314 348 313 299 309 317 329 335 324 316 347 319 317 320 311 292 305 307 321 349 346 322 301 307 333 314 330 288 318 342 307 353 340 359 316 302 325 326 303 314 330 331 302 301 316 330 309 314 324 343 324 335 343 303 356 319 315 315 356 330 389 315 329 307 335 350 345 337 331 329 331 347 337 309 328 291 346 323 335 303 317 305 313 301 304 354 323 327 339 337 319 331 363 312 290 309 341 340 335 337 310 315 298 305 327 335 342 340 326 316 346 320 341 327 360 309 330 360 335 320 312 317 354 317 353 308 312 318 351 313 352 307 344 343 324 362 280 355 329 297 281 286 320 336 337 315 357 308 333 322 312 311 311 323 322 329 299 319 299 355 297 325 324 327 340 301 306 358 334 314 352 303 329 350 309 327 315 336 340 348 345 335 317 321 299 349 324 349 319 353 347 308 329 352 332 359 303 303 342 337 330 313 296 316 293 316 318 342 332 324 332 335 332 305 357 339 301 329 282 328 336 297 337 327 389 308 324 333 300 297 352 308 339 298 321 296 319 344 314 307 343 320 302 350 306 313 319 289 328 323 332 313 299 327 297 321 301 303 316 317 305 302 306 293 318 314 305 319 355 316 352 320 305 350 309 290 350 334 338 331 326 320 327 358 307 329 319 342 308 319 314 281 337 324 323 344 311 317 314 326 331 325 321 345 335 317 304 342 358 334 324 319 304 335 326 340 290 340 340 347 344 333 326 308 321 331 324 309 322 339 318 334 324 304 316 346 351 332 286 356 322 360 334 322 314 302 292 314 300 322 301 286 334 350 318 334 304 330 300 329 303 323 325 314 329 325 335 286 324 345 345 341 316 303 272 308 358 334 315 283 338 345 335 304 309 328 306 327 364 341 311 300 340 307 317 311 342 311 309 315 315 356 339 327 320 333 334 318 342 311 308 335 329 340 344 337 301 343 400 341 346 401 382 363 375 334 331 359 336 322 387</counts>
			</dataPoints>
		</scan>
	</xrdMeasurement>
</xrdMeasurements>
