<?xml version="1.0"?>
<xrdMeasurements xmlns="http://www.xrdml.com/XRDMeasurement/2.3" xmlns:xsi="http://www.w3.org/2001/XMLSchema-instance" xsi:schemaLocation="http://www.xrdml.com/XRDMeasurement/2.3 http://www.xrdml.com/XRDMeasurement/2.3/XRDMeasurement.xsd" status="Completed" recordIdentifier="{2A92ED62-2A48-4266-8DE0-0164E34BF71E}">
	<comment>
		<entry/>
	</comment>
	<sample type="To be analyzed">
		<id>GPSS_Li1p65Mn0p95V0p15Cl4_111125_691433ae47a6a0fd7c6576f4</id>
		<name></name>
		<preparedBy></preparedBy>
	</sample>
	<xrdMeasurement measurementType="Scan" status="Completed" sampleMode="Reflection">
		<usedWavelength intended="K-Alpha 1">
			<kAlpha1 unit="Angstrom">1.5405980</kAlpha1>
			<kAlpha2 unit="Angstrom">1.5444260</kAlpha2>
			<kBeta unit="Angstrom">1.3922500</kBeta>
			<ratioKAlpha2KAlpha1>0.5000</ratioKAlpha2KAlpha1>
		</usedWavelength>
		<incidentBeamPath>
			<radius unit="mm">145.00</radius>
			<xRayTube id="1010048" name="Empyrean Cu LFF HR (9430 033 7310x)">
				<tension unit="kV">40.0</tension>
				<current unit="mA">15.0</current>
				<anodeMaterial>Cu</anodeMaterial>
				<focus type="Line">
					<length unit="mm">12.0</length>
					<width unit="mm">0.4</width>
					<takeOffAngle unit="deg">6.0</takeOffAngle>
				</focus>
			</xRayTube>
			<sollerSlit id="21010002" name="Soller slits 0.04 rad.">
				<opening unit="rad">0.0400</opening>
			</sollerSlit>
			<mask id="22031000" name="Fixed mask 13 mm">
				<width unit="mm">9.00</width>
			</mask>
			<divergenceSlit id="22120001" name="Divergence slit 1°" xsi:type="fixedDivergenceSlitType">
				<distanceToSample unit="mm">50.00</distanceToSample>
				<height unit="mm">1.52</height>
			</divergenceSlit>
		</incidentBeamPath>
		<sampleMovement xsi:type="spinningSampleMovementType">
			<spinnerRevolutionTime unit="seconds">1.0</spinnerRevolutionTime>
		</sampleMovement>
		<diffractedBeamPath>
			<radius unit="mm">145.00</radius>
			<antiScatterSlit id="22090040" name="AS slit 9 mm (PIXcel)" xsi:type="fixedAntiScatterSlitType">
				<height unit="mm">9.00</height>
			</antiScatterSlit>
			<sollerSlit id="21020003" name="Large Soller slits 0.04 rad.">
				<opening unit="rad">0.0400</opening>
			</sollerSlit>
			<filter id="20030001" name="Large beta-filter Nickel">
				<material>Ni</material>
				<thickness unit="mm">0.020</thickness>
			</filter>
			<detector id="7010019" name="PIXcel1D-Medipix3 detector" xsi:type="rtmsDetectorType">
				<phd unit="keV">
					<lowerLevel>4.02</lowerLevel>
					<upperLevel>11.27</upperLevel>
				</phd>
				<mode>Scanning</mode>
				<activeLength unit="deg">5.542</activeLength>
			</detector>
		</diffractedBeamPath>
		<scan appendNumber="0" mode="Continuous" scanAxis="Gonio" status="Completed">
			<header>
				<startTimeStamp>2025-11-13T16:24:33-08:00</startTimeStamp>
				<endTimeStamp>2025-11-13T16:32:41-08:00</endTimeStamp>
				<author>
					<name>AutomatedUser</name>
				</author>
				<source>
					<applicationSoftware version="1.7b (136)">PANalytical Aeris Instrument Suite</applicationSoftware>
					<instrumentControlSoftware version="3.2.00000000 20240306">AERIS</instrumentControlSoftware>
					<instrumentID>950485</instrumentID>
				</source>
			</header>
			<dataPoints>
				<positions axis="2Theta" unit="deg">
					<startPosition>10.00943322</startPosition>
					<endPosition>99.99442286</endPosition>
				</positions>
				<positions axis="Omega" unit="deg">
					<startPosition>5.00471661</startPosition>
					<endPosition>49.99721143</endPosition>
				</positions>
				<commonCountingTime unit="seconds">12.495</commonCountingTime>
				<counts unit="counts">2993 3013 3028 2979 3030 2997 2863 2997 2999 2960 2984 2969 2901 2918 3033 2988 2902 2966 3016 3032 2944 3055 2932 2965 3023 3056 2908 2979 2908 2967 2999 2912 2989 3035 2870 3018 3026 2953 3058 2915 2978 2856 2938 3024 3088 3003 2930 3006 2987 2987 2992 2933 2912 3110 3038 2943 3014 2907 3044 2954 3016 2931 3056 2947 2998 3056 3009 3083 2918 2971 3047 3061 3123 3051 2960 3136 3040 3035 3000 3141 3113 2931 3018 2967 3033 3014 3008 3053 2998 2986 3128 3006 3028 3063 3041 3102 3003 3009 3112 3061 3147 2998 3034 3038 3193 2949 3062 3099 3046 3023 3184 3118 3088 3066 3031 3006 2969 3022 3050 3039 3046 3127 3061 3055 3028 2992 3125 3177 3085 3090 3042 3079 3154 3038 3044 3102 3133 3086 3062 3107 3008 3042 2990 3086 3034 3192 2990 2998 2990 3099 3056 3119 3057 3028 3050 3192 3041 3017 3029 3017 3096 3094 3103 3142 3054 3105 3042 3056 3043 3030 3045 3122 3132 3079 3218 3017 3007 3039 2995 3111 3040 3140 3115 3156 3019 3021 3059 3088 3043 3242 3107 3167 3095 2988 3077 3119 3051 3229 2979 3095 2976 3038 3076 2967 3076 3023 3106 3052 3137 3064 2994 2958 3043 3024 2956 3075 3166 3019 3146 3089 3092 3039 3073 3045 3093 3010 3040 3037 2983 3005 3032 3028 3061 2990 3021 3138 3015 2991 3103 3071 3044 3083 3004 3112 3117 3070 3037 3033 3126 3152 3004 3060 3075 3096 3037 3006 3051 3163 3037 3068 3063 3054 3031 3019 2963 3011 3033 2984 3082 3056 3041 3135 3086 3121 3157 3001 3000 3122 3057 3150 3112 2987 3079 3128 3006 3147 3091 3190 3077 3118 3152 3136 3119 3128 3068 3047 3097 3146 3136 2988 3206 3111 3136 3239 3208 3182 3179 3190 3179 3204 3130 3197 3170 3290 3255 3260 3156 3301 3225 3175 3174 3181 3210 3110 3275 3250 3206 3253 3182 3177 3241 3268 3376 3264 3261 3272 3283 3341 3239 3363 3308 3279 3292 3414 3296 3237 3244 3442 3302 3357 3309 3471 3375 3338 3291 3367 3430 3410 3392 3488 3441 3540 3469 3514 3490 3503 3513 3463 3479 3470 3499 3492 3487 3440 3556 3549 3535 3495 3538 3540 3607 3624 3664 3536 3562 3620 3602 3617 3572 3615 3640 3813 3647 3728 3720 3785 3778 3790 3743 3778 3783 3793 3949 3811 4022 3892 4004 4052 3991 4027 4156 4095 4181 4379 4352 4359 4470 4527 4525 4837 4690 4821 4965 4970 5212 5202 5410 5547 5700 5826 5912 5898 6289 6360 6401 6581 6640 6740 6748 6711 6776 6771 6415 6266 5977 5760 5503 5421 5177 5084 4907 4874 4800 4570 4633 4630 4548 4405 4305 4237 4280 4086 4156 4125 3917 3978 3850 3960 3894 3827 3844 3805 3788 3731 3780 3653 3743 3645 3744 3740 3698 3734 3583 3745 3614 3832 3568 3782 3705 3683 3563 3633 3500 3640 3549 3526 3550 3554 3607 3648 3651 3537 3656 3647 3577 3563 3523 3576 3513 3518 3528 3527 3571 3473 3514 3522 3569 3485 3432 3579 3498 3522 3602 3526 3472 3487 3490 3598 3539 3483 3510 3506 3437 3515 3463 3457 3447 3427 3453 3447 3416 3457 3327 3388 3433 3514 3452 3491 3422 3452 3331 3456 3339 3409 3474 3494 3364 3412 3388 3390 3401 3369 3377 3417 3340 3349 3237 3324 3378 3396 3268 3179 3444 3242 3267 3316 3242 3303 3400 3326 3273 3182 3303 3347 3295 3353 3236 3268 3257 3185 3127 3275 3253 3298 3252 3298 3240 3317 3205 3223 3352 3193 3240 3289 3177 3182 3364 3346 3233 3105 3269 3171 3236 3180 3172 3307 3104 3251 3208 3111 3167 3093 3121 3186 3116 3148 3233 3282 3266 3192 3117 3228 3186 3225 3154 3093 3183 3109 3164 3123 3201 3287 3210 3233 3146 3132 3040 3054 3146 3251 3083 3095 3098 3111 3183 3125 3203 3149 3212 3134 3132 3177 3144 3197 3147 3073 3115 3256 3125 3090 3157 3089 3126 3155 3198 3142 3101 3179 3183 3089 3205 3178 3147 3100 3174 3108 3117 3148 3268 3063 3176 3102 3045 3208 3051 3232 3150 3112 3059 3083 3090 3154 3097 3093 3141 3069 3127 3030 3082 3016 3018 3062 3156 3056 3083 3003 3130 3087 3026 3121 2992 3041 2953 3014 3025 3011 2995 3034 3067 3011 3075 3129 3109 3071 3090 3090 3109 2935 3056 3033 3037 3079 3101 3039 3085 3021 2986 3077 3146 3068 3002 3044 3064 3075 3029 3161 2994 3122 2965 3081 2957 3081 3073 3086 3001 3015 2910 3038 3071 3000 3016 3148 2988 2981 3023 2918 3050 3094 2956 3042 3086 3112 2961 3015 3132 2950 2987 3069 3027 2899 2867 2987 2942 3032 3103 3007 2952 3023 2928 2956 2942 2985 2958 3055 3019 3140 2972 2927 2985 3002 3082 3000 2987 2905 3023 3025 2933 3046 2978 2906 2882 2995 3032 2879 2938 2922 2873 2916 2980 2906 2929 2910 2925 2923 3046 2982 3023 2866 2939 3006 2895 2982 2972 2886 2839 2891 2983 3015 2958 2985 2977 2908 2899 2865 2852 2886 2816 2918 2979 2814 2821 2853 2780 2927 2860 2953 2915 2892 2904 2827 2933 2910 2840 2851 2910 2840 2891 2820 2852 2774 2848 2923 2876 2891 2909 2836 2868 2784 2956 2967 2900 2845 2893 2783 2801 2849 2791 2772 2739 2860 2891 2879 2893 2794 2812 2864 2963 2859 2776 2830 2846 2817 2814 2916 2742 2925 2835 2921 2910 2713 2802 2897 2759 2794 2901 2822 2706 2877 2789 2937 2814 2848 2827 2839 2783 2800 2771 2750 2720 2749 2811 2684 2680 2768 2816 2761 2843 2789 2797 2702 2799 2698 2692 2853 2840 2768 2783 2678 2773 2728 2834 2746 2707 2819 2773 2913 2770 2734 2757 2662 2693 2755 2686 2693 2741 2778 2772 2763 2745 2741 2747 2722 2757 2791 2830 2724 2828 2677 2660 2777 2779 2691 2741 2716 2685 2752 2585 2754 2706 2777 2739 2870 2757 2646 2684 2802 2678 2637 2745 2694 2750 2810 2806 2760 2751 2697 2784 2811 2707 2857 2686 2728 2748 2714 2753 2810 2743 2783 2768 2727 2719 2709 2705 2668 2718 2743 2819 2797 2741 2692 2791 2731 2746 2716 2689 2709 2784 2754 2692 2714 2715 2725 2748 2695 2650 2792 2766 2793 2694 2757 2654 2732 2763 2675 2764 2821 2702 2772 2713 2761 2878 2696 2711 2751 2717 2781 2854 2773 2732 2743 2725 2712 2831 2739 2653 2730 2758 2749 2790 2737 2704 2715 2610 2726 2624 2694 2706 2913 2663 2680 2741 2687 2705 2666 2705 2752 2653 2688 2677 2655 2708 2702 2742 2763 2752 2755 2696 2601 2751 2735 2673 2756 2603 2679 2669 2691 2756 2727 2675 2674 2774 2710 2664 2679 2790 2701 2622 2699 2648 2703 2653 2714 2591 2661 2690 2678 2636 2679 2608 2625 2588 2584 2690 2573 2650 2615 2601 2551 2626 2629 2587 2590 2552 2552 2600 2525 2622 2554 2562 2630 2514 2554 2562 2545 2484 2467 2623 2575 2538 2491 2514 2515 2506 2509 2459 2507 2462 2489 2426 2608 2562 2542 2482 2498 2461 2399 2410 2574 2468 2406 2473 2537 2501 2419 2456 2376 2422 2474 2343 2428 2441 2436 2433 2485 2392 2455 2386 2335 2369 2304 2285 2357 2329 2368 2476 2329 2405 2391 2413 2355 2381 2429 2310 2321 2410 2283 2392 2331 2366 2398 2377 2323 2358 2410 2307 2305 2254 2334 2291 2310 2269 2246 2261 2273 2305 2300 2292 2260 2305 2324 2332 2271 2228 2142 2256 2234 2096 2341 2171 2161 2204 2178 2251 2132 2231 2134 2210 2175 2205 2165 2163 2299 2199 2168 2236 2183 2198 2164 2222 2213 2225 2165 2291 2238 2226 2105 2234 2167 2155 2170 2155 2214 2180 2180 2177 2141 2207 2141 2195 2164 2196 2149 2076 2159 2161 2171 2187 2109 2140 2037 2076 2058 2173 2072 2162 2028 2054 2097 2111 2142 2105 2118 2135 2124 2064 2175 2145 2107 2114 2018 2084 2074 2136 2150 2127 2099 2089 2120 2112 2119 2060 2021 1997 2048 2106 2074 2079 2116 2101 2048 2054 2069 2032 2065 2080 2071 2158 2094 2138 2155 2069 2069 2098 2027 2112 2101 2084 2158 2144 2048 2092 2006 2033 2072 2015 2133 2030 2088 2021 2117 2089 2109 2117 2094 2100 2138 2010 2017 2016 2063 2091 2129 2090 2046 2099 2147 2078 2070 2083 2152 2085 2031 2090 2208 2118 2100 2014 2107 2005 2072 2099 2024 2108 2111 2160 2112 2055 2080 2075 2149 2077 2063 2113 2059 2044 2064 2011 2148 2117 2134 1967 2104 2000 2116 2070 2139 2046 2048 2084 2157 2060 2137 2074 2096 2150 2128 2087 2084 2091 2112 2153 2036 2155 2069 2135 2033 2134 2105 2114 2005 2084 2089 2090 2103 2049 2021 2050 2092 2041 2133 2049 2046 2025 2027 2058 2127 2034 2141 2095 1930 2149 2081 2179 2138 2111 2059 2213 2116 2163 2035 2071 2053 2013 2070 2107 2032 2078 2015 2098 2104 2046 2092 2102 1985 2166 2122 1997 2048 2052 2064 2136 2081 2096 2076 2022 1975 2067 2109 1991 2057 2084 2058 2036 2031 2086 2064 1991 2089 1978 2095 2089 1960 2003 2087 2030 2110 1986 2023 2014 1905 2035 2016 2086 1939 1994 2005 1954 1959 1957 1932 1895 1960 1936 1973 2013 1906 1942 2014 1910 1942 1934 2008 1928 1891 1977 1924 1921 1987 1913 1982 1869 1874 1899 1857 1917 1951 1971 1990 1864 1895 1960 1900 1914 1869 1913 1952 1860 1898 1919 1880 1962 1842 1854 1827 1913 1903 1849 1848 1866 1912 1863 1977 1890 1933 1902 1830 1810 1957 1823 1872 1860 1874 1843 1933 1791 1846 1813 1884 1833 1903 1873 1906 1879 1849 1816 1782 1791 1803 1735 1889 1758 1855 1841 1820 1865 1821 1764 1930 1809 1833 1853 1828 1856 1796 1794 1885 1843 1905 1876 1855 1938 1855 1990 1999 1944 2029 1958 2023 2054 2106 2150 2250 2279 2421 2436 2519 2655 2749 2786 2939 2927 3152 3254 3250 3425 3594 3713 3565 3897 3744 3834 3736 3454 3392 3374 3122 3049 2753 2733 2570 2431 2387 2265 2316 2261 2127 2120 2110 1943 1950 2001 2017 1970 1926 1963 1825 1866 1783 1788 1783 1719 1764 1695 1707 1694 1728 1686 1670 1701 1709 1665 1768 1635 1749 1645 1748 1677 1658 1751 1767 1574 1688 1717 1693 1708 1733 1725 1686 1734 1647 1649 1679 1672 1646 1646 1632 1638 1657 1711 1669 1688 1644 1614 1729 1702 1768 1682 1705 1718 1768 1658 1761 1809 1720 1821 1756 1781 1809 1857 1875 1944 1872 1969 1988 1935 2121 2277 2223 2393 2505 2651 2718 2851 2978 3158 3315 3546 3758 3811 4158 4429 4717 4956 5116 5209 5439 5501 5615 5506 5446 5295 4922 4671 4557 4228 3975 3660 3528 3202 3041 2866 2737 2517 2376 2351 2282 2225 2128 2130 2090 2054 2089 1974 1826 1798 1809 1728 1791 1774 1656 1752 1646 1656 1613 1570 1549 1573 1664 1560 1621 1618 1556 1564 1569 1484 1576 1533 1621 1515 1537 1551 1499 1473 1492 1540 1520 1562 1543 1521 1476 1474 1506 1476 1492 1508 1519 1421 1549 1473 1505 1578 1464 1538 1504 1486 1476 1541 1464 1518 1458 1538 1479 1467 1518 1469 1507 1538 1469 1472 1460 1489 1529 1367 1409 1510 1480 1477 1513 1482 1554 1473 1490 1428 1586 1501 1627 1481 1488 1535 1546 1448 1474 1537 1494 1531 1549 1533 1490 1493 1506 1510 1523 1403 1493 1393 1423 1568 1496 1414 1380 1453 1412 1444 1364 1479 1481 1434 1429 1431 1462 1458 1473 1379 1394 1403 1446 1449 1461 1425 1391 1400 1452 1415 1504 1443 1356 1450 1477 1450 1452 1471 1332 1424 1374 1366 1406 1411 1349 1424 1371 1402 1439 1410 1443 1431 1404 1381 1456 1328 1378 1392 1344 1405 1428 1358 1478 1376 1414 1425 1462 1380 1441 1412 1419 1382 1392 1371 1367 1409 1365 1362 1383 1501 1441 1413 1460 1463 1455 1398 1414 1369 1422 1369 1408 1354 1456 1350 1442 1364 1409 1394 1421 1430 1439 1360 1363 1434 1356 1398 1353 1420 1357 1420 1375 1377 1421 1310 1300 1348 1439 1325 1409 1359 1417 1361 1374 1341 1363 1362 1415 1290 1399 1427 1423 1374 1380 1409 1320 1450 1349 1411 1424 1351 1358 1366 1397 1397 1391 1415 1393 1383 1351 1340 1364 1387 1371 1357 1346 1368 1357 1360 1348 1350 1399 1353 1387 1400 1387 1323 1326 1354 1451 1347 1358 1357 1326 1358 1355 1436 1358 1302 1397 1332 1352 1395 1369 1403 1331 1321 1393 1365 1436 1410 1391 1298 1461 1276 1414 1368 1388 1447 1358 1406 1347 1381 1511 1445 1477 1395 1468 1365 1398 1412 1398 1418 1473 1431 1442 1438 1455 1470 1419 1447 1458 1371 1458 1448 1475 1405 1354 1439 1431 1453 1445 1494 1468 1411 1460 1452 1431 1456 1439 1435 1421 1489 1411 1531 1392 1493 1467 1426 1488 1468 1491 1501 1453 1516 1538 1554 1486 1565 1594 1567 1545 1622 1621 1694 1597 1639 1696 1711 1692 1752 1779 1821 1885 1841 1846 1963 2068 2013 2158 2364 2443 2542 2639 2937 3168 3421 3595 3991 4237 4699 5151 5722 6168 6618 7421 7797 8897 9496 10287 11152 12076 12748 13418 13878 14514 14636 14409 14316 13823 13460 12358 11554 10939 9876 9169 8326 7626 7002 6425 5890 5178 4627 4295 3943 3745 3505 3286 3150 3086 2878 2736 2593 2402 2355 2270 2114 2115 2034 1884 1816 1919 1651 1729 1698 1653 1612 1530 1649 1576 1520 1551 1542 1514 1493 1474 1555 1574 1418 1462 1460 1433 1493 1413 1487 1400 1410 1470 1472 1408 1429 1393 1411 1433 1424 1408 1405 1406 1433 1397 1423 1310 1385 1392 1423 1376 1377 1431 1387 1458 1386 1409 1358 1348 1396 1409 1376 1336 1322 1427 1352 1344 1359 1349 1395 1323 1351 1356 1287 1351 1319 1254 1310 1389 1359 1363 1303 1402 1286 1341 1341 1447 1419 1271 1329 1342 1322 1332 1370 1293 1279 1292 1343 1379 1383 1303 1361 1424 1331 1354 1288 1281 1329 1339 1320 1319 1269 1293 1251 1297 1324 1335 1314 1325 1286 1315 1398 1299 1310 1405 1273 1299 1284 1300 1296 1407 1311 1289 1290 1285 1332 1320 1240 1231 1391 1359 1300 1332 1259 1291 1290 1314 1322 1261 1282 1269 1321 1213 1374 1316 1373 1333 1286 1326 1321 1277 1258 1279 1297 1237 1305 1282 1251 1320 1368 1299 1229 1210 1281 1261 1332 1313 1288 1374 1269 1313 1298 1271 1293 1258 1312 1243 1262 1274 1288 1284 1281 1328 1262 1285 1319 1240 1281 1272 1185 1372 1348 1312 1291 1283 1270 1346 1254 1261 1348 1262 1339 1251 1256 1274 1248 1318 1274 1270 1243 1294 1233 1279 1290 1327 1267 1327 1294 1276 1269 1294 1300 1332 1280 1260 1242 1204 1288 1280 1303 1273 1337 1237 1283 1266 1352 1325 1296 1295 1293 1318 1281 1449 1412 1304 1352 1336 1393 1399 1427 1382 1347 1376 1306 1445 1363 1363 1408 1375 1406 1389 1339 1374 1385 1368 1370 1357 1319 1307 1279 1233 1243 1271 1306 1334 1212 1256 1236 1282 1285 1240 1295 1263 1307 1221 1198 1208 1338 1274 1181 1261 1219 1208 1281 1178 1233 1233 1221 1185 1232 1207 1232 1147 1223 1230 1244 1220 1276 1289 1234 1259 1204 1249 1228 1175 1161 1254 1215 1174 1209 1253 1244 1199 1224 1166 1170 1202 1228 1162 1218 1172 1217 1204 1296 1196 1237 1207 1304 1255 1231 1211 1286 1211 1188 1225 1213 1235 1202 1204 1223 1200 1212 1207 1188 1233 1190 1217 1198 1193 1216 1254 1141 1189 1273 1172 1254 1223 1232 1254 1194 1218 1209 1213 1186 1117 1200 1162 1111 1178 1179 1241 1183 1229 1178 1217 1161 1106 1214 1179 1207 1255 1231 1223 1205 1179 1228 1177 1217 1176 1140 1246 1156 1227 1250 1231 1188 1142 1270 1172 1229 1172 1177 1254 1202 1268 1156 1229 1182 1180 1152 1229 1205 1114 1167 1192 1107 1205 1152 1230 1136 1210 1193 1160 1168 1180 1280 1172 1158 1154 1147 1201 1210 1157 1156 1154 1113 1177 1207 1205 1201 1208 1176 1168 1139 1172 1189 1174 1168 1175 1168 1198 1182 1139 1215 1223 1145 1177 1144 1213 1214 1160 1151 1204 1195 1146 1142 1204 1157 1188 1214 1198 1150 1189 1152 1152 1161 1165 1217 1212 1161 1155 1165 1217 1161 1185 1176 1146 1145 1102 1158 1152 1201 1167 1101 1172 1127 1166 1226 1154 1134 1180 1112 1188 1179 1163 1150 1169 1128 1167 1115 1164 1176 1202 1129 1186 1171 1144 1204 1156 1218 1191 1182 1170 1095 1108 1188 1222 1131 1220 1229 1201 1176 1178 1134 1119 1153 1204 1220 1161 1166 1181 1232 1165 1149 1151 1107 1173 1241 1153 1144 1141 1166 1190 1184 1151 1157 1152 1205 1189 1171 1119 1121 1152 1158 1149 1243 1238 1113 1184 1150 1185 1162 1126 1149 1179 1178 1110 1142 1161 1134 1247 1197 1134 1222 1132 1207 1170 1184 1185 1175 1184 1118 1125 1150 1155 1182 1148 1207 1183 1129 1101 1142 1162 1188 1164 1138 1126 1099 1103 1155 1180 1122 1204 1131 1203 1187 1133 1202 1081 1102 1131 1152 1135 1174 1159 1148 1109 1147 1095 1137 1174 1143 1191 1162 1164 1178 1115 1164 1193 1123 1107 1119 1136 1181 1179 1206 1163 1171 1188 1163 1119 1128 1164 1178 1154 1129 1177 1115 1133 1161 1126 1164 1191 1204 1119 1184 1159 1172 1137 1101 1180 1156 1124 1133 1150 1191 1176 1169 1144 1216 1197 1147 1192 1214 1147 1200 1160 1219 1151 1145 1171 1177 1222 1212 1153 1140 1161 1141 1150 1152 1105 1138 1130 1133 1098 1137 1127 1199 1114 1135 1126 1183 1135 1165 1115 1144 1174 1134 1157 1142 1180 1170 1132 1133 1163 1137 1186 1098 1177 1115 1130 1170 1118 1132 1132 1123 1152 1141 1140 1085 1148 1153 1129 1123 1184 1170 1246 1156 1161 1116 1093 1189 1201 1165 1137 1116 1159 1069 1132 1168 1145 1213 1159 1096 1132 1171 1126 1179 1100 1125 1184 1119 1077 1189 1161 1162 1199 1167 1186 1160 1123 1203 1178 1161 1140 1111 1117 1161 1231 1201 1191 1198 1153 1178 1171 1139 1172 1081 1209 1137 1184 1170 1121 1106 1172 1158 1126 1140 1128 1210 1212 1139 1168 1173 1145 1224 1058 1116 1137 1090 1162 1181 1114 1205 1159 1117 1173 1168 1097 1173 1147 1201 1176 1169 1176 1158 1154 1049 1216 1142 1194 1185 1176 1137 1142 1140 1177 1130 1192 1173 1162 1192 1163 1103 1096 1096 1172 1186 1054 1150 1118 1216 1185 1161 1231 1072 1192 1120 1202 1129 1183 1169 1234 1168 1150 1164 1157 1175 1130 1142 1090 1149 1141 1162 1161 1169 1177 1137 1120 1152 1139 1132 1164 1190 1140 1199 1178 1247 1197 1164 1160 1167 1212 1216 1145 1195 1167 1162 1225 1241 1252 1238 1190 1252 1286 1287 1260 1326 1418 1339 1441 1434 1552 1600 1627 1715 1774 1858 1983 2033 2151 2200 2257 2384 2442 2500 2534 2571 2520 2480 2397 2349 2243 2193 2100 2088 1945 1900 1916 1908 1773 1742 1678 1624 1537 1503 1517 1390 1324 1383 1329 1309 1306 1315 1319 1257 1268 1213 1270 1244 1197 1233 1193 1207 1255 1187 1196 1196 1207 1137 1100 1152 1118 1157 1139 1149 1220 1094 1098 1153 1109 1132 1176 1080 1109 1143 1142 1081 1083 1173 1133 1088 1155 1145 1158 1068 1111 1155 1123 1182 1119 1099 1198 1103 1112 1120 1146 1142 1087 1084 1153 1076 1127 1162 1101 1095 1140 1152 1112 1115 1058 1141 1096 1199 1145 1166 1064 1100 1122 1068 1101 1163 1112 1142 1101 1141 1158 1095 1150 1102 1101 1132 1152 1125 1099 1175 1108 1109 1125 1128 1080 1083 1113 1183 1082 1116 1146 1049 1090 1120 1103 1107 1098 1167 1066 1108 1117 1101 1099 1094 1166 1151 1105 1060 1090 1139 1118 1057 1140 1104 1082 1144 1088 1059 1108 1057 1126 1056 1149 1089 1183 1099 1058 1072 1101 1083 1114 1070 1164 1130 1049 1115 1164 1091 1125 1156 1187 1088 1140 1134 1060 1101 1125 1139 1162 1109 1097 1188 1153 1104 1125 1088 1125 1084 1130 1148 1162 1107 1110 1112 1111 1176 1138 1148 1113 1128 1139 1138 1111 991 1140 1083 1111 1112 1125 1174 1102 1122 1100 1130 1096 1165 1127 1126 1109 1198 1204 1060 1110 1117 1136 1128 1087 1095 1159 1134 1139 1164 1166 1164 1138 1119 1207 1152 1155 1170 1139 1156 1175 1166 1175 1133 1098 1194 1188 1130 1102 1109 1152 1137 1158 1184 1195 1155 1173 1164 1145 1076 1077 1109 1145 1131 1043 1147 1149 1094 1074 1149 1128 1238 1162 1129 1159 1146 1177 1182 1161 1217 1200 1136 1186 1208 1155 1186 1101 1130 1190 1163 1154 1134 1134 1151 1149 1080 1151 1184 1169 1186 1164 1180 1095 1213 1123 1129 1241 1201 1150 1122 1222 1196 1205 1160 1055 1170 1141 1138 1112 1176 1155 1186 1158 1226 1220 1198 1172 1230 1227 1311 1211 1245 1246 1240 1279 1256 1327 1313 1283 1242 1360 1374 1258 1371 1337 1236 1392 1350 1428 1443 1536 1520 1588 1643 1701 1701 1781 1964 2009 2113 2241 2417 2663 2894 3125 3379 3784 4173 4582 5065 5542 5991 6401 6884 7179 7720 7888 8079 8017 7998 7673 7440 7195 6847 6417 5947 5809 5633 5373 5343 5096 4714 4583 4211 3914 3649 3374 2999 2768 2530 2569 2310 2207 2121 2074 1952 1942 1843 1782 1625 1654 1651 1571 1532 1495 1536 1453 1366 1348 1405 1358 1261 1404 1288 1250 1186 1216 1177 1161 1158 1202 1163 1232 1241 1219 1153 1163 1206 1173 1175 1143 1142 1203 1161 1167 1184 1190 1175 1166 1207 1163 1189 1175 1209 1174 1145 1134 1121 1145 1126 1141 1173 1053 1140 1101 1151 1130 1132 1180 1090 1121 1174 1129 1089 1114 1090 1140 1091 1104 1124 1139 1164 1116 1142 1143 1106 1209 1083 1010 1144 1113 1114 1147 1115 1158 1169 1108 1135 1130 1122 1145 1085 1070 1140 1102 1111 1140 1136 1078 1120 1105 1101 1136 1093 1134 1089 1051 1119 1109 1133 1128 1116 1061 1101 1020 1026 1127 1116 1135 1181 1075 1125 1113 1048 1095 1088 1142 1121 1060 1125 1077 1108 1153 1125 1101 1096 1121 1105 1152 1131 1078 1118 1082 1045 1121 1085 1094 1075 1067 1128 1096 1119 1136 1153 1137 1126 1131 1095 1059 1092 1083 1094 1147 1121 1141 1099 1181 1155 1171 1186 1273 1159 1242 1202 1292 1252 1261 1306 1417 1325 1459 1442 1560 1628 1660 1696 1744 1790 1839 1763 1919 1828 1765 1798 1737 1637 1636 1553 1582 1634 1602 1523 1511 1537 1554 1442 1410 1383 1303 1296 1304 1323 1250 1199 1167 1160 1160 1072 1160 1104 1166 1120 1168 1190 1088 1122 1184 1087 1103 1055 1073 1119 1132 1102 1120 1136 1057 1099 1085 1061 1065 1051 1127 1103 1068 1021 1088 1089 1020 1097 1041 1068 1086 1073 1078 1079 1046 1059 1087 1041 1072 1059 997 1099 1092 1043 1073 1069 1120 994 1029 1008 1071 1129 1056 1045 1086 1007 1111 1048 1112 1043 1068 1039 1019 1017 1048 1069 1093 1050 1034 1082 1050 1044 1067 1005 1079 1007 1045 1026 1086 1076 1083 1042 1054 1035 1076 1009 1034 1076 1065 1056 1080 1049 1122 1050 1084 1052 999 1083 1002 1058 1082 1090 983 1054 1042 1035 1043 1002 1047 988 1014 1045 993 1069 1053 1030 1058 998 1008 1059 1065 1026 1014 1120 1019 1094 1068 1051 1069 1021 1008 1071 1065 1053 1041 1081 1031 1067 1024 1052 1027 1029 1115 1040 1047 1008 1047 1021 1028 1079 1087 1048 1108 1084 1021 1046 1050 1065 1039 1064 986 1038 1027 1012 1119 1090 1067 1035 1067 979 1081 1013 1019 1019 1106 1059 1033 1025 1105 1080 1073 1030 1001 1054 1025 1086 1050 1035 1049 1000 1066 1064 1004 1030 1076 994 1054 1081 1083 962 1056 990 1039 998 1058 1001 1052 1050 1054 1025 1036 1036 1041 1065 1017 994 1064 1043 1003 984 1025 959 1047 1032 1042 992 977 1023 1024 979 978 1005 1010 1015 1048 1058 1004 1007 1040 961 1033 1083 1063 1011 1019 1047 1015 976 1072 1012 1005 1000 1052 1046 1014 966 995 1016 1003 1059 1047 1067 1025 937 1083 1045 1028 1012 1043 1092 942 1008 1028 1011 1036 976 1029 1033 1026 1062 1029 994 1118 1048 985 989 1051 1057 1003 996 949 1003 986 1037 1023 1050 985 1055 1033 998 987 977 993 983 997 1053 1044 1011 1061 946 1049 994 947 955 1053 1041 1031 1041 992 995 1035 1037 987 1015 980 1003 946 1026 1041 1018 1006 1006 1045 987 1062 1048 1047 1045 1024 967 1022 958 1024 1047 1063 962 979 956 988 1036 1016 957 1023 993 995 1018 995 1054 1024 1007 947 969 1008 1008 1024 1043 1012 1068 1045 997 1025 993 1002 1047 1022 998 1017 950 1076 1022 1014 955 1036 1023 1046 988 1005 975 998 1023 1038 992 986 1029 982 1055 991 1004 1078 1050 1010 964 1010 997 1018 1059 1035 1007 1025 990 1032 1020 1019 995 1060 955 1015 1040 1011 983 1060 988 1005 1036 974 1044 1010 1052 1036 987 1043 1021 1039 1021 1056 988 1005 1001 1014 1048 1014 1026 971 920 1043 1046 1001 1011 1019 1006 999 1036 939 977 1019 988 947 944 1015 1048 1034 1053 972 1006 994 1027 981 977 1000 930 978 992 965 989 1003 957 1040 1032 1010 1035 1010 1003 1019 1024 1004 1064 1011 1020 1002 1009 966 1051 996 1011 964 1038 1011 1069 973 1024 997 1023 990 980 1029 1039 1069 1069 1032 1022 1030 1068 1035 1074 1034 1084 1105 1093 1149 1177 1153 1110 1148 1173 1170 1170 1108 1164 1145 1158 1187 1158 1207 1108 1165 1164 1097 1142 1129 1113 1084 1131 1113 1102 1053 1064 1015 1093 1039 1082 1119 1060 1059 979 1042 1020 1043 1090 1054 1121 1059 1041 1092 1057 1012 1022 1083 1062 1086 1050 1057 1091 1068 1040 1132 1211 1099 1147 1205 1143 1221 1324 1328 1396 1419 1403 1488 1588 1620 1641 1781 1784 1805 1905 1790 1790 1774 1736 1691 1694 1664 1532 1571 1487 1521 1537 1491 1490 1505 1431 1477 1446 1368 1298 1300 1217 1185 1224 1160 1123 1062 1131 1086 1107 1067 1064 1082 1099 1037 1055 1114 1075 1080 1021 1041 999 999 1077 996 1039 1029 998 982 985 1031 996 1065 972 966 1021 984 1032 992 979 971 1019 965 1080 1002 1010 1013 1060 1039 1017 1025 978 1000 981 944 1017 1019 995 1047 1031 1021 1050 1005 1011 1002 1015 1008 1023 1041 1004 997 1009 1028 986 1040 971 977 991 1002 979 1009 1019 1023 983 986 999 1051 923 999 999 962 970 1010 1010 922 1002 1035 930 951 995 966 1003 1042 964 1007 972 1047 1010 1006 995 980 995 1022 941 996 984 986 1006 972 1004 1045 1015 1020 959 989 972 1035 1010 948 937 996 1000 1010 992 947 963 972 1015 993 947 1029 993 998 954 999 1017 941 1034 970 1026 1029 1021 943 1038 993 1006 1034 968 925 975 1004 961 999 1008 1094 1018 996 958 1069 975 989 940 1006 992 1025 1032 987 1026 955 977 991 1039 989 982 1031 1022 1019 932 986 1083 948 1009 967 1029 1039 1079 1038 1031 1071 1028 1030 1036 1081 1010 1032 1039 988 1024 1066 1059 1003 1080 1088 1043 1086 1060 1150 1080 1137 1066 1135 1146 1171 1181 1222 1279 1271 1378 1350 1394 1477 1676 1619 1826 1850 2078 2094 2230 2242 2373 2513 2653 2680 2695 2713 2636 2575 2417 2387 2188 2176 2105 2033 2042 2040 2085 2008 2137 1981 2007 1912 1898 1875 1758 1649 1501 1497 1380 1344 1294 1243 1229 1186 1195 1209 1138 1122 1188 1098 1074 1138 1133 1170 1056 1088 1083 1057 1055 1061 1106 1038 1042 1111 1037 1007 1076 1034 1036 1053 947 1005 1058 1008 1012 1003 1038 1016 992 973 1009 996 994 965 973 1041 1029 1006 981 1042 1031 1019 1004 998 996 1020 1003 991 1007 996 992 1009 1001 1010 1057 1026 974 1009 969 982 978 989 931 1006 962 1027 1006 1060 998 1004 969 991 1037 986 1014 988 1006 1044 972 998 932 974 982 1042 1001 991 957 1004 918 1050 991 991 1044 941 973 1021 995 994 1039 1023 965 1044 992 955 938 978 971 986 957 972 1026 904 1015 1034 1069 1005 1029 1027 1046 1011 950 1019 1030 1006 930 992 1007 1034 995 980 983 968 1020 1059 999 1062 998 1030 1057 1031 1085 1089 1081 1073 1101 1125 1151 1251 1220 1241 1247 1299 1331 1343 1330 1388 1328 1430 1406 1421 1364 1267 1288 1400 1252 1355 1174 1186 1223 1222 1185 1189 1188 1196 1269 1223 1147 1211 1173 1127 1099 1075 1040 1059 1112 1082 1053 1073 1052 1015 1003 1016 985 1035 1024 1011 1060 986 1017 960 1004 984 891 1007 999 993 993 990 1001 982 951 1001 986 933 962 975 982 969 1044 1003 945 1024 943 986 958 959 956 1040 937 924 975 1011 953 885 932 1020 1019 991 959 935 953 932 915 920 874 978 953 963 1006 946 959 971 885 960 1031 974 999 944 932 1022 935 931 1075 960 940 945 925 958 952 937 978 1002 995 1036 973 990 941 907 953 1011 945 927 978 969 1015 974 979 984 987 960 912 967 967 955 987 984 1036 976 994 967 999 967 984 979 970 995 977 981 935 950 914 1002 1025 964 937 922 905 962 932 960 960 934 979 981 950 988 945 943 951 977 942 1000 993 1035 952 944 909 977 1009 1022 945 957 934 976 976 992 1000 923 991 961 978 910 1017 964 940 954 988 906 948 950 983 1040 933 951 965 1000 916 976 986 958 925 998 994 967 984 1037 918 1041 944 961 947 906 1008 947 951 911 989 898 1013 950 977 943 927 978 932 935 946 952 935 954 950 965 983 984 908 921 994 937 955 979 1012 984 966 956 907 966 993 939 989 940 970 985 953 928 975 940 955 999 921 1004 921 1040 948 1010 977 1016 948 1000 909 958 949 934 898 954 920 946 916 940 908 977 1000 1054 961 951 978 932 970 927 977 934 987 958 964 964 922 989 938 1011 947 930 940 994 990 1000 896 974 961 971 942 930 923 922 994 996 940 943 937 914 965 993 974 972 998 1003 880 901 988 952 933 975 916 1010 982 935 987 977 948 936 924 885 983 964 925 991 942 930 935 918 979 939 856 944 969 988 937 949 942 907 952 964 951 958 956 975 905 936 935 972 958 973 932 986 941 929 907 924 967 989 962 1001 909 952 933 983 954 938 991 942 929 912 869 930 929 947 937 976 968 932 905 912 977 936 971 984 997 978 915 956 940 938 915 938 933 961 906 940 1014 970 992 959 968 953 991 943 922 940 973 1024 977 982 958 961 994 966 880 992 992 973 959 973 941 997 927 957 900 927 928 1007 1052 982 981 964 955 949 986 967 933 1010 973 990 955 931 1023 965 1027 949 971 1013 1003 932 993 998 1053 1036 1062 1018 1038 1132 1083 1083 1149 1136 1165 1159 1216 1173 1142 1148 1172 1177 1125 1149 1110 1113 1098 1172 1093 1097 1066 1130 1087 1102 1098 1066 1110 1103 1077 1014 1085 1040 1061 1007 987 958 979 992 976 1006 929 1017 973 987 990 962 939 989 982 976 994 921 955 967 1021 939 988 938 940 937 969 950 981 965 965 984 913 1027 953 935 995 951 886 959 958 994 909 958 928 938 928 955 964 938 982 1051 993 992 927 905 907 940 909 978 896 938 1003 983 963 943 966 1022 952 940 909 930 983 939 1036 948 919 923 889 978 958 878 926 934 917 1017 968 935 929 941 953 977 893 986 1022 915 968 945 994 941 959 930 999 976 962 962 1016 965 976 911 984 970 941 962 915 956 987 1019 995 961 935 950 978 937 949 935 986 929 942 883 985 956 950 921 914 951 971 932 985 994 989 992 905 905 926 952 985 936 954 943 939 958 933 985 874 945 938 915 986 933 936 862 963 961 938 912 963 960 933 944 1002 949 952 930 970 940 897 907 879 934 932 932 904 932 958 966 972 904 926 933 943 941 949 930 980 939 940 901 942 921 930 924 970 946 983 857 976 952 920 938 963 908 948 926 967 962 974 972 937 929 911 991 942 897 892 943 904 945 987 934 977 945 950 930 1038 961 955 983 984 1004 970 965 981 939 952 1074 923 981 1014 1043 978 951 991 1017 1069 1038 1028 1013 1033 1136 1156 1114 1183 1246 1223 1274 1318 1372 1429 1411 1494 1514 1569 1501 1610 1640 1539 1587 1595 1535 1513 1478 1492 1391 1358 1399 1361 1374 1326 1373 1374 1391 1331 1386 1357 1269 1366 1298 1280 1253 1195 1178 1167 1089 1156 1063 1046 1066 996 1018 1000 970 969 1009 1047 958 954 962 1002 982 993 977 1021 1005 985 1011 949 986 998 987 935 1000 982 947 970 920 926 971 942 971 976 907 960 968 993 897 932 957 940 913 961 917 1010 925 997 959 950 957 977 902 963 918 994 960 919 921 940 935 949 980 916 884 893 908 893 950 958 931 968 929 937 948 942 949 922 946 914 964 946 942 1003 952 950 909 1009 926 863 970 937 943 941 950 927 974 959 896 913 962 945 964 962 926 984 921 967 938 983 921 914 965 935 920 940 952 945 951 965 924 966 919 1007 900 992 916 919 925 938 918 927 928 939 878 920 920 949 937 908 921 922 937 917 986 954 884 950 952 912 906 916 1002 949 924 900 873 920 967 921 931 954 949 981 975 927 905 934 879 913 942 964 937 974 980 942 978 888 914 909 867 924 972 937 971 908 971 983 973 973 922 915 947 950 944 938 961 990 928 864 948 928 885 921 961 910 954 964 906 915 932 963 976 916 925 927 893 970 912 950 913 955 965 982 901 951 978 955 905 942 901 917 948 927 896 959 999 906 951 952 926 926 953 932 929 905 895 889 955 935 907 957 892 984 981 985 971 938 929 925 935 906 996 998 948 1015 955 964 908 947 938 941 925 939 934 901 964 1029 932 1068 932 923 970 974 913 973 963 956 934 905 966 974 946 969 946 925 957 975 946 954 963 930 904 959 974 953 897 892 931 951 973 980 939 982 980 929 879 948 920 940 896 957 849 953 952 924 979 961 923 933 999 919 941 949 858 914 930 927 949 968 939 949 924 945 920 946 939 947 943 955 934 944 961 977 926 977 975 944 993 936 957 901 839 934 894 930 936 954 950 914 958 993 943 967 958 952 930 941 906 909 939 963 899 940 930 985 932 904 951 860 967 959 930 951 968 928 969 947 922 902 955 938 942 913 961 896 974 929 922 880 963 912 948 986 909 881 935 985 947 938 935 948 977 950 970 969 977 950 909 906 917 962 949 889 926 948 919 925 916 976 975 970 966 948 968 946 961 957 954 895 972 896 930 889 892 949 973 955 924 985 935 910 915 950 969 1007 941 952 927 954 931 905 932 979 920 959 927 929 874 939 953 935 856 956 929 906 915 892 935 921 964 928 967 933 982 962 994 926 963 891 966 948 972 934 944 941 956 986 897 957 975 896 954 961 960 949 928 928 990 985 952 931 887 930 925 880 949 936 975 930 927 961 912 966 977 946 915 950 959 923 949 930 934 930 973 932 944 981 959 964 945 913 945 957 877 918 923 927 993 956 954 964 900 930 960 906 946 898 943 917 919 968 952 927 965 922 960 976 970 920 1010 874 941 912 932 908 971 930 1017 929 972 959 996 967 980 991 1019 938 930 1062 1034 997 1039 1021 999 1051 1017 1024 1035 1030 1090 1099 1112 1081 1102 1074 1079 1071 1146 1082 1076 1097 1088 1017 1042 1065 1065 1016 998 994 1067 1020 1126 1001 971 1046 1049 1026 1012 1055 998 1027 1025 1006 1042 979 1018 962 1014 1005 921 991 976 1010 982 1004 1042 1053 1053 1025 1036 1036 1037 1057 1087 1119 1114 1160 1178 1163 1175 1185 1232 1138 1156 1087 1165 1093 1120 1189 1085 1101 1071 1059 1026 1112 1014 1109 1168 1103 1084 1025 1072 1047 1129 1066 1058 1089 1053 1065 1082 989 1016 994 984 1068 989 1012 930 998 1013 1025 990 1002 1041 952 936 969 888 999 967 977 952 939 962 964 1003 962 931 991 1015 955 922 976 1015 957 937 920 958 946 958 949 917 976 979 947 1008 982 936 929 992 915 929 953 960 963 947 912 967 984 937 963 949 918 952 963 915 954 975 915 950 952 943 951 917 985 952 916 900 970 962 921 978 960 931 910 942 957 985 998 940 945 921 926 1003 995 1012 924 969 981 979 983 935 906 937 945 976 980 898 989 999 933 956 957 952 993 980 937 965 938 1023 972 923 992 1043 951 924 963 967 964 996 973 1001 937 960 977 935 942 994 975 978 984 966 1001 933 1021 1019 942 1038 971 1007 925 983 987 944 987 959 996 1093 1006 1038 1023 975 999 1030 1028 996 1034 994 1027 1044 1043 1017 1047 1099 997 1101 1063 1107 1083 1103 1188 1116 1156 1143 1209 1283 1338 1372 1379 1339 1524 1510 1623 1637 1719 1839 1854 1983 1984 2129 2206 2279 2304 2291 2357 2222 2286 2090 2117 2014 1941 1833 1821 1721 1680 1655 1683 1702 1716 1661 1791 1753 1693 1710 1727 1775 1703 1727 1645 1693 1570 1538 1426 1420 1357 1376 1231 1228 1216 1161 1135 1219 1186 1110 1093 1119 1081 1098 1068 1081 1038 995 1043 1055 1004 986 1007 1025 981 986 994 1038 996 1016 979 973 971 1010 1021 999 1016 995 1001 998 970 1026 944 1006 1021 943 974 988 966 969 978 960 984 963 974 991 992 981 930 1008 963 916 955 944 980 1060 969 979 962 963 940 991 976 978 998 945 977 995 993 991 966 949 923 958 892 929 944 940 998 977 983 916 970 957 1009 984 914 891 928 985 968 872 956 953 967 966 946 990 1001 959 1009 967 913 962 963 967 956 963 1003 957 1022 948 983 964 959 983 999 1040 961 1022 1016 980 1026 1073 1062 1030 1007 1064 1041 1079 1128 1033 1069 1108 1138 1014 996 1033 1032 990 1089 1011 1009 1008 1007 1052 956 1026 1018 991 1021 970 1000 1015 1000 1015 1024 1001 1024 1046 959 1004 993 967 976 974 997 1016 976 920 971 957 994 995 965 989 991 951 964 961 992 1005 1006 976 943 972 953 877 945 963 945 972 947 955 944 913 925 921 947 958 929 933 890 931 918 908 923 967 989 928 936 940 892 921 969 961 935 899 938 970 962 953 903 970 956 889 939 976 916 955 991 938 896 916 930 938 977 929 965 900 988 980 960 961 935 933 870 979 951 918 924 955 953 933 942 964 989 943 955 972 896 955 966 922 911 945 975 932 941 933 927 913 932 940 945 915 965 919 942 1009 938 953 946 924 955 947 934 921 922 968 934 897 932 968 947 961 938 916 921 993 951 932 979 970 963 963 948 941 978 960 967 979 901 935 935 901 930 897 981 915 902 941 933 973 908 905 972 937 907 958 943 962 935 891 974 959 955 983 944 935 898 946 951 933 973 899 917 949 950 969 971 959 886 973 957 915 915 932 990 995 963 957 924 962 960 1019 926 958 931 961 905 923 950 917 878 967 994 926 963 985 946 946 880 941 933 976 893 914 967 906 933 974 950 904 995 943 979 962 971 901 900 945 912 872 946 891 928 933 928 953 958 975 953 980 942 1039 941 931 893 903 957 954 898 909 936 948 932 874 887 936 904 930 919 995 936 927 922 953 927 896 930 935 915 937 976 971 961 935 923 900 918 949 845 936 951 904 930 900 962 947 948 990 1007 866 867 912 992 946 949 959 898 1000 973 978 918 915 972 883 977 939 965 937 909 936 920 927 993 940 895 938 885 937 981 942 907 982 863 978 958 957 929 964 863 977 965 961 890 982 961 912 937 912 928 1027 965 1009 956 935 973 997 871 937 891 928 937 955 930 939 941 970 936 927 947 957 937 927 906 970 926 930 946 959 952 993 927 1000 946 980 961 943 915 992 976 953 978 945 925 947 995 966 980 927 1018 1020 981 945 963 1004 980 1010 957 1088 975 1031 1023 1048 1007 1041 1001 1037 1012 1002 1032 1054 1116 1080 1090 1120 1087 1076 1124 1003 1032 1030 1070 1027 1042 1053 1013 1019 1011 1002 1010 999 1019 978 1014 1011 1017 1039 1022 1040 1070 1057 1034 1010 993 1041 1004 1000 993 998 988 1010 977 971 997 980 979 935 995 966 956 921 935 941 942 933 955 969 930 927 939 912 932 928 931 934 944 930 928 957 918 952 950 965 849 926 948 981 883 940 926 844 977 965 956 927 938 918 971 923 919 910 940 1012 955 945 955 945 976 988 947 902 928 946 910 968 965 924 936 939 951 938 918 892 962 902 935 949 999 875 964 910 966 971 929 929 928 971 951 964 933 888 931 907 1021 941 912 989 885 958 974 986 952 925 928 941 920 926 949 949 928 911 955 899 893 953 894 966 956 913 948 963 901 889 925 953 911 942 941 961 995 955 940 902 990 979 930 966 905 944 954 931 981 896 987 945 965 1011 953 962 859 956 957 989 995 927 918 904 919 944 923 933 890 968 943 905 987 932 941 932 931 906 988 953 899 934 945 996 952 975 900 988 926 977 975 988 980 942 987 929 979 942 997 950 1004 993 965 962 974 977 952 965 972 976 960 986 977 926 999 987 954 1049 1006 945 990 897 981 1121 1055 1004 1020 988 1036 1099 1069 1031 1069 1042 1036 1083 1148 1148 1187 1179 1218 1186 1275 1273 1356 1309 1451 1516 1493 1558 1611 1741 1714 1721 1819 1914 1889 1892 1838 1760 1787 1698 1624 1627 1510 1455 1397 1501 1328 1418 1383 1395 1420 1391 1324 1384 1371 1495 1428 1408 1483 1446 1400 1491 1440 1416 1416 1449 1338 1332 1278 1216 1216 1171 1216 1120 1135 1115 1051 1092 1072 1035 1018 1043 1044 992 974 998 965 1029 1002 1034 1001 979 999 971 1003 1006 1001 1032 965 995 1013 970 1002 980 958 946 1034 994 941 938 1017 933 981 930 972 939 954 968 920 954 985 946 909 969 945 930 979 938 891 955 968 965 935 937 939 901 942 970 989 953 916 955 910 1028 961 977 939 913 931 988 951 981 979 923 931 918 905 900 1002 969 919 912 952 925 975 891 898 951 959 952 878 889 956 946 955 940 922 979 963 995 979 937 966 941 932 900 922 936 985 948 972 952 1003 978 1009 981 965 1005 943 980 1020 957 1067 1021 1036 999 979 973 1006 971 1017 989 995 984 979 973 998 1025 952 995 946 1010 991 962 935 986 954 991 946 981 1000 985 949 968 970 1052 951 1023 1000 909 974 988 959 958 909 953 951 873 950 932 986 952 919 889 946 910 919 965 896 918 963 935 935 922 914 959 911 938 981 960 951 929 925 969 958 952 912 954 975 923 946 895 958 917 931 1005 956 921 996 966 926 930 956 935 923 866 921 955 1017 898 1019 926 924 918 978 980 940 903 940 884 921 940 941 953 942 935 906 887 932 909 996 912 964 998 903 924 937 953 921 909 924 881 994 960 988 967 948 937 914 913 885 871 992 922 946 962 989 969 932 895 960 952 1023 958 921 892 954 881 948 931 911 915 904 959 942 985 932 937 947 922 882 847 974 1001 968 924 956 970 973 908 921 951 929 915 934 896 920 1015 910 909 900 927 948 936 942 942 882 931 935 918 942 927 988 923 922 979 951 973 881 936 924 920 947 886 983 998 927 967 904 930 900 959 978 931 918 972 969 924 955 912 959 910 957 944 947 928 934 891 909 934 986 973 937 976 886 956 988 986 891 999 932 940 960 939 950 943 886 923 903 947 944 953 910 994 958 948 926 933 938 938 929 892 948 918 895 934 970 911 919 923 872 943 910 924 958 910 944 871 921 959 952 905 946 927 923 947 945 988 906 897 1010 972 956 992 926 913 944 915 943 998 916 943 933 905 847 884 900 903 962 978 923 927 931 899 928 893 939 916 926 955 939 944 949 924 963 935 970 956 916 914 931 934 937 969 932 914 920 928 913 963 909 927 923 945 872 893 910 896 926 900 953 926 1012 904 889 929 950 958 929 955 951 935 933 901 934 958 885 939 929 899 928 1008 918 920 862 943 935 986 924 947 931 960 883 955 918 937 889 903 884 928 932 978 977 950 926 935 996 883 964 934 902 929 944 912 939 948 944 986 969 963 940 952 921 957 970 966 949 890 856 940 904 909 967 1000 920 967 941 973 964 933 966 938 1010 969 985 994 999 981 955 978 999 1048 979 1040 1087 1045 1062 1091 1081 1084 1157 1151 1175 1100 1099 1159 1109 1138 1161 1106 1145 1079 973 1129 1087 1027 1067 1002 1027 978 989 1063 1092 1015 977 1045 1028 1035 1031 1065 1106 1031 1015 1033 1045 1141 1073 1026 1086 1086 1052 1051 1058 1090 1049 1007 1008 1021 1037 1063 1016 1056 1043 1002 1071 1031 1095 1061 1072 1046 1154 1083 1079 1124 1207 1041 1108 971 1061 1028 1017 1054 955 984 1041 1003 986 986 987 878 994 974 951 1010 967 1065 1019 990 1035 990</counts>
			</dataPoints>
		</scan>
	</xrdMeasurement>
</xrdMeasurements>
