<?xml version="1.0"?>
<xrdMeasurements xmlns="http://www.xrdml.com/XRDMeasurement/2.3" xmlns:xsi="http://www.w3.org/2001/XMLSchema-instance" xsi:schemaLocation="http://www.xrdml.com/XRDMeasurement/2.3 http://www.xrdml.com/XRDMeasurement/2.3/XRDMeasurement.xsd" status="Completed" recordIdentifier="{909079E9-747D-43C2-AF2D-F235A27D29AD}">
	<comment>
		<entry/>
	</comment>
	<sample type="To be analyzed">
		<id>GPSS_Li1p4Fe0p8Mn0p3Zr0p1Cl4_112425_69248ac4f4e53d1f723993cf</id>
		<name></name>
		<preparedBy></preparedBy>
	</sample>
	<xrdMeasurement measurementType="Scan" status="Completed" sampleMode="Reflection">
		<usedWavelength intended="K-Alpha 1">
			<kAlpha1 unit="Angstrom">1.5405980</kAlpha1>
			<kAlpha2 unit="Angstrom">1.5444260</kAlpha2>
			<kBeta unit="Angstrom">1.3922500</kBeta>
			<ratioKAlpha2KAlpha1>0.5000</ratioKAlpha2KAlpha1>
		</usedWavelength>
		<incidentBeamPath>
			<radius unit="mm">145.00</radius>
			<xRayTube id="1010048" name="Empyrean Cu LFF HR (9430 033 7310x)">
				<tension unit="kV">40.0</tension>
				<current unit="mA">15.0</current>
				<anodeMaterial>Cu</anodeMaterial>
				<focus type="Line">
					<length unit="mm">12.0</length>
					<width unit="mm">0.4</width>
					<takeOffAngle unit="deg">6.0</takeOffAngle>
				</focus>
			</xRayTube>
			<sollerSlit id="21010002" name="Soller slits 0.04 rad.">
				<opening unit="rad">0.0400</opening>
			</sollerSlit>
			<mask id="22031000" name="Fixed mask 13 mm">
				<width unit="mm">9.00</width>
			</mask>
			<divergenceSlit id="22120001" name="Divergence slit 1°" xsi:type="fixedDivergenceSlitType">
				<distanceToSample unit="mm">50.00</distanceToSample>
				<height unit="mm">1.52</height>
			</divergenceSlit>
		</incidentBeamPath>
		<sampleMovement xsi:type="spinningSampleMovementType">
			<spinnerRevolutionTime unit="seconds">1.0</spinnerRevolutionTime>
		</sampleMovement>
		<diffractedBeamPath>
			<radius unit="mm">145.00</radius>
			<antiScatterSlit id="22090040" name="AS slit 9 mm (PIXcel)" xsi:type="fixedAntiScatterSlitType">
				<height unit="mm">9.00</height>
			</antiScatterSlit>
			<sollerSlit id="21020003" name="Large Soller slits 0.04 rad.">
				<opening unit="rad">0.0400</opening>
			</sollerSlit>
			<filter id="20030001" name="Large beta-filter Nickel">
				<material>Ni</material>
				<thickness unit="mm">0.020</thickness>
			</filter>
			<detector id="7010019" name="PIXcel1D-Medipix3 detector" xsi:type="rtmsDetectorType">
				<phd unit="keV">
					<lowerLevel>4.02</lowerLevel>
					<upperLevel>11.27</upperLevel>
				</phd>
				<mode>Scanning</mode>
				<activeLength unit="deg">5.542</activeLength>
			</detector>
		</diffractedBeamPath>
		<scan appendNumber="0" mode="Continuous" scanAxis="Gonio" status="Completed">
			<header>
				<startTimeStamp>2025-11-27T10:34:06-08:00</startTimeStamp>
				<endTimeStamp>2025-11-27T10:42:13-08:00</endTimeStamp>
				<author>
					<name>AutomatedUser</name>
				</author>
				<source>
					<applicationSoftware version="1.7b (136)">PANalytical Aeris Instrument Suite</applicationSoftware>
					<instrumentControlSoftware version="3.2.00000000 20240306">AERIS</instrumentControlSoftware>
					<instrumentID>950485</instrumentID>
				</source>
			</header>
			<dataPoints>
				<positions axis="2Theta" unit="deg">
					<startPosition>10.00943322</startPosition>
					<endPosition>99.99442286</endPosition>
				</positions>
				<positions axis="Omega" unit="deg">
					<startPosition>5.00471661</startPosition>
					<endPosition>49.99721143</endPosition>
				</positions>
				<commonCountingTime unit="seconds">12.495</commonCountingTime>
				<counts unit="counts">2901 2848 2990 2834 2943 2902 2998 2890 2950 2933 2848 2982 2973 2959 2942 2921 2955 2925 2915 2932 2857 2999 2945 2904 2901 2948 2913 3109 2906 2915 2885 2849 2869 2892 3001 2988 2926 2977 2819 2994 2910 2953 2889 2942 2889 2970 2912 2922 2879 2886 3053 2925 2933 3079 2867 2878 2928 2988 2977 2907 2916 2982 3039 3001 2910 3010 3029 3010 3070 2975 2990 3013 3066 2983 2919 2924 2982 2991 2971 2960 2975 3050 3020 2992 2972 2980 3002 2944 2969 2924 2990 2982 2930 2995 2959 2962 3092 2998 2893 2966 2924 2929 2927 3119 2992 3006 2997 2991 2859 2964 2955 3091 2976 3026 3080 3027 3057 2954 3032 2992 2969 3073 3013 3020 2973 2983 2878 2950 2944 3107 3070 3028 2950 2872 2947 2975 3019 2948 2941 3016 2890 2956 2953 3029 2951 2945 3028 3024 3069 3015 2954 3010 2962 2961 3035 2970 2980 2946 2963 2942 3065 3000 2974 2909 3041 2873 2989 2975 2897 2986 3068 3038 2929 2921 3023 3117 3016 3025 3019 2938 3087 3057 2991 2943 3094 2917 3023 2946 2999 2991 2870 3042 2929 3024 2963 3052 3060 2873 2933 2992 3012 2952 3004 2950 2912 2993 3014 2852 3006 2908 2974 2875 2965 2983 2859 2941 2936 3036 2836 3016 3046 2923 2950 3014 2972 2935 2910 3025 3005 2968 2995 2951 2893 2925 2970 2971 2966 2942 2969 2920 2919 2922 2868 2916 2934 2962 2989 2937 2970 2948 2953 2928 2864 2889 2890 2947 2884 3061 2912 2942 2882 2928 2819 2868 2894 2994 2869 2896 2956 2892 2996 2906 2970 2905 2880 2869 2961 2869 2870 2912 2829 2843 2875 2852 2732 2986 2967 2907 2852 2890 2933 2871 2894 2860 2878 2908 2960 2907 2921 2879 2974 2951 2849 2906 2931 2888 2801 2938 2959 2924 2917 2909 2966 2987 2932 2845 2925 2895 2937 2910 2888 2937 2938 3002 2941 2954 2894 2924 2876 2969 2956 2802 3048 2961 3002 2986 2869 2932 2957 2834 2886 2976 2912 2964 2900 2991 2857 2902 2920 2991 2942 2918 2816 2989 3028 3017 2906 2903 2918 3038 2955 2972 3032 2924 3015 2952 2989 3007 2965 2963 3060 3085 2992 2931 2931 3095 2994 3014 2924 3068 2949 2906 2967 3003 3001 3113 3154 3028 3015 3103 3091 3100 3029 3112 2998 3109 2999 3144 3079 3075 3101 3210 3178 3279 3118 3120 3239 3102 3255 3305 3299 3261 3248 3253 3289 3368 3466 3357 3450 3401 3504 3596 3614 3592 3725 3881 3755 3909 3935 3931 4193 4091 4252 4127 4162 4272 4167 4311 4264 4211 4373 4257 4276 4313 4285 4307 4225 4135 4246 4223 4228 4167 4286 4198 4220 4157 4110 4329 4334 4314 4373 4251 4322 4179 4211 4134 4187 4144 4190 3993 4114 4064 4082 3891 3956 3885 3886 3816 3950 3751 3755 3746 3546 3730 3615 3619 3616 3588 3543 3585 3547 3652 3608 3597 3484 3588 3553 3541 3636 3499 3365 3541 3376 3433 3375 3326 3464 3398 3446 3436 3414 3326 3457 3399 3474 3344 3342 3352 3277 3239 3354 3317 3368 3297 3234 3291 3260 3321 3422 3270 3313 3211 3251 3303 3268 3308 3270 3195 3260 3339 3239 3269 3262 3227 3280 3216 3203 3297 3218 3279 3230 3139 3106 3225 3211 3369 3167 3234 3187 3119 3210 3203 3123 3226 3195 3192 3262 3126 3217 3094 3099 3173 3181 3201 3117 3160 3197 3205 3124 3212 3057 3129 3059 3204 3171 3206 3164 3129 3095 3086 3056 3031 3125 3189 3014 3118 3231 3006 3095 3087 3076 3067 2926 3022 3080 3043 3037 3082 3039 3085 3050 3116 3057 3018 2964 3095 3044 3108 2975 3107 3043 3006 3086 3033 3063 3067 2999 3133 3044 3004 3045 3023 3000 3085 3023 3107 3052 3052 2965 3123 2980 2904 3130 2961 3068 3047 2964 3107 2954 3060 3014 3042 3002 2920 2995 3075 3111 2994 3090 3031 3025 2981 3167 3010 2925 3030 3010 3018 2945 2917 2956 3009 3058 3053 3070 2961 3071 2965 2906 2986 3041 3019 3057 3011 3006 3068 2973 3111 2998 3047 2920 3015 3015 2958 2945 3043 2939 2959 3023 3001 2941 3015 2945 2864 2928 2952 2985 2998 2869 2953 3018 2968 2933 2919 2983 2965 2936 2940 2983 2848 2928 2896 2941 2905 3016 2910 2951 3022 2811 2975 2882 2855 3025 2991 2920 2951 3001 2924 2956 2942 2911 2956 2836 2912 2876 2872 2757 2952 2904 2863 2819 2958 2897 2957 2976 2824 2928 3015 2917 2818 2981 2904 2914 2897 2941 2904 2960 2868 2882 2961 2835 2875 2857 2835 3020 2907 2848 2927 2989 2847 2913 2905 2854 2889 2868 2899 2910 2983 2982 2830 2843 2895 2978 2961 2898 2874 3004 2894 2876 2872 2888 2881 2832 2927 2827 2896 2848 2973 2877 2863 2886 2811 2954 2799 2883 2814 2890 2896 2836 2816 2814 2851 2904 2804 2868 2858 2851 2786 2812 2943 2900 2960 2856 2932 2985 3003 2931 2793 2962 3002 2883 2913 2791 2801 2845 2860 2807 2787 2870 2895 2741 2859 2903 2857 2826 2792 2759 2855 2874 2925 2874 2837 2906 2827 2865 2859 2790 2828 2962 2777 2801 2828 2822 2852 2733 2806 2753 2800 2778 2817 2893 2795 2848 2803 2894 2879 2869 2910 2844 2881 2910 2817 2829 2785 2810 2800 2756 2789 2842 2795 2719 2869 2780 2869 2833 2875 2762 2762 2856 2811 2829 2816 2824 2735 2851 2801 2920 2736 2781 2766 2907 2768 2830 2722 2677 2814 2848 2753 2779 2771 2730 2814 2789 2829 2770 2738 2763 2820 2741 2836 2854 2815 2749 2735 2765 2820 2790 2700 2750 2769 2860 2686 2824 2789 2808 2809 2764 2785 2813 2740 2694 2798 2703 2780 2764 2717 2704 2769 2784 2732 2725 2683 2842 2781 2869 2799 2727 2781 2656 2763 2772 2743 2699 2721 2730 2717 2720 2697 2780 2632 2740 2749 2854 2742 2697 2764 2762 2647 2808 2740 2808 2749 2847 2660 2715 2693 2829 2728 2713 2692 2751 2740 2690 2687 2655 2767 2782 2822 2713 2773 2625 2721 2661 2687 2704 2616 2744 2710 2703 2795 2698 2684 2744 2707 2702 2731 2743 2699 2698 2742 2753 2715 2795 2749 2760 2826 2811 2785 2713 2598 2735 2768 2827 2731 2665 2826 2656 2703 2682 2667 2797 2689 2760 2763 2697 2862 2788 2795 2778 2704 2727 2733 2669 2711 2745 2719 2890 2661 2730 2702 2613 2772 2678 2706 2678 2674 2710 2607 2827 2680 2731 2731 2784 2690 2686 2697 2674 2732 2737 2746 2708 2740 2758 2804 2705 2662 2733 2756 2752 2775 2691 2614 2683 2694 2717 2708 2728 2644 2742 2716 2802 2696 2646 2677 2677 2659 2758 2786 2697 2773 2649 2763 2667 2683 2733 2699 2723 2658 2748 2651 2671 2796 2696 2697 2691 2691 2712 2668 2603 2680 2671 2771 2660 2658 2664 2692 2652 2771 2725 2689 2682 2733 2679 2631 2738 2692 2692 2638 2746 2589 2720 2728 2771 2682 2698 2704 2742 2686 2709 2683 2691 2696 2699 2771 2715 2744 2623 2661 2661 2665 2684 2757 2696 2564 2669 2658 2696 2712 2672 2630 2553 2582 2617 2675 2662 2583 2590 2648 2764 2692 2610 2642 2517 2572 2624 2602 2610 2661 2630 2586 2636 2649 2719 2594 2508 2645 2608 2566 2707 2645 2560 2513 2590 2556 2605 2611 2572 2617 2652 2586 2670 2615 2594 2548 2601 2629 2512 2581 2644 2602 2671 2636 2565 2620 2580 2584 2608 2629 2484 2593 2599 2694 2622 2535 2514 2421 2570 2615 2560 2418 2459 2485 2590 2569 2499 2565 2599 2454 2534 2465 2537 2541 2498 2659 2560 2667 2585 2567 2557 2557 2459 2525 2547 2497 2393 2493 2573 2454 2425 2538 2523 2552 2490 2457 2468 2441 2577 2492 2479 2400 2562 2543 2462 2499 2506 2484 2555 2576 2479 2564 2544 2473 2453 2494 2472 2570 2478 2432 2455 2440 2486 2449 2478 2505 2387 2473 2516 2519 2407 2561 2499 2441 2590 2440 2557 2552 2463 2479 2540 2466 2569 2501 2503 2477 2483 2431 2494 2525 2565 2452 2519 2415 2410 2412 2357 2446 2434 2511 2418 2366 2404 2485 2508 2574 2468 2422 2412 2495 2393 2452 2411 2468 2564 2488 2489 2421 2460 2466 2377 2404 2458 2388 2488 2433 2461 2393 2400 2416 2384 2467 2509 2443 2462 2454 2379 2508 2436 2406 2456 2380 2428 2449 2462 2434 2432 2392 2381 2431 2467 2501 2443 2377 2383 2439 2519 2399 2309 2495 2394 2379 2472 2393 2362 2351 2404 2324 2508 2447 2284 2352 2431 2457 2436 2496 2358 2331 2403 2441 2358 2426 2436 2429 2444 2412 2524 2436 2457 2383 2321 2355 2464 2554 2524 2456 2425 2387 2413 2480 2480 2446 2431 2418 2554 2444 2483 2397 2378 2466 2426 2377 2476 2387 2423 2518 2361 2438 2419 2433 2333 2436 2446 2417 2506 2378 2440 2510 2416 2425 2457 2491 2440 2493 2460 2456 2403 2410 2457 2366 2471 2408 2330 2380 2459 2432 2495 2412 2468 2413 2352 2467 2408 2464 2510 2465 2475 2361 2483 2481 2357 2512 2486 2430 2432 2420 2423 2498 2448 2471 2462 2425 2388 2410 2375 2456 2504 2464 2485 2388 2458 2473 2391 2374 2361 2414 2330 2414 2464 2452 2427 2410 2439 2454 2416 2400 2458 2532 2462 2400 2343 2436 2451 2323 2439 2428 2486 2419 2427 2381 2379 2454 2436 2439 2440 2369 2524 2430 2375 2442 2459 2414 2446 2369 2505 2427 2445 2406 2386 2381 2423 2403 2367 2395 2423 2439 2464 2379 2315 2474 2458 2329 2439 2444 2420 2427 2436 2382 2437 2430 2345 2373 2378 2422 2419 2316 2380 2450 2404 2358 2434 2328 2297 2307 2427 2413 2392 2414 2421 2275 2404 2427 2343 2479 2457 2410 2405 2253 2492 2300 2396 2373 2403 2339 2473 2399 2444 2420 2327 2325 2403 2422 2393 2355 2332 2432 2386 2444 2308 2430 2425 2394 2346 2475 2373 2400 2410 2494 2404 2530 2492 2499 2470 2600 2563 2553 2634 2694 2870 2767 2904 2848 2930 2927 2969 2933 3083 3129 3115 3094 3109 3145 3156 3122 3164 3178 3100 3118 3037 3102 3043 3001 2970 2945 2978 2992 2971 2977 2864 2956 2812 2817 2819 2802 2848 2945 2768 2743 2873 2798 2790 2785 2688 2694 2702 2767 2642 2644 2524 2609 2655 2579 2571 2502 2527 2478 2516 2593 2579 2533 2465 2609 2503 2463 2491 2526 2447 2408 2337 2554 2426 2464 2406 2420 2526 2357 2425 2435 2420 2441 2343 2308 2419 2338 2429 2453 2375 2373 2394 2335 2439 2340 2429 2455 2313 2354 2378 2371 2440 2439 2374 2302 2543 2479 2473 2439 2504 2420 2559 2563 2726 2663 2694 2714 2830 2856 3006 2833 3162 3060 3157 3234 3384 3407 3389 3446 3467 3565 3597 3760 3728 3772 3709 3817 3864 3682 3732 3572 3626 3536 3427 3494 3429 3371 3326 3256 3312 3277 3119 3084 3100 2997 3072 2919 3055 3061 3092 2967 2970 2960 2953 2839 2903 2820 2762 2712 2717 2781 2698 2657 2829 2568 2614 2662 2586 2475 2541 2513 2532 2486 2523 2503 2499 2462 2507 2463 2504 2381 2553 2403 2567 2396 2479 2387 2492 2439 2463 2384 2495 2333 2321 2356 2453 2449 2444 2395 2442 2363 2409 2350 2374 2297 2433 2377 2387 2361 2286 2315 2283 2377 2380 2353 2270 2396 2308 2358 2283 2299 2276 2295 2293 2282 2353 2290 2290 2300 2309 2201 2238 2322 2235 2260 2223 2291 2234 2278 2399 2201 2280 2236 2236 2239 2336 2264 2299 2286 2259 2186 2221 2263 2204 2218 2191 2255 2148 2242 2209 2243 2239 2225 2254 2157 2172 2182 2182 2089 2074 2158 2134 2155 2272 2199 2189 2190 2249 2093 2167 2262 2101 2145 2245 2156 2142 2184 2086 2178 2181 2169 2145 2120 2109 2135 2179 2107 2102 2065 2143 2135 2002 2150 2144 2196 2132 2135 2094 2112 2161 2124 2175 2136 2112 2016 2069 2149 2151 2073 2173 2037 2143 2098 2092 2091 2093 2050 2038 2080 2101 2136 2070 2100 2042 2130 2039 2109 2174 2141 2109 2104 2069 2054 2058 2125 2109 2017 2100 2145 2059 2184 2085 2081 2167 2119 2079 2027 2093 2071 2127 2147 2023 2198 2103 2065 2062 2092 2184 2102 2146 2074 2171 2063 2048 2124 2117 2108 2047 2049 1994 2144 2030 2096 2044 2029 2046 2081 2092 2073 2069 2074 2125 2009 2119 2121 2120 2085 2052 2007 2035 2158 2090 2112 2143 2128 2024 2070 2099 1996 2161 2062 2057 2052 2099 2056 2016 2071 2085 2077 2073 2054 1957 2015 2038 2018 2125 2068 2050 2021 2030 2110 2088 2048 2101 2089 2115 2057 2095 2134 2289 2094 2034 2103 2101 2114 2137 2106 2161 2082 2086 2149 2116 2119 2137 2093 2114 2111 2126 2152 2175 2035 2173 2113 2101 2152 2064 2196 2194 2139 2141 2155 2179 2145 2121 2125 2148 2094 2140 2138 2121 2238 2089 2090 2114 2219 2113 2190 2158 2125 2133 2125 2158 2198 2203 2161 2137 2085 2221 2156 2156 2136 2192 2195 2197 2111 2216 2200 2133 2246 2194 2218 2286 2202 2270 2057 2184 2258 2264 2230 2343 2254 2245 2269 2346 2292 2361 2472 2400 2528 2402 2499 2507 2643 2561 2722 2793 2798 2947 3034 3173 3347 3527 3727 3861 4125 4438 4610 4771 4860 5270 5599 5786 5958 6390 6515 6606 6887 7064 7075 7121 7042 7185 7074 7458 7106 6895 6819 6795 6587 6395 6427 6200 5865 5999 5599 5488 5430 5139 4920 4843 4729 4586 4451 4255 4354 4180 4114 3976 4027 3861 3842 3844 3545 3636 3483 3387 3459 3317 3307 3226 3178 3017 3124 3172 3121 3051 3000 3044 3125 2992 3043 3070 2952 2924 2922 2997 2866 2967 2941 2996 2994 3009 2961 2943 2907 2825 2959 2887 2860 2868 2795 2860 2775 2811 2697 2666 2698 2643 2709 2565 2651 2632 2607 2640 2518 2601 2546 2626 2459 2664 2481 2489 2480 2520 2399 2586 2411 2414 2483 2439 2404 2424 2435 2448 2451 2371 2343 2438 2368 2357 2323 2402 2388 2367 2415 2384 2328 2417 2407 2343 2379 2400 2371 2340 2305 2381 2444 2385 2383 2397 2319 2302 2316 2369 2286 2365 2467 2350 2250 2320 2321 2297 2268 2240 2291 2230 2216 2181 2137 2234 2253 2238 2123 2143 2201 2129 2229 2248 2155 2031 2115 2129 2074 2071 2067 2092 2147 2065 2140 2061 2070 2086 2074 2141 2157 2106 2133 2076 2031 2078 2028 2068 2155 2005 2100 2052 2104 2024 2067 2102 2121 2087 2086 2061 2157 2013 2041 2077 2095 2048 2082 2101 2086 2034 1930 1978 2081 2093 2023 2034 2086 2110 2070 1909 2106 2011 1937 2076 2056 2036 1984 2007 2064 2075 2052 2007 2006 2017 2005 2032 2028 2012 2051 2124 1997 2018 2046 2055 2099 2102 2035 2051 2045 1962 1990 2036 2104 2048 1938 2070 2025 2025 2025 1974 2077 2014 1936 2126 2013 2073 1998 1972 2113 2024 2057 2071 2120 2047 2104 2060 2018 2026 2021 2129 2003 1978 2118 2058 1990 2024 2000 2034 2061 2089 2129 2089 2120 2059 2025 2038 2058 2141 2146 2105 2169 2171 2103 2124 2155 2089 2114 2136 2107 2187 2097 2126 2122 2111 2042 2039 2125 2065 2019 2109 1985 2116 2060 2015 2042 2018 1969 2117 2051 1929 2084 2014 2051 2056 2046 2051 2011 2023 1995 2077 2042 2068 2018 2034 2055 2011 2049 2025 2105 2020 2063 1999 2036 1995 2090 2013 2084 1997 2053 2084 2008 2105 2036 1984 2019 2036 2098 1997 2019 2163 2037 2127 2094 2081 2070 2021 2078 2103 2058 2056 2028 1939 2068 1959 1994 2066 2046 2095 1924 2064 1940 1938 2059 2086 1976 2033 2033 2087 1894 2054 1995 2003 2000 1955 1985 1966 2021 1924 2025 1989 1958 2013 1970 1923 2046 2050 2054 1993 1975 1983 1960 1958 2050 2014 2044 1965 1994 1960 1986 1940 2043 1978 1998 2005 1961 2039 1917 2020 1957 1936 1977 2084 1973 1998 2014 2053 1997 1962 2018 2060 1901 1997 1994 1995 1926 1975 1980 2047 1982 1984 1928 1996 1990 2040 2007 2042 1956 2037 1984 1943 2004 1917 2013 1925 2038 1970 1958 1889 1928 1930 2016 1955 1942 1957 2011 1964 1980 1988 2049 1976 1988 2014 1894 1967 1977 1961 2002 1977 1981 1937 1997 1972 1969 1887 1999 1924 2012 2027 2051 1906 1974 2045 1843 1906 1954 1887 1945 2023 2034 2047 1997 2080 2037 1967 1892 1967 1992 1957 2016 1999 1989 1912 1953 1953 1998 1976 2057 2002 1944 2007 1899 1999 1964 1966 2001 1919 1923 1981 1994 1906 2000 2007 1976 2022 1965 1928 1968 1921 1955 1987 1978 2024 1969 1889 1922 1954 1982 2022 1998 1970 1979 1988 1997 1938 1956 1996 2001 1911 1961 2007 2045 1959 1932 1961 1887 1923 1943 1959 1945 1910 1894 1943 1947 2018 1840 2021 1972 1990 1909 1934 2055 1976 1910 2013 1949 1978 1956 1955 1998 1977 1921 1917 1950 1968 1911 1985 1886 2005 1961 1896 1961 1925 2004 2011 1959 1996 2005 1917 1955 2027 2013 1921 1959 1967 1949 1938 2048 1968 1900 1906 1974 1986 1968 2004 1911 1898 1995 2014 1925 1928 1916 2020 1932 1954 1964 1978 1960 1964 1923 1955 1950 1918 1898 1941 1932 1992 1983 1932 1936 1913 1925 1899 1877 1928 1944 2048 1882 2020 2023 1931 2009 2004 1911 1949 1951 1922 2004 1929 1981 1920 1947 1892 1918 1935 1978 1944 1983 1982 1991 1909 1959 1964 1960 2013 1927 1923 1915 2028 1918 1957 2020 1879 1909 2004 2075 1977 1980 1921 2010 1948 1912 1984 1971 1865 1929 1993 1942 1956 1978 1939 1967 1960 1892 1940 1952 1946 1946 1977 1976 1914 1944 1978 1948 1949 1974 1973 1932 1944 1959 2034 2018 1940 2027 2003 2010 2002 2026 1949 1920 1870 1900 1913 1900 2013 1971 1968 1908 1913 1952 1929 1997 1973 1885 1919 1936 2036 1932 1910 1899 1877 1981 1960 2043 1971 1961 1948 2025 1863 1883 2067 1946 1921 1958 2007 1982 1904 1936 2000 1975 1932 1972 1964 1931 2006 1966 1979 1911 1931 2007 1908 1967 1945 1922 2015 1996 1957 1995 1953 1959 1976 1936 1924 1924 1935 1915 1946 2004 1871 1924 1932 1957 1966 1904 1954 1970 2009 1995 1960 1888 2009 1903 1919 1966 1928 1904 1908 1916 1903 1907 1992 1884 1960 1982 1867 2010 1912 1902 1973 1939 1935 1909 1970 2028 1992 1949 1960 1938 1900 1959 1982 1997 1856 1952 1930 1945 1976 1949 1878 1993 1898 2014 2018 1974 2019 2055 1939 1903 1901 1996 1978 1931 1914 1907 1896 1924 1938 1858 1925 1924 1958 2020 1990 1882 1956 1899 1985 1931 1945 1947 2002 2007 1973 1908 1915 1950 1998 1910 1897 1879 1954 2015 1966 1966 1995 1916 1931 1890 1915 2016 1929 1964 2066 1946 1999 1926 1937 1949 1996 1945 1917 1949 1941 1974 1923 1992 1969 1936 1913 1881 1978 1929 1989 2011 1958 1978 1906 2002 1954 1924 2008 1980 1937 1912 2067 1920 1955 1961 1939 2061 1991 1970 1977 2020 2089 2071 2093 2077 2138 2034 2048 2186 2086 2195 2202 2194 2186 2265 2273 2337 2245 2315 2405 2489 2492 2480 2450 2490 2545 2584 2554 2579 2614 2581 2537 2679 2728 2618 2583 2613 2498 2553 2458 2472 2466 2410 2292 2318 2210 2372 2279 2258 2228 2255 2303 2182 2298 2178 2128 2139 2090 2157 2055 2088 2136 2102 2049 2062 2093 2055 2053 2065 2041 1997 2052 2021 2069 2078 2088 2056 2062 2082 2103 1949 1987 2011 1965 2007 1988 1988 2101 2026 2062 2049 2067 2064 2012 2068 2059 2008 2090 2045 2038 1966 1977 1992 1988 2022 2020 2051 1927 2108 2053 2068 2044 2011 2056 2054 2116 1970 1962 1965 1970 2026 2117 2022 2065 2104 2008 2044 2093 2011 1989 2017 2056 2096 2004 2088 1998 1967 2062 1959 2009 2058 1977 2096 1972 1937 1907 2059 2020 2037 1926 2041 2048 1947 1978 2027 1973 1969 2010 2027 1988 1982 1985 1949 1915 1897 1918 1966 2042 1944 1967 1989 1840 2020 1975 1980 1940 1942 1987 1858 1932 1947 1884 2050 1956 1892 2027 1895 1942 1951 1941 1932 1914 1941 1983 1942 1873 1959 2046 1907 1943 1990 1947 1910 2000 1935 1935 1937 1949 1966 1968 2000 1898 1962 1903 1966 1900 1940 1831 2015 1898 1951 1952 1912 1950 1786 1954 1985 1957 1897 1914 1925 1925 1946 1953 1856 1906 1978 1884 1956 1885 1977 1966 1907 1975 2032 2010 2012 1875 1951 1906 1950 2022 2071 1962 1986 1908 1934 2029 1941 2031 1972 1989 1874 1960 2001 1892 1914 1929 1937 1998 2016 1984 2026 2005 1925 1878 1958 2022 2007 1927 2067 1908 1882 1924 1993 1969 1975 1995 1980 1954 2042 1881 1890 1980 1827 1919 1937 1958 1986 2033 2022 1980 1934 1943 1922 1978 2010 1970 1955 1875 1978 1910 1927 1912 1957 1989 1990 1934 2002 1972 1973 1906 1936 2039 1896 1937 1971 1983 1903 1946 1950 1848 1965 1864 1999 2001 1968 2002 2018 1983 2007 1909 2050 1982 1994 2002 1939 1968 2055 1965 2030 2052 1940 2018 1904 2028 1914 1958 1939 1965 1894 2011 1946 1989 2042 1969 1996 1939 2071 2018 2008 2043 1986 2045 2027 1989 2059 2008 2101 1978 2081 2207 2142 2107 2138 2218 2125 2154 2162 2207 2224 2275 2243 2272 2377 2300 2406 2549 2441 2545 2520 2686 2767 2973 2890 3024 3189 3300 3490 3578 3790 3772 4091 4206 4354 4394 4605 4562 4790 4830 5014 5061 5152 5191 5136 5083 4989 4847 4953 4869 4802 4670 4535 4479 4413 4372 4174 4148 3952 3913 3816 3673 3555 3510 3314 3269 3111 3119 3127 3072 2888 2790 2689 2754 2675 2706 2597 2652 2607 2589 2556 2544 2545 2485 2469 2486 2540 2485 2482 2471 2375 2452 2505 2435 2448 2481 2428 2496 2373 2493 2416 2360 2478 2506 2439 2395 2407 2407 2436 2467 2455 2352 2482 2463 2385 2473 2439 2468 2381 2504 2435 2374 2469 2508 2451 2333 2314 2330 2429 2385 2298 2387 2421 2450 2436 2318 2379 2394 2441 2439 2392 2394 2366 2389 2384 2363 2412 2308 2386 2415 2361 2348 2420 2304 2397 2348 2251 2338 2359 2314 2288 2249 2294 2302 2332 2266 2300 2146 2277 2231 2157 2250 2221 2128 2217 2125 2184 2192 2136 2246 2095 2173 2111 2099 2224 2096 2058 2063 2155 2094 2026 2073 2021 2091 2047 2016 2016 2082 2028 2086 1976 2027 2007 1911 2082 2036 2000 1982 2005 2058 2024 2074 2040 2070 1919 2018 1975 1990 1986 2054 2017 1926 2003 2005 2047 2006 1927 2070 1879 2001 1979 2053 1985 1994 2043 1993 1959 2073 2022 1984 2001 2010 2051 2093 2135 2071 2014 2102 2120 2030 2029 2063 2135 2195 2143 2289 2154 2136 2247 2183 2243 2285 2381 2261 2320 2338 2314 2306 2344 2348 2308 2332 2237 2351 2341 2256 2222 2315 2166 2206 2266 2171 2173 2200 2168 2156 2092 2197 2172 2197 2119 2093 2062 2110 2025 2110 2000 2068 1990 2035 2012 2015 1993 1997 2083 2044 2065 2008 2108 1964 2040 2102 1991 2019 2004 1964 1980 2082 1985 2046 2002 1958 1925 2079 1953 1989 2101 2009 1950 2041 1996 2011 2025 1938 1980 1944 2035 2014 1970 2008 1982 1934 2076 1962 2058 2015 1914 1957 2020 1927 1989 1994 2078 2078 1991 2070 2019 1990 2019 1938 2022 2006 2093 1932 1930 2014 1970 1916 1949 1979 1947 2042 1935 2054 1968 1929 1926 1950 1893 1996 1993 2001 2000 1917 1969 1958 1940 1886 1881 1877 1934 2008 1923 1964 1931 1992 1906 1961 1931 1899 1918 1954 1904 1960 1874 1909 1934 1921 2028 1854 1911 1970 1939 1912 1915 1969 1900 1949 1935 1902 1918 1866 1941 1925 1908 1813 1927 1939 1850 1839 1964 1929 1946 1806 1972 1949 2017 1910 1843 1861 1964 1905 1877 1966 1985 1895 1877 1903 1889 1898 1932 1805 1834 1982 1840 1826 1827 1875 1942 1914 1876 1870 1885 1849 1929 2017 1885 1910 1898 1961 1893 1897 1838 1920 1867 1899 1841 1919 1849 1905 1992 1861 1900 1863 1906 1939 1821 1980 1862 1859 1964 1912 1961 1838 1843 1821 1922 1913 1875 1985 1881 1872 1893 1843 1972 1920 1868 1934 1875 1857 1900 1862 1875 1862 1831 1826 1846 1802 1923 1920 1891 1808 1930 1938 1897 1860 1841 1837 1802 1904 1953 1920 1919 1978 1906 1906 1900 1853 1888 1986 1922 1913 1952 1841 1884 1935 1856 1878 1876 1889 1844 1875 1816 1974 1930 1878 1903 1977 1889 1888 1851 1918 1913 1809 1848 1795 1913 1900 1883 1829 1910 1871 1857 1952 1885 1878 1872 1930 1857 1867 1869 1903 1823 1855 1844 1813 1911 1846 1845 1874 1903 1949 1954 1837 1887 1876 1872 1911 1834 1986 1843 1934 1951 1840 1841 1887 1884 1843 1976 1861 1911 1934 1914 1924 1917 1920 1868 1966 1885 1961 1891 1887 1911 1824 1815 1920 1834 1890 1785 1835 1849 1905 1862 1826 1799 1835 1906 1887 1834 1877 1951 1861 1868 1868 1935 1871 1904 1907 1909 1855 1868 1777 1857 1907 1827 1936 1891 1877 1900 1833 1921 1878 1821 1891 1851 2028 1892 1932 1886 1898 1830 1787 1845 1961 1928 1921 1831 1817 1799 1860 1806 1938 1789 1819 1905 1945 1834 1791 1883 1944 1844 1923 1951 1792 1990 1901 1778 1933 1954 1812 1852 1938 1982 1888 1819 1874 1878 1877 1942 1857 1883 1888 1892 1926 1866 1790 1897 1871 1925 1858 1919 1877 1881 1894 1783 1883 1831 1805 1851 1900 1814 1899 1921 1918 1874 1855 1865 1877 1887 1880 1874 1900 1965 1822 1869 1867 1818 1876 1858 1912 1847 1918 1830 1936 1788 1875 1862 1851 1884 1914 1890 1911 1800 1844 1830 1930 1916 1862 1861 1942 1793 1800 1884 1855 1900 1900 1854 1932 1851 1889 1940 1903 1886 1798 1915 1897 1863 1889 1871 1833 1881 1861 1836 1861 1823 1862 1853 1885 1798 1905 1881 1783 1899 1905 1887 1865 1881 1876 1780 1949 1932 1966 1899 1955 1868 1907 1913 1982 1885 1943 1973 1929 1927 1960 1939 1940 1860 1846 2006 2016 1833 2002 1897 1938 2065 1987 1964 2023 1939 1937 2026 1999 1951 1969 1951 1991 1938 1976 1962 1941 1892 1991 1885 1990 1858 1914 1893 1932 1905 1978 1864 1882 1935 1932 1897 1926 1909 1980 1927 1885 2028 1947 1889 1916 1928 2004 1922 1915 1946 1937 1901 1986 2028 2027 1985 2050 2045 2083 2109 2226 2179 2113 2231 2166 2194 2198 2181 2210 2211 2203 2232 2214 2135 2229 2128 2174 2251 2217 2193 2151 2147 2100 2086 2145 2113 2141 2132 2214 2148 2066 2112 2047 1986 2112 2018 2046 2065 1997 1969 1949 2004 1922 2010 1957 2040 1991 1974 1951 2028 1957 1887 2026 1939 1963 1903 1931 1993 1918 1884 1926 1941 1959 2027 1958 1856 1898 1946 1997 1931 1930 1932 1936 1905 1890 1935 1964 1958 1954 2003 2012 1992 1857 1920 1952 1907 1923 1972 1937 1925 2014 1926 1904 1905 1859 1862 1976 1929 1950 1899 1934 1895 1917 1883 1923 2069 1958 2003 1904 1915 1938 2007 1961 1896 1947 1943 1830 1965 1821 2005 1923 1935 1913 1963 1949 1890 1854 1902 1934 1964 1916 1865 1922 1936 1957 1955 1918 1986 1904 1926 1852 2019 1923 2039 1976 1888 1912 1926 1904 1865 1945 1900 1901 1972 1822 1896 1930 1944 1886 1896 1893 1851 1945 1842 1999 1838 1972 1880 1910 1901 1868 1872 1865 1804 1862 1895 1951 1879 1895 1937 1862 1926 1796 1843 1904 1854 1944 1865 1832 1858 1938 1810 1942 1847 1869 1896 1930 1893 1896 1916 1833 1890 1892 1842 1927 1941 1820 1835 1870 1859 1877 1932 1871 1968 1892 1930 1903 1972 1818 1897 1880 1834 1880 1886 1950 1843 1920 1884 1890 1906 1895 1917 1943 1925 1928 1977 1830 1822 1920 1843 1910 1914 1938 2049 1944 2035 1947 1887 1998 2028 2016 2080 1932 2010 2001 2107 2069 1994 2126 2189 2141 2225 2324 2290 2240 2258 2399 2456 2435 2507 2470 2603 2521 2589 2617 2620 2645 2581 2741 2708 2648 2647 2649 2641 2595 2556 2554 2535 2574 2527 2525 2423 2378 2398 2393 2328 2312 2251 2367 2238 2255 2203 2139 2179 2161 2136 2117 2086 2016 2060 1962 2045 2085 2059 1999 2039 2018 1908 1985 1962 2041 2031 2026 2016 1977 1949 1954 1959 1924 1983 1995 1934 2013 2024 2056 1934 1964 1918 2012 1955 1933 1975 1914 1982 2027 1943 1931 2054 1902 1953 1959 1938 1966 1864 1958 1932 1908 1928 1967 1938 1930 1986 1978 1963 1987 1973 1969 1979 1991 1930 2025 1972 1949 1990 2048 1926 1978 1940 1958 2019 1936 1959 1935 1982 1958 1982 1993 1958 1988 1933 1932 1953 1991 1901 1989 2034 1958 1954 1960 1875 1886 1974 1957 1964 1937 1978 2012 1899 1962 1865 2015 1938 1899 1819 1885 1887 1904 1855 1833 1903 1891 1797 1885 1912 1934 1884 1936 1860 1971 1833 1893 1917 1853 1945 1889 1963 1956 1938 1934 1941 1911 1929 1862 1899 1938 1952 1893 1902 1938 1903 1919 1935 1946 1978 1988 1970 1973 2008 1994 1972 1941 2011 2076 1982 2102 2053 2121 2035 2036 2108 2064 2033 2021 2096 2051 2065 2040 2056 2078 2112 2082 2142 2035 1985 1996 1979 2077 1954 2099 1987 2028 1861 1947 1997 1967 2013 1911 1971 1903 1909 1989 1996 2009 1919 1892 1912 1930 1997 1899 1907 1825 1871 1929 1853 1896 1885 2005 1915 1919 1812 1882 1838 1880 1944 1912 1854 1766 1954 1880 1867 1905 1855 1975 1870 1880 1934 1872 1845 1871 1799 1965 1788 1898 1918 1849 1879 1870 1920 1835 1879 1840 1873 1897 1989 1930 1815 1880 1857 1825 1922 1874 1860 1908 1811 1911 1884 1906 1890 1934 1875 1860 1888 1938 1925 1850 1858 1845 1858 1980 1917 1855 1818 1806 1891 1926 1824 1888 1879 1844 1861 1839 1904 1901 1931 1852 1938 1856 1904 1867 1859 1819 1915 1882 1885 1885 1877 1922 1909 1899 1944 1935 1865 1787 1876 1897 1882 1846 1800 1807 1838 1839 1792 1895 1859 1950 1902 1853 1867 1869 1846 1801 1907 1803 1936 1866 1886 1884 1792 1898 1846 1897 1909 1906 1873 1857 1922 1879 1787 1867 1823 1839 1856 1922 1801 1824 1853 1882 1784 1721 1848 1842 1895 1825 1790 1858 1810 1830 1845 1788 1887 1914 1864 1769 1802 1896 1774 1727 1898 1816 1820 1754 1855 1834 1771 1914 1841 1942 1879 1860 1849 1857 1935 1889 1875 1942 1824 1785 1819 1933 1838 1977 1823 1849 1814 1812 1885 1830 1837 1839 1918 1857 1930 1857 1820 1877 1911 1788 1828 1779 1880 1896 1905 1862 1831 1900 1846 1880 1819 1935 1823 1809 1880 1817 1866 1849 1916 1826 1886 1893 1849 1823 1839 1846 1899 1810 1742 1781 1855 1882 1844 1853 1832 1868 1823 1883 1852 1851 1846 1879 1807 1890 1912 1902 1825 1867 1778 1786 1927 1828 1809 1921 1819 1867 1761 1787 1896 1773 1854 1792 1798 1873 1899 1844 1838 1850 1836 1846 1823 1757 1819 1853 1849 1862 1837 1813 1815 1741 1849 1824 1774 1811 1817 1907 1849 1793 1823 1820 1763 1836 1938 1839 1865 1886 1798 1898 1783 1750 1830 1889 1820 1809 1860 1854 1837 1889 1814 1825 1819 1857 1798 1849 1865 1868 1882 1829 1883 1876 1880 1844 1744 1826 1819 1850 1852 1803 1844 1834 1901 1824 1797 1865 1836 1840 1776 1851 1827 1860 1818 1856 1804 1808 1793 1863 1803 1810 1891 1843 1820 1873 1873 1860 1867 1836 1807 1835 1847 1791 1822 1829 1851 1828 1842 1883 1876 1866 1867 1924 1820 1809 1873 1785 1853 1833 1783 1827 1890 1850 1816 1907 1813 1765 1836 1862 1845 1729 1850 1858 1790 1826 1795 1835 1882 1813 1817 1799 1835 1791 1853 1870 1881 1867 1888 1854 1772 1852 1742 1879 1820 1795 1789 1840 1817 1817 1876 1879 1945 1805 1797 1830 1828 1872 1947 1787 1840 1815 1832 1811 1937 1898 1853 1901 1857 1923 1894 1847 1853 1857 1886 1928 1912 1860 1968 1995 1862 1877 1949 1992 1902 1941 1951 1911 1858 1956 1861 1963 2003 1909 1994 1944 1991 1991 1910 1926 1864 1952 1969 1932 1877 1904 1921 1959 1946 1919 2005 1943 1884 1896 1973 1872 1906 1881 1968 1949 1849 1870 1898 1874 1877 1863 1882 1884 1835 1895 1916 1820 1899 1875 1906 1840 1817 1881 1815 1737 1779 1889 1901 1876 1837 1862 1876 1857 1876 1814 1797 1828 1812 1898 1869 1824 1923 1828 1834 1828 1906 1818 1835 1830 1845 1910 1796 1752 1809 1911 1802 1908 1815 1947 1810 1887 1906 1840 1923 1816 1874 1892 1901 1891 1907 1842 1846 1934 1840 1871 1864 1862 1832 1888 1842 1907 1842 1863 1860 1832 1869 1905 1840 1870 1923 1838 1815 1897 1816 1862 1866 1864 1766 1939 1892 1844 1876 1938 1918 1896 1849 1859 1913 1864 1894 1906 1793 1835 1921 1802 1848 1860 1833 1849 1842 1808 1822 1850 1870 1890 1838 1862 1839 1858 1868 1842 1851 1916 1896 1744 1849 1838 1804 1851 1765 1872 1859 1979 1939 1868 1859 1850 1823 1850 1896 1847 1931 1870 1847 1849 1846 1805 1924 1867 1811 1884 1846 1823 1804 1769 1802 1906 1868 1818 1759 1810 1744 1848 1794 1920 1790 1788 1841 1834 1852 1851 1846 1795 1851 1840 1798 1905 1754 1853 1852 1810 1833 1842 1883 1837 1804 1828 1867 1837 1855 1817 1871 1871 1831 1833 1849 1879 1848 1856 1864 1775 1814 1805 1869 1737 1777 1811 1884 1756 1820 1899 1879 1852 1868 1927 1880 1914 1865 1814 1901 1854 1839 1883 1835 1850 1851 1889 1887 1845 1869 1898 1845 1865 1838 1859 1896 1906 1888 1893 1970 1869 1829 1975 1972 1873 1880 1975 1855 1905 1942 1861 1913 1854 1989 2008 1980 1931 1901 1955 1983 2014 1977 2031 1996 2019 2047 2048 2087 1991 2024 2063 2107 2154 2053 2135 2090 2088 2116 2138 2198 2093 2115 2144 2090 2154 1973 2079 2080 2094 2014 2189 2018 2016 2049 2028 2004 2041 1940 2110 2032 2047 1956 1941 1970 1953 1963 1962 2027 1926 1878 1910 1977 1954 1911 2002 1876 1892 1892 1784 1901 1903 1932 1861 2012 1876 1870 1926 1898 1963 1903 1881 1802 1890 1830 1908 1899 1849 1762 1909 1898 1917 1927 1806 1874 1952 1931 1820 1898 1854 1832 1886 1924 1937 1861 1905 1890 1899 1890 1918 1861 1973 1858 1885 1825 1898 1858 1839 1859 1842 1863 1874 1880 1966 1842 1851 1863 1956 1860 1949 1876 2013 1954 1813 1775 1862 1870 1909 1909 1894 1908 1899 1934 1883 1890 1948 1909 1889 1929 1940 1804 1796 1883 1962 1878 1860 1906 1800 1914 1885 1885 1844 1834 1931 1893 1845 1896 1887 1905 1843 1967 1899 1955 1852 1848 1883 1914 1922 1850 1829 1892 1830 1918 1891 1841 1884 1864 1836 1810 1834 1842 1760 1874 1854 1867 1880 1843 1845 1862 1823 1851 1867 1869 1870 1859 1887 1825 1934 1839 1848 1854 1931 1902 1859 1932 1810 1832 1824 1845 1822 1876 1867 1863 1899 1823 1869 1825 1794 1926 1879 1940 1808 1842 1834 1789 1801 1786 1852 1830 1812 1879 1846 1924 1827 1831 1820 1845 1863 1838 1829 1656 1899 1839 1886 1866 1844 1873 1839 1778 1835 1960 1895 1834 1904 1854 1843 1772 1931 1839 1862 1869 1821 1814 1831 1821 1867 1848 1828 1832 1887 1858 1829 1810 1807 1781 1851 1881 1859 1801 1849 1901 1753 1871 1840 1887 1849 1913 1839 1896 1834 1877 1818 1813 1783 1872 1905 1783 1863 1851 1868 1838 1781 1810 1901 1809 1817 1889 1766 1806 1839 1842 1855 1857 1856 1863 1795 1778 1850 1759 1787 1793 1842 1854 1915 1810 1836 1776 1895 1813 1818 1865 1828 1823 1878 1836 1838 1813 1801 1853 1825 1861 1828 1832 1907 1849 1818 1875 1873 1748 1780 1858 1865 1822 1844 1854 1787 1827 1791 1865 1816 1833 1812 1852 1829 1819 1788 1886 1807 1782 1863 1871 1874 1831 1815 1788 1855 1859 1801 1830 1792 1789 1873 1793 1859 1838 1898 1831 1795 1861 1839 1782 1797 1829 1803 1812 1870 1805 1802 1824 1840 1864 1840 1869 1831 1868 1822 1855 1881 1754 1892 1882 1883 1860 1835 1836 1849 1810 1825 1832 1802 1776 1822 1798 1835 1874 1827 1862 1847 1831 1904 1862 1855 1815 1815 1814 1852 1853 1855 1851 1893 1812 1856 1763 1869 1800 1927 1814 1841 1813 1784 1830 1909 1889 1826 1849 1872 1852 1841 1833 1868 1758 1864 1861 1904 1837 1900 1862 1879 1848 1836 1811 1806 1871 1852 1856 1808 1811 1828 1788 1810 1835 1792 1911 1828 1822 1843 1816 1832 1878 1843 1779 1817 1886 1888 1807 1837 1850 1835 1727 1831 1810 1809 1803 1809 1939 1855 1861 1782 1904 1802 1797 1938 1928 1876 1766 1828 1815 1813 1840 1888 1878 1868 1780 1852 1857 1867 1797 1866 1855 1826 1861 1890 1829 1787 1881 1853 1805 1800 1858 1877 1845 1816 1845 1890 1828 1837 1850 1805 1764 1847 1765 1828 1902 1923 1835 1874 1800 1860 1868 1885 1782 1789 1891 1770 1887 1825 1799 1864 1851 1793 1856 1924 1758 1832 1802 1790 1937 1870 1816 1903 1825 1868 1771 1894 1817 1872 1753 1835 1826 1844 1829 1857 1837 1778 1972 1853 1907 1801 1877 1830 1825 1896 1793 1766 1816 1917 1884 1788 1955 1891 1805 1860 1829 1865 1854 1821 1861 1849 1870 1801 1865 1898 1855 1813 1839 1844 1802 1812 1834 1790 1767 1885 1904 1805 1842 1865 1918 1918 1840 1903 1856 1824 1856 1862 1788 1892 1985 1926 1801 1908 1840 1959 1843 1919 1911 1780 1902 1932 1926 1949 1879 1870 1925 1837 1873 1866 1947 1960 1969 1873 1942 1938 1990 1922 1914 1924 1936 1838 1876 1972 1927 2002 1911 1887 1855 1970 1976 1905 1917 1923 1925 1940 1885 1943 2013 1943 1967 1906 1918 1952 1880 1967 1900 1915 1937 1921 1939 1890 1894 1874 1873 1818 1953 1941 1950 1820 1872 1869 1943 1885 1961 1903 1946 1974 1979 1952 1897 1934 1946 1932 1946 1922 1963 1922 1965 1848 2033 1927 1902 1946 1892 1928 1968 1909 1964 1931 1944 1907 1892 1920 1904 1858 1976 1916 1876 1915 1885 1980 1934 1905 1858 1909 1953 1890 1972 1845 1910 1910 1886 1899 1906 1862 1933 1924 1872 1925 1959 1890 1920 1937 1851 1874 1812 1895 1946 1861 1931 1856 1994 1828 1863 1893 1915 1900 1839 1842 1878 1864 1854 1972 1790 1876 1855 1850 1805 1862 1870 1939 1885 1866 1909 1893 1803 1847 1925 1860 1893 1862 1823 1769 1936 1850 1903 1817 1866 1886 1810 1944 1852 1930 1961 1847 1888 1890 1982 1899 1950 1944 1869 1880 1920 1864 1924 1913 1916 1867 1871 1977 1868 1828 1884 1897 1848 1901 1903 1837 1929 1877 1939 1898 1884 1911 1981 1903 1923 1913 1859 1864 1891 1842 1888 1838 1908 1861 1885 1845 1935 1861 1881 1853 1842 1874 1843 1844 1938 1896 1864 1831 1855 1843 1925 1839 1899 1861 1810 1949 1937 1867 1900 1847 1941 1889 1982 1926 1871 1861 1955 1973 1887 1912 1947 1899 1921 1893 1933 1920 1953 1958 1972 1926 1947 1957 1948 1915 1929 1953 1892 1941 1894 1986 1994 1973 1968 1982 1975 2100 1952 2029 1994 2043 2022 2080 2059 2195 2098 2124 2078 2165 2210 2206 2283 2324 2209 2291 2242 2272 2325 2404 2376 2347 2373 2513 2447 2431 2496 2460 2546 2362 2491 2492 2487 2452 2474 2418 2379 2407 2467 2312 2336 2266 2340 2282 2360 2373 2353 2329 2255 2267 2249 2253 2179 2230 2378 2214 2187 2197 2237 2118 2267 2118 2175 2091 2157 2122 2040 2010 2015 1986 2076 2015 1975 2017 2021 1979 2043 2021 1935 1955 2000 1901 1947 1994 1980 2058 2003 1904 1923 1926 1980 1866 1906 1985 1975 1923 1923 1894 1913 1941 2002 1959 2005 1949 1922 1981 1957 1986 1932 2002 1928 1891 1872 1948 1954 1954 2006 1959 1861 1898 1928 2049 2047 1988 1946 1950 1912 1966 1874 2040 1986 1811 1941 1984 1968 1993 1956 1969 1890 1975 2009 1934 1978 1989 1914 1946 1937 1891 1958 1987 1966 1890 2011 1932 1921 1877 1948 1843 1920 1919 1954 1826 1788 1894 1927 1895 1906 1948 1964 1930 1944 1831 1953 1878 1875 1933 1983 1919 1963 2027 1941 1907 1970 1950 1991 1920 2024 1931 1972 1949 1965 1846 1940 1934 1915 1959 1960 1981 2000 1952 2001 1978 1996 1963 1959 2048 1987 1947 1983 1966 1944 1986 1975 1905 2009 2015 1959 1980 2032 2014 1964 1923 1985 1974 1950 1943 1903 1939 1956 1881 1987 1868 1875 1881 1884 1909 2000 2025 1952 1936 1873 1940 1892 1982 1892 1979 1890 1985 1842 1870 1995 1823 1999 1940 1950 1956 1888 1901 1866 1859 1935 1920 1920 1871 1943 1912 1851 1906 1907 1920 1847 1885 1874 1844 2004 1858 1882 1796 1902 1958 1890 1856 1903 1857 1820 1867 1948 1957 1881 1827 1877 1862 1884 1881 1846 1867 1884 1869 1870 1937 1847 1914 1808 1891 1960 1931 1875 1845 1835 1851 1911 1834 1867 1877 1949 1868 1898 1946 1880 1823 1933 1891 1942 1848 1910 1861 1880 1869 1846 1856 1862 1788 1864 1852 1796 1831 1817 1915 1890 1884 1923 1810 1824 1898 1877 1887 1814 1836 1860 1917 1864 1917 1870 1863 1873 1828 1840 1851 1840 1941 1832 1796 1921 1843 1881 1919 1812 1811 1852 1801 1861 1846 1810 1878 1937 1784 1825 1876 1820 1839 1899 1814 1848 1956 1859 1920 1874 1866 1783 1830 1930 1868 1875 1777 1826 1879 1895 1808 1876 1883 1832 1848 1960 1768 1854 1789 1865 1852 1827 1851 1874 1890 1903 1839 1894 1817 1803 1927 1865 1870 1783 1820 1812 1788 1864 1873 1938 1858 1846 1885 1871 1926 1797 1881 1775 1857 1832 1853 1816 1776 1936 1840 1871 1787 1835 1900 1802 1851 1862 1863 1869 1793 1956 1851 1869 1917 1895 1854 1903 1824 1896 1884 1890 1882 1850 1878 1849 1853 1926 1907 1890 1816 1972 1899 1847 1892 1860 1813 1795 1826 1859 1918 1830 1820 1870 1894 1848 1866 1857 1890 1899 1771 1897 1859 1829 1870 1908 1842 1897 1808 1832 1835 1829 1892 1815 1852 1817 1851 1830 1871 1819 1840 1826 1819 1905 1821 1775 1920 1791 1816 1893 1898 1839 1893 1902 1987 1864 1836 1854 1885 1866 1756 1830 1863 1882 1838 1859 1891 1835 1758 1929 1792 1845 1816 1919 1909 1922 1898 1914 1853 1864 1855 1863 1807 1788 1891 1839 1890 1867 1891 1811 1842 1853 1852 1925 1934 1888 1801 1842 1819 1862 1829 1856 1924 1878 1835 1900 1787 1864 1829 1848 1813 1809 1796 1870 1876 1810 1779 1894 1902 1818 1816 1888 1828 1840 1818 1828 1835 1925 1788 1844 1821 1858 1891 1823 1837 1821 1796 1892 1929 1919 1882 1829 1857 1904 1875 1844 1866 1826 1881 1908 1772 1846 1877 1895 1886 1910 1960 1867 1858 1960 1869 1871 1898 1761 1884 1871 1822 1858 1836 1836 1870 1892 1840 1921 1866 1927 1893 1948 1996 1942 1941 1941 1905 1827 1895 1942 1975 1932 1956 1866 1901 2019 1953 1913 1976 1942 1953 1904 1872 1945 2016 1922 1911 1975 1976 1986 1869 1968 1887 1930 1901 1956 1881 1851 1967 1897 1909 1924 1908 1964 1851 1871 1991 1888 1880 1891 1909 1874 1870 1942 1937 1835 1926 1784 1866 1904 1934 1835 1880 1857 2025 1866 1854 1817 1862 1880 1891 1832 1860 1888 1884 1914 1872 1845 1857 1888 1887 1803 1820 1798 1810 1864 1889 1867 1933 1902 1897 1836 1996 1927 1860 1855 1850 1974 1851 1824 1850 1922 1898 1911 1828 1862 1822 1865 1903 1937 1858 1869 1963 1914 1914 1877 1734 1802 1888 1838 1823 1867 1863 1897 1830 1812 1882 1961 1867 1856 1862 1817 1823 1865 1883 1849 1876 1929 1778 1804 1847 1740 1851 1832 1918 1846 1872 1889 1883 1859 1883 1848 1910 1818 1834 1832 1812 1923 1796 1927 1895 1798 1749 1851 1875 1903 1826 1878 1813 1842 1858 1847 1879 1898 1880 1894 1867 1868 1946 1918 1828 1896 1902 1888 1957 1835 1879 1787 1911 1852 1820 1892 1847 1870 1915 1824 1845 1887 1951 1913 1874 1857 1914 1874 1891 1791 1868 1843 1884 1833 1830 1852 1828 1864 1899 1837 1846 1881 1864 1881 1871 1841 1824 1906 1883 1860 1891 1856 1890 1856 1820 1834 1836 1836 1957 1878 1858 1906 1913 1956 1877 1804 1857 1926 1816 1889 1942 1956 1830 1867 1831 1852 1943 1877 1952 1905 1902 1949 1931 1979 1985 1929 1895 1951 1953 1947 1894 1909 1934 1899 1890 1847 1977 1902 1990 1940 2006 2001 1981 2010 1999 2060 1945 1971 2051 2008 2110 2056 2069 2025 2105 2025 2133 2136 2109 2139 2166 2154 2188 2284 2227 2244 2312 2265 2265 2281 2250 2315 2323 2243 2245 2340 2370 2319 2160 2370 2190 2232 2268 2233 2093 2254 2189 2192 2266 2156 2131 2156 2092 2145 2120 2119 2116 2098 2072 2125 2221 2145 2180 2088 2059 2057 2114 2089 2036 2020 2067 2088 2047 2059 2028 2077 1985 1991 2021 1981 1926 2034 1934 1975 1959 2003 1947 1980 1931 1966 1848 1885 1955 1889 1921 1891 1984 1932 1920 1958 1920 1898 1944 1957 1984 1983 1965 1863 1856 2008 1929 1950 1996 1863 1942 1899 1956 1904 1924 1879 1909 1940 1950 1932 1863 1967 1932 1960 1946 1927 1885 1879 2005 1937 1886 1957 1963 1917 1860 1867 1884 1946 1918 1915 1914 1950 1855 1995 1928 1941 1995 1840 1976 1855 1906 1948 1943 1944 1950 1996 1989 1887 1918 1951 1828 1922 1871 1872 1935 1930 1899 1880 1891 1927 1965 1948 1884 1900 1914 1945 1964 1945 1965 1929 1857 1861 1952 1988 1913 1973 1954 1822 1897 1949 1937 1871 1952 1954 1935 1969 1939 1862 1798 1973 1944 1962 1906 1894 1970 1812 1936 1954 1990 1927 1923 1892 1954 1934 1954 1980 1918 1942 1945 1866 1965 1964 1932 1875 1906 1912 1942 1837 1924 1852 1941 1899 1886 1972 1890 1954 1943 1898 1919 1878 1946 1881 1913 1899 1917 1889 1937 1944 1929 1946 1988 1913 1845 1922 1950 1913 1928 1960 1904 1877 1904 1928 1964 1932 2008 1827 1900 1901 1859 1843 1832 1842 1937 1857 1760 1878 1852 1916 1886 1881 1861 1921 1878 1882 1949 1887 1908 1900 1793 1925 1860 1965 1889 1854 1902 1842 1824 1925 1892 1873 1890 1823 1860 1892 1818 1836 1869 1852 1908 1905 1860 1885 1936 1879 1854 1834 1889 1878 1920 1883 1788 1909 1961 1859 1886 1900 1882 1928 1891 1886 1873 1877 1901 1798 1837 1938 1850 1904 1915 1826 1858 1859 1896 1946 1920 1780 1902 1864 1901 1850 1905 1819 1959 1843 1870 1828 1914 1848 1905 1933 1896 1966 1900 1877 1880 1915 1908 1718 1904 1911 1830 1900 1863 1913 1932 1899 1905 1947 1778 1827 1840 1906 1837 1903 1812 1881 1852 1854 1725 1840 1832 1856 1830 1922 1897 1927 1847 1812 1923 1855 1870 1899 1902 1890 1818 1881 1895 1921 1860 1905 1847 1862 1846 1882 1830 1835 1838 1932 1867 1801 1854 1865 1905 1847 1862 1878 1960 1815 1821 1930 1916 1877 1875 1866 1836 1796 1834 1825 1962 1898 1872 1844 1868 1817 1902 1846 1824 1831 1821 1833 1880 1825 1819 1824 1904 1874 1810 1876 1862 1895 1907 1873 1887 1812 1911 1848 1837 1868 1834 1970 1825 1784 1887 1937 1857 1878 1890 1896 1914 1803 1950 1930 1857 1962 1894 1907 1799 1894 1819 1802 1797 1952 1811 1905 1836 1934 1880 1827 1909 1890 1866 1887 1867 1876 1808 1837 1868 1900 1878 1817 1931 1903 1796 1843 1839 1885 1856 1857 1891 1911 1842 1836 1871 1871 1769 1907 1888 1813 1886 1808 1800 1838 1905 1851 1858 1936 1807 1874 1880 1819 1883 1861 1837 1865 1768 1876 1880 1941 1836 1826 1943 1823 1846 1893 1912 1815 1764 1903 1869 1912 1861 1864 1851 1849 1907 1943 1894 1818 1949 1853 1876 1856 1877 1873 1766 1854 1829 1772 1878 1913 1800 1856 1873 1915 1784 1813 1819 1837 1867 1901 1864 1861 1846 1892 1845 1819 1898 1895 1908 1926 1931 1816 1785 1823 1872 1933 1957 1887 1874 1907 1838 1810 1885 1865 1788 1820 1853 1813 1924 1854 1874 1924 1807 1864 1908 1927 1831 1849 1887 1874 1950 1877 1890 1982 1908 1923 1968 1927 1834 1839 1929 1940 1910 1867 1909 1870 1915 1956 1928 1965 1886 1955 1977 1890 1978 1889 1958 1890 1912 1975</counts>
			</dataPoints>
		</scan>
	</xrdMeasurement>
</xrdMeasurements>
