<?xml version="1.0"?>
<xrdMeasurements xmlns="http://www.xrdml.com/XRDMeasurement/2.3" xmlns:xsi="http://www.w3.org/2001/XMLSchema-instance" xsi:schemaLocation="http://www.xrdml.com/XRDMeasurement/2.3 http://www.xrdml.com/XRDMeasurement/2.3/XRDMeasurement.xsd" status="Completed" recordIdentifier="{706BB0F5-BBAD-4AA9-A3D1-8D5AB2637FB5}">
	<comment>
		<entry/>
	</comment>
	<sample type="To be analyzed">
		<id>GPSS_Li1p2Mn0p5V0p6Cl4_112725_69279e65f4e53d1f7239af1e</id>
		<name></name>
		<preparedBy></preparedBy>
	</sample>
	<xrdMeasurement measurementType="Scan" status="Completed" sampleMode="Reflection">
		<usedWavelength intended="K-Alpha 1">
			<kAlpha1 unit="Angstrom">1.5405980</kAlpha1>
			<kAlpha2 unit="Angstrom">1.5444260</kAlpha2>
			<kBeta unit="Angstrom">1.3922500</kBeta>
			<ratioKAlpha2KAlpha1>0.5000</ratioKAlpha2KAlpha1>
		</usedWavelength>
		<incidentBeamPath>
			<radius unit="mm">145.00</radius>
			<xRayTube id="1010048" name="Empyrean Cu LFF HR (9430 033 7310x)">
				<tension unit="kV">40.0</tension>
				<current unit="mA">15.0</current>
				<anodeMaterial>Cu</anodeMaterial>
				<focus type="Line">
					<length unit="mm">12.0</length>
					<width unit="mm">0.4</width>
					<takeOffAngle unit="deg">6.0</takeOffAngle>
				</focus>
			</xRayTube>
			<sollerSlit id="21010002" name="Soller slits 0.04 rad.">
				<opening unit="rad">0.0400</opening>
			</sollerSlit>
			<mask id="22031000" name="Fixed mask 13 mm">
				<width unit="mm">9.00</width>
			</mask>
			<divergenceSlit id="22120001" name="Divergence slit 1°" xsi:type="fixedDivergenceSlitType">
				<distanceToSample unit="mm">50.00</distanceToSample>
				<height unit="mm">1.52</height>
			</divergenceSlit>
		</incidentBeamPath>
		<sampleMovement xsi:type="spinningSampleMovementType">
			<spinnerRevolutionTime unit="seconds">1.0</spinnerRevolutionTime>
		</sampleMovement>
		<diffractedBeamPath>
			<radius unit="mm">145.00</radius>
			<antiScatterSlit id="22090040" name="AS slit 9 mm (PIXcel)" xsi:type="fixedAntiScatterSlitType">
				<height unit="mm">9.00</height>
			</antiScatterSlit>
			<sollerSlit id="21020003" name="Large Soller slits 0.04 rad.">
				<opening unit="rad">0.0400</opening>
			</sollerSlit>
			<filter id="20030001" name="Large beta-filter Nickel">
				<material>Ni</material>
				<thickness unit="mm">0.020</thickness>
			</filter>
			<detector id="7010019" name="PIXcel1D-Medipix3 detector" xsi:type="rtmsDetectorType">
				<phd unit="keV">
					<lowerLevel>4.02</lowerLevel>
					<upperLevel>11.27</upperLevel>
				</phd>
				<mode>Scanning</mode>
				<activeLength unit="deg">5.542</activeLength>
			</detector>
		</diffractedBeamPath>
		<scan appendNumber="0" mode="Continuous" scanAxis="Gonio" status="Completed">
			<header>
				<startTimeStamp>2025-12-16T12:58:20-08:00</startTimeStamp>
				<endTimeStamp>2025-12-16T13:06:28-08:00</endTimeStamp>
				<author>
					<name>AutomatedUser</name>
				</author>
				<source>
					<applicationSoftware version="1.7b (136)">PANalytical Aeris Instrument Suite</applicationSoftware>
					<instrumentControlSoftware version="3.2.00000000 20240306">AERIS</instrumentControlSoftware>
					<instrumentID>950485</instrumentID>
				</source>
			</header>
			<dataPoints>
				<positions axis="2Theta" unit="deg">
					<startPosition>10.00943322</startPosition>
					<endPosition>99.99442286</endPosition>
				</positions>
				<positions axis="Omega" unit="deg">
					<startPosition>5.00471661</startPosition>
					<endPosition>49.99721143</endPosition>
				</positions>
				<commonCountingTime unit="seconds">12.495</commonCountingTime>
				<counts unit="counts">2747 2902 2752 2902 2886 2852 2766 2775 2848 2774 2866 2802 2779 2807 2957 2826 2840 2768 2854 2796 2752 2860 2828 2740 2904 2779 2830 2843 2733 2821 2810 2743 2885 2837 2877 2797 2812 2871 2821 2857 2775 2787 2795 2788 2891 2901 2830 2776 2873 2761 2836 2815 2839 2893 2775 2850 2817 2901 2891 3008 2892 2847 2857 2926 2825 2926 2869 2854 2866 2837 2779 2818 2881 2803 2851 2899 2739 2928 2897 2903 2899 2860 2954 2926 2959 2898 2866 2868 2703 2862 2912 2818 2837 2942 2753 3002 2883 2874 2894 2887 2908 3004 2876 2903 2887 2928 2935 2902 2831 2886 2925 3011 3054 3050 2909 2969 2907 3011 3000 2970 2931 2961 2980 3034 2983 2962 2989 3020 3041 2938 2963 2971 3046 2953 2840 2871 2975 2965 2932 2915 3011 3065 3012 2981 3001 3024 2978 2876 2983 2923 2964 2918 2937 2986 3100 2904 2911 2907 3021 2969 2947 2944 2923 2898 2907 2852 2872 2905 3010 2861 2929 3007 2921 2963 2916 2894 2897 2925 2888 3003 2952 2986 2935 2968 2951 2959 2854 2976 2981 2951 2975 2947 2872 2846 2784 2949 2921 2925 2990 2844 2894 2922 2861 3009 2977 2894 2979 2903 2917 2810 2890 2870 2780 2879 2929 2853 2818 2822 2820 2821 2907 2873 2839 2765 2916 2869 2893 2838 2851 2848 2904 2811 2972 2814 2884 2910 2768 2760 2799 2763 2725 2772 2836 2757 2700 2815 2828 2812 2693 2749 2749 2655 2772 2724 2755 2712 2780 2689 2732 2751 2839 2760 2743 2839 2814 2690 2740 2706 2731 2631 2764 2733 2714 2725 2668 2717 2657 2608 2752 2680 2675 2603 2743 2678 2722 2725 2707 2698 2776 2636 2636 2674 2714 2639 2696 2660 2710 2762 2614 2698 2769 2790 2582 2727 2602 2722 2745 2680 2746 2773 2714 2717 2703 2759 2744 2708 2644 2720 2774 2632 2743 2674 2773 2740 2595 2673 2652 2741 2735 2638 2689 2695 2696 2810 2753 2725 2745 2697 2676 2712 2705 2738 2824 2710 2745 2653 2740 2655 2630 2798 2737 2685 2770 2785 2817 2743 2696 2831 2734 2764 2698 2843 2817 2772 2834 2714 2796 2848 2740 2792 2819 2757 2809 2864 2842 2760 2805 2870 2807 2836 2821 2860 2903 2910 2800 2853 2864 2843 2886 2919 2922 2913 2924 2904 2888 2861 2880 2874 2963 2993 2951 2932 3073 2937 2966 3062 2999 2989 3024 3160 3145 3206 3113 3165 3113 3175 3109 3238 3186 3271 3176 3215 3296 3242 3258 3253 3379 3267 3319 3299 3315 3329 3474 3299 3402 3452 3402 3369 3414 3463 3408 3426 3339 3506 3480 3447 3415 3548 3492 3486 3591 3497 3482 3518 3438 3557 3541 3648 3487 3669 3555 3615 3778 3641 3698 3787 3584 3729 3758 3654 3631 3726 3635 3573 3662 3720 3564 3657 3619 3643 3455 3532 3520 3553 3513 3516 3463 3498 3447 3582 3435 3412 3475 3337 3550 3374 3465 3478 3469 3448 3459 3435 3310 3477 3416 3370 3354 3295 3255 3192 3117 3366 3287 3076 3308 3147 3212 3208 3300 3150 3152 3130 3220 3143 3078 3068 3202 3047 2988 3103 2942 3037 3011 3007 2979 3051 3026 2927 2961 2908 2985 2896 2952 2863 2878 2789 2948 2903 2881 2781 2811 2835 2787 2744 2877 2795 2870 2830 2706 2732 2795 2803 2726 2844 2726 2773 2763 2814 2795 2822 2814 2877 2771 2778 2783 2737 2786 2787 2689 2702 2790 2738 2737 2788 2770 2697 2736 2759 2787 2670 2852 2803 2721 2826 2764 2649 2592 2680 2640 2693 2701 2640 2781 2639 2720 2601 2660 2650 2606 2720 2676 2501 2647 2718 2612 2683 2628 2630 2613 2668 2708 2654 2592 2596 2580 2653 2618 2660 2612 2588 2680 2552 2646 2585 2558 2517 2499 2634 2693 2625 2631 2594 2513 2629 2542 2534 2618 2659 2563 2512 2604 2577 2462 2542 2575 2537 2555 2517 2439 2630 2658 2526 2674 2549 2604 2559 2547 2522 2491 2574 2545 2572 2534 2519 2582 2535 2577 2530 2513 2562 2527 2524 2493 2620 2488 2495 2509 2611 2655 2549 2549 2540 2522 2444 2630 2496 2471 2560 2499 2501 2475 2541 2504 2566 2570 2558 2456 2477 2470 2495 2470 2452 2481 2474 2504 2450 2488 2474 2457 2531 2506 2475 2537 2463 2491 2392 2453 2436 2415 2515 2449 2523 2386 2525 2453 2493 2479 2449 2460 2571 2489 2517 2550 2449 2472 2483 2364 2446 2478 2468 2413 2465 2480 2388 2478 2577 2411 2387 2450 2437 2543 2463 2460 2417 2360 2450 2458 2397 2414 2415 2401 2472 2401 2474 2445 2393 2405 2474 2549 2446 2320 2417 2411 2419 2414 2396 2388 2453 2405 2332 2450 2366 2450 2379 2328 2420 2437 2363 2494 2402 2382 2310 2408 2430 2397 2261 2306 2337 2369 2405 2332 2401 2442 2409 2385 2459 2341 2359 2330 2270 2413 2259 2387 2392 2357 2419 2403 2372 2415 2324 2360 2331 2319 2333 2340 2338 2264 2364 2421 2391 2314 2330 2260 2269 2287 2292 2305 2286 2314 2333 2351 2377 2284 2310 2334 2325 2322 2288 2261 2334 2376 2352 2357 2310 2290 2280 2223 2355 2287 2313 2260 2247 2181 2204 2318 2304 2290 2287 2301 2280 2311 2287 2346 2242 2203 2249 2295 2241 2258 2259 2295 2312 2292 2188 2218 2252 2253 2230 2175 2260 2215 2265 2144 2236 2168 2214 2262 2265 2251 2340 2187 2304 2218 2171 2252 2251 2189 2195 2250 2241 2271 2281 2226 2210 2163 2260 2236 2056 2109 2235 2220 2099 2265 2243 2184 2242 2207 2163 2142 2202 2181 2202 2242 2148 2185 2280 2125 2153 2150 2236 2156 2158 2151 2093 2097 2169 2107 2091 2203 2162 2199 2178 2199 2164 2116 2064 2134 2126 2194 2128 2183 2132 2175 2094 2054 2102 2146 2170 2103 2083 2138 2180 2235 2153 2088 2143 2159 2099 2057 2125 2239 2116 2177 2089 2056 2137 2083 2096 2125 2076 2099 2121 2164 2166 2099 2103 2110 2114 2131 2126 2059 2043 2114 2064 2086 2167 2020 2117 2097 2203 2058 2133 2121 2124 2080 2102 2048 2168 2089 2102 2099 2035 2128 2142 2067 2175 2108 2094 2095 2154 2151 2115 2072 2152 2173 2083 2048 2068 2077 2198 2092 2160 2161 2103 2123 2097 1984 2108 2080 2093 2143 2216 2089 2051 2145 2039 2172 2049 2148 2122 2130 2109 2163 2092 2059 2067 2101 2076 2204 2081 2126 2204 2096 2081 2126 2120 2148 2112 2110 2214 2084 2081 2103 2146 2111 2038 2132 2183 2076 2124 2105 2125 2127 2077 2047 2106 2120 2067 2096 2106 2096 2052 2149 2159 2086 2202 2102 2091 2075 2165 2164 2118 2114 2103 2137 2148 2138 2139 2157 2070 2115 2085 2060 2202 2128 2118 2092 2087 2090 2091 2016 2006 2068 2009 2097 2096 2089 2161 2019 1973 2095 2078 2101 2114 2076 2080 2174 1980 1996 2025 2115 2044 1992 2027 2011 1996 1975 2142 2051 2096 2053 1951 1991 2012 2007 2056 2034 2023 2027 2076 1995 2029 1945 2078 1982 2005 2018 2114 1905 2000 1996 1936 2011 1973 2075 1982 1943 1870 1885 1928 1918 1989 1979 1981 1948 1946 1920 1969 1927 1903 1948 1981 1937 1934 1855 1892 1895 1932 1843 1915 1884 1837 1889 1853 1905 1780 1956 1840 1828 1877 1785 1898 1899 1848 1832 1832 1844 1822 1774 1812 1857 1867 1835 1854 1827 1738 1800 1831 1804 1776 1865 1762 1729 1751 1777 1763 1719 1688 1732 1742 1721 1702 1843 1730 1724 1732 1660 1799 1704 1775 1747 1778 1790 1798 1682 1752 1686 1686 1675 1787 1800 1714 1735 1702 1695 1736 1703 1734 1671 1690 1675 1712 1645 1723 1605 1721 1673 1645 1658 1593 1636 1687 1685 1679 1620 1618 1625 1657 1665 1577 1619 1607 1575 1620 1571 1649 1659 1635 1627 1581 1614 1580 1655 1598 1535 1590 1518 1576 1611 1580 1586 1549 1525 1567 1597 1607 1508 1580 1527 1522 1570 1562 1550 1577 1564 1648 1651 1568 1570 1454 1578 1510 1633 1488 1555 1448 1560 1438 1511 1594 1581 1647 1582 1555 1608 1596 1496 1504 1558 1491 1577 1456 1536 1501 1591 1503 1550 1615 1464 1598 1521 1494 1495 1606 1550 1542 1606 1533 1554 1627 1497 1560 1569 1519 1579 1431 1491 1485 1562 1524 1556 1465 1495 1516 1577 1560 1432 1516 1500 1550 1420 1468 1547 1530 1517 1508 1481 1530 1500 1461 1469 1497 1558 1507 1460 1495 1568 1573 1552 1457 1477 1549 1481 1497 1526 1455 1534 1464 1506 1517 1571 1503 1467 1480 1548 1550 1528 1534 1533 1502 1582 1526 1557 1500 1501 1501 1568 1480 1521 1546 1490 1424 1519 1598 1490 1535 1518 1558 1485 1461 1527 1547 1463 1536 1582 1531 1634 1559 1464 1541 1499 1460 1568 1559 1514 1543 1452 1486 1551 1548 1522 1528 1553 1542 1593 1536 1529 1532 1510 1572 1526 1533 1511 1583 1565 1528 1601 1491 1503 1507 1531 1485 1447 1496 1541 1465 1503 1452 1618 1510 1485 1541 1603 1473 1534 1561 1490 1531 1529 1464 1510 1536 1533 1520 1542 1478 1597 1552 1434 1443 1518 1480 1459 1507 1502 1553 1461 1508 1507 1504 1456 1482 1489 1470 1491 1496 1509 1561 1490 1479 1514 1441 1399 1456 1469 1514 1530 1519 1509 1481 1498 1472 1461 1429 1443 1440 1531 1486 1410 1392 1421 1459 1497 1465 1474 1429 1538 1456 1420 1411 1421 1461 1494 1394 1406 1453 1403 1466 1389 1348 1349 1474 1488 1424 1429 1400 1339 1421 1441 1410 1416 1435 1397 1378 1332 1330 1370 1417 1368 1375 1340 1372 1358 1375 1451 1365 1413 1366 1308 1385 1413 1357 1390 1335 1286 1364 1347 1389 1349 1334 1339 1369 1369 1317 1336 1358 1370 1311 1281 1405 1287 1372 1329 1349 1290 1375 1376 1389 1405 1325 1399 1333 1407 1404 1367 1363 1410 1452 1434 1489 1378 1432 1467 1510 1544 1502 1526 1518 1458 1616 1533 1599 1653 1569 1581 1581 1567 1612 1533 1558 1532 1493 1544 1528 1610 1576 1531 1606 1514 1558 1490 1523 1577 1497 1512 1497 1519 1521 1516 1360 1486 1374 1449 1524 1457 1350 1512 1490 1413 1483 1463 1410 1345 1419 1419 1454 1381 1333 1398 1335 1400 1376 1398 1452 1298 1444 1336 1377 1354 1382 1354 1292 1315 1337 1289 1295 1278 1231 1335 1278 1259 1274 1261 1268 1242 1272 1302 1206 1212 1320 1189 1272 1218 1198 1161 1209 1256 1205 1216 1211 1244 1182 1203 1202 1239 1230 1251 1268 1266 1281 1332 1360 1342 1315 1469 1284 1399 1398 1488 1405 1393 1456 1502 1575 1532 1559 1505 1644 1650 1634 1635 1685 1679 1674 1637 1680 1705 1677 1701 1666 1652 1607 1701 1705 1625 1693 1702 1664 1618 1635 1627 1700 1724 1677 1660 1655 1708 1620 1700 1622 1748 1707 1744 1712 1717 1659 1671 1618 1646 1636 1679 1667 1618 1621 1622 1668 1664 1620 1669 1632 1570 1635 1581 1563 1537 1483 1490 1462 1453 1498 1460 1421 1390 1424 1368 1362 1397 1362 1375 1342 1381 1391 1274 1310 1329 1322 1319 1358 1266 1277 1297 1238 1245 1170 1222 1157 1177 1204 1219 1153 1106 1147 1122 1070 1134 1108 1130 1010 1126 1119 1042 1100 1097 1105 1129 1105 1071 1117 1081 1108 1120 1047 1039 1045 1022 1037 1041 1081 1016 1109 1065 1022 1064 989 1101 1006 988 1097 1034 1080 1089 1080 995 1064 971 1023 1061 1019 1008 975 1070 1008 1005 1002 968 1023 1015 981 1005 993 1039 1022 1013 991 983 973 971 986 996 998 983 989 975 966 989 922 1004 988 909 995 999 926 927 938 966 962 979 950 968 1002 976 935 855 967 905 967 994 922 926 902 974 937 888 954 954 969 949 1006 919 920 923 979 994 935 915 912 934 912 1001 986 924 973 929 920 919 1010 989 981 951 981 949 938 952 948 970 950 927 909 933 966 986 958 952 960 964 963 925 1000 918 916 906 954 971 985 943 960 989 931 1017 946 1006 933 959 964 989 949 975 948 944 946 1012 943 959 978 1020 953 976 969 984 915 978 1004 985 962 998 970 979 938 962 984 930 995 971 993 971 996 995 930 1010 993 992 977 1016 979 917 989 1057 961 995 981 933 947 997 990 969 1009 1016 985 1045 1004 1022 1005 1034 1004 1052 1024 1025 1034 1038 1012 1037 1083 989 1082 1065 1098 1034 1083 1073 1081 1096 1125 1166 1068 1120 1149 1070 1086 1097 1121 1187 1160 1088 1178 1161 1197 1134 1154 1207 1205 1102 1140 1215 1211 1173 1165 1238 1203 1116 1221 1188 1119 1232 1195 1125 1169 1242 1127 1173 1160 1161 1094 1090 1226 1159 1155 1182 1162 1132 1137 1169 1164 1141 1137 1075 1162 1187 1185 1180 1148 1126 1166 1161 1241 1214 1108 1212 1112 1145 1175 1200 1166 1273 1315 1358 1318 1453 1390 1515 1518 1638 1622 1640 1679 1722 1686 1875 1786 1891 1921 2010 2083 2089 2212 2271 2187 2351 2425 2448 2511 2531 2607 2675 2771 2732 2815 2899 2737 2859 2789 2882 2913 2737 2885 2857 2870 2897 2885 2879 2887 2929 2887 2922 2813 2914 2962 2851 2838 2986 2895 2849 2842 2762 2869 2751 2849 2758 2826 2759 2807 2708 2793 2765 2838 2803 2852 2906 2814 2864 2728 2889 2896 2751 2824 2785 2558 2631 2598 2491 2329 2379 2254 2203 2177 2124 2043 1977 1980 2076 1897 1872 1860 1789 1718 1739 1760 1731 1708 1593 1633 1692 1729 1612 1639 1598 1525 1527 1498 1469 1413 1399 1435 1420 1426 1367 1382 1392 1295 1218 1251 1223 1218 1245 1206 1222 1138 1195 1167 1101 1139 1143 1120 1077 1025 1062 1046 1084 1069 1066 1071 964 944 975 898 1039 965 965 1000 959 933 946 954 941 948 956 946 948 916 991 943 889 900 927 877 911 919 908 872 870 848 883 896 843 891 906 880 908 905 829 862 896 856 862 939 845 912 835 804 842 892 922 881 852 827 855 869 830 814 896 824 832 832 803 813 824 831 828 815 844 775 870 857 814 819 915 877 836 840 816 834 797 793 822 818 852 873 787 799 840 854 873 832 844 806 800 857 865 826 827 779 795 780 830 763 845 832 793 781 788 846 798 816 866 850 832 872 868 820 827 790 772 875 819 810 815 817 772 808 764 785 830 809 797 800 771 839 810 819 833 775 768 820 847 786 775 814 783 811 802 778 812 800 831 810 795 776 758 781 791 782 804 803 815 807 810 817 789 831 790 779 787 766 796 822 795 795 758 761 747 785 807 819 867 830 815 835 796 830 874 781 799 840 796 877 864 845 833 837 809 823 821 810 796 825 846 812 793 788 798 795 797 823 812 829 803 768 794 833 826 818 751 776 824 819 829 778 773 802 734 776 777 753 782 769 727 778 806 774 796 803 812 767 789 773 773 784 779 784 727 760 783 820 815 725 771 807 772 775 789 746 736 766 750 776 726 743 747 745 770 752 786 761 740 759 789 779 772 809 743 737 731 758 748 778 743 727 775 745 770 761 742 722 768 747 735 725 721 735 761 702 718 771 761 708 738 722 745 731 701 730 791 698 780 773 720 736 723 703 731 714 729 761 736 716 741 682 713 761 744 701 743 709 736 760 736 734 686 732 719 619 750 710 730 728 687 732 770 749 739 738 649 755 712 701 696 712 745 700 736 722 693 706 708 737 748 752 701 766 690 766 716 710 702 698 689 705 731 724 719 688 696 717 702 774 717 717 721 704 698 705 707 695 711 721 681 689 734 709 720 694 762 749 701 761 682 713 723 726 716 684 697 702 703 687 678 730 777 713 736 681 713 743 758 691 710 637 700 720 707 699 704 756 671 733 632 719 692 684 719 715 693 707 680 675 709 711 715 691 684 684 704 675 704 701 696 696 694 674 669 719 698 724 698 738 697 735 670 722 694 733 705 679 697 700 690 660 704 688 685 698 722 739 701 724 680 729 669 690 696 664 712 729 695 694 704 686 696 694 704 677 745 727 721 708 668 681 693 758 697 669 730 655 709 690 696 694 667 724 692 700 708 654 663 727 727 684 690 698 718 681 787 723 770 654 699 715 744 733 669 717 675 714 670 689 732 741 690 695 702 711 653 665 700 719 679 705 679 682 708 720 741 665 703 707 686 657 747 706 689 683 666 751 667 758 698 746 737 700 747 691 708 691 740 724 714 664 673 695 690 759 655 708 724 698 659 716 713 733 724 722 752 717 685 675 683 639 714 671 704 683 817 719 702 703 712 751 685 743 720 710 691 654 746 652 704 748 743 712 703 679 721 687 723 686 735 728 703 706 716 744 718 693 704 731 749 698 703 698 746 689 698 716 751 677 722 724 711 716 701 754 739 747 740 734 704 731 729 717 793 695 735 760 727 750 735 790 779 775 810 752 717 740 727 795 738 796 736 718 763 708 747 759 737 776 709 732 725 728 720 792 773 802 713 741 767 751 713 758 758 738 755 776 796 756 779 741 788 722 795 739 732 758 739 797 789 743 742 721 707 754 748 688 749 714 687 706 733 731 741 711 758 743 735 740 746 711 715 725 755 670 738 688 711 705 708 752 692 744 706 748 716 731 704 651 722 717 691 701 744 719 707 735 767 688 738 697 729 681 696 703 738 674 714 660 712 678 697 676 659 687 729 688 760 689 688 671 693 732 704 672 675 678 714 695 693 727 707 713 679 674 695 715 694 679 756 683 718 662 751 659 684 702 676 699 665 677 676 680 681 698 640 624 638 682 697 685 690 727 736 732 707 680 670 719 712 660 710 740 723 705 711 732 727 719 741 727 771 722 764 749 749 788 756 756 798 788 753 797 792 823 765 781 783 816 846 810 862 872 875 878 862 808 821 845 912 861 904 886 914 922 910 927 885 926 901 907 879 875 849 878 803 905 812 861 851 861 851 806 814 830 827 840 776 824 795 824 853 818 804 865 787 842 800 815 780 799 849 787 777 769 816 781 735 777 760 801 719 735 750 761 754 742 716 722 746 737 740 719 754 750 724 715 704 712 770 740 745 733 736 732 713 682 730 747 748 695 677 712 707 730 676 670 664 674 710 734 741 711 691 692 714 674 711 714 701 726 719 663 631 690 688 734 686 708 719 742 702 696 693 748 720 701 685 722 732 729 646 630 718 700 699 667 677 753 665 653 713 684 716 680 654 675 636 697 675 697 608 655 633 669 659 622 640 672 622 676 680 663 709 704 676 660 626 650 631 694 670 662 696 666 637 674 653 657 700 700 701 693 636 645 684 643 621 630 663 668 596 636 661 630 686 632 669 631 620 616 636 629 622 649 653 635 655 626 645 677 622 649 672 638 682 630 675 635 622 672 635 661 666 669 654 599 653 672 624 643 599 623 658 641 668 694 615 624 634 652 623 618 643 670 639 690 729 658 647 631 637 622 676 645 661 677 685 596 708 646 618 648 620 620 591 649 634 662 621 672 623 638 685 643 619 671 633 668 668 713 647 628 687 656 610 621 604 649 696 687 654 706 623 628 626 663 667 688 684 678 668 656 625 655 586 669 611 709 666 645 747 662 614 648 648 638 721 694 695 684 645 735 655 651 690 690 606 689 629 683 654 640 727 703 664 690 687 678 746 715 671 677 707 744 693 716 669 678 717 740 773 746 766 739 786 841 804 829 832 851 877 883 908 895 968 919 914 976 1007 993 975 1048 1053 1093 1117 1108 1121 1109 1119 1214 1203 1273 1339 1313 1377 1390 1502 1543 1562 1541 1600 1628 1657 1685 1789 1709 1837 1861 1850 1863 1869 1862 1882 1847 1925 1933 1903 1986 1883 1880 1859 1933 1849 1829 1854 1800 1836 1749 1655 1728 1733 1734 1632 1658 1554 1535 1529 1532 1456 1507 1482 1415 1493 1494 1481 1511 1463 1506 1444 1450 1461 1440 1427 1355 1357 1351 1304 1316 1340 1307 1294 1218 1148 1274 1192 1131 1231 1164 1163 1156 1168 1152 1096 1079 1110 1114 1125 1012 1032 1044 1048 1013 998 972 1014 1043 980 1011 982 949 946 984 930 931 955 903 930 829 882 890 855 865 879 868 894 849 858 818 818 831 828 870 848 807 825 865 873 805 811 767 801 787 774 756 802 771 807 751 760 740 770 777 726 797 750 737 717 747 647 751 715 774 737 698 713 689 663 724 691 730 705 669 713 680 735 685 676 702 719 671 706 629 727 667 685 631 670 652 682 686 696 667 660 644 628 649 637 668 698 653 662 657 668 669 597 658 654 741 635 616 688 708 639 677 646 647 682 657 654 719 705 653 635 696 675 695 754 691 643 685 688 685 741 719 685 661 712 758 647 733 714 731 743 763 781 763 811 749 747 797 823 739 804 821 787 870 802 779 864 822 816 787 806 834 764 843 820 838 813 859 871 894 856 924 899 862 908 924 989 933 914 939 899 955 969 874 939 970 961 908 992 967 941 965 952 901 892 865 900 904 839 898 856 878 842 870 777 847 786 815 778 822 783 792 790 767 783 755 806 795 759 759 743 761 727 770 699 714 714 690 715 688 704 660 674 702 682 701 645 659 687 656 655 668 603 620 629 638 638 688 633 642 702 646 659 634 603 617 598 621 626 553 644 621 645 637 640 620 639 643 582 621 615 584 624 653 632 609 595 611 569 612 596 558 623 622 592 579 635 604 627 616 609 597 581 566 597 598 590 619 605 587 617 595 545 554 593 589 587 608 605 619 582 618 596 592 611 588 591 620 613 575 601 593 623 622 577 611 585 615 579 584 584 611 568 650 590 580 623 573 566 572 612 593 587 574 581 626 598 586 624 616 646 552 622 581 618 547 585 608 635 626 605 630 593 587 593 566 595 598 651 545 588 564 589 617 607 587 597 572 581 599 549 534 626 617 572 619 648 618 563 571 622 536 578 619 615 649 591 579 581 571 601 598 639 637 617 642 653 641 683 605 626 668 643 611 631 602 660 668 670 643 657 659 639 630 634 688 633 605 654 621 614 620 670 581 632 648 613 674 645 567 614 631 629 622 592 568 629 633 581 569 643 604 633 585 582 578 646 617 567 574 591 578 568 625 633 539 639 575 562 593 598 590 601 566 572 580 603 629 571 598 626 588 612 580 616 593 639 617 582 591 575 562 582 595 601 536 616 579 672 577 596 567 607 581 572 582 574 604 577 612 582 557 565 556 570 552 606 604 533 592 571 609 612 586 579 576 602 616 549 592 599 568 597 585 619 562 649 586 675 560 589 592 608 576 606 571 638 637 563 610 638 604 624 592 602 592 576 629 581 566 582 572 613 590 586 611 567 635 575 594 567 600 582 583 595 627 564 584 584 548 572 586 587 587 551 639 559 574 603 581 626 555 548 567 587 575 574 546 541 545 537 576 526 577 568 540 555 548 584 575 555 567 573 573 582 574 530 558 602 588 596 567 526 592 522 557 595 549 560 544 519 606 573 570 542 539 562 538 526 577 604 569 574 576 554 573 568 536 560 588 622 568 546 526 558 555 532 522 514 581 550 542 528 572 562 563 591 554 574 597 587 561 564 602 592 536 563 558 552 540 557 557 597 582 617 618 565 582 573 582 581 596 556 553 525 520 569 548 581 588 585 601 601 566 565 583 573 588 589 615 553 584 620 605 581 582 618 588 610 557 643 570 639 570 579 546 591 612 585 581 610 539 609 612 584 561 543 574 612 533 648 593 579 606 590 645 614 605 617 635 643 614 658 625 599 614 604 623 602 622 627 600 613 643 586 677 634 603 588 606 682 654 628 627 673 631 685 725 689 716 648 702 679 692 641 677 669 670 628 684 675 698 756 698 717 669 623 662 674 655 698 673 663 706 703 628 639 602 643 684 584 648 673 623 658 639 625 631 618 630 607 640 630 613 592 644 626 599 603 579 592 596 585 614 567 570 613 625 587 605 610 620 614 613 659 620 619 619 608 633 594 644 621 610 661 626 613 635 627 652 617 594 641 590 655 600 654 621 609 682 611 645 653 596 613 597 628 643 579 640 562 628 596 601 633 614 588 628 587 597 583 604 584 583 607 550 542 641 603 569 636 578 628 577 553 582 600 551 517 569 593 547 552 523 556 547 546 534 538 560 526 556 579 548 520 511 564 546 550 567 556 579 529 537 541 568 528 567 545 549 567 559 591 551 560 501 527 534 563 498 491 527 552 521 537 594 503 550 523 548 527 485 503 521 547 498 552 507 576 570 548 499 552 530 517 523 535 594 556 535 543 534 559 596 566 537 546 530 567 558 558 540 556 528 586 555 591 611 606 610 573 573 597 530 604 605 640 587 605 587 560 605 611 573 594 626 598 609 632 653 666 652 614 686 617 636 638 605 636 636 612 684 689 689 692 687 744 723 755 768 762 750 764 778 792 848 833 817 811 776 803 835 854 828 834 872 862 852 880 880 841 813 829 884 902 849 823 842 832 823 789 814 814 785 805 778 828 754 813 826 764 789 777 748 774 707 793 713 721 751 744 722 695 702 771 746 724 701 694 720 683 650 723 649 665 697 632 676 685 656 666 654 662 676 641 649 613 694 628 643 619 608 642 623 573 645 585 682 603 616 618 697 604 614 693 563 658 598 615 564 612 627 617 589 641 554 624 577 639 580 612 613 555 612 601 554 574 546 599 540 598 593 552 521 576 534 575 541 567 542 568 544 608 523 578 549 549 541 605 567 519 615 587 593 559 574 569 609 535 564 590 582 571 558 566 586 592 578 613 597 598 605 528 612 581 513 585 588 654 637 656 628 630 581 580 602 598 637 594 579 617 606 639 576 595 631 631 683 593 650 670 647 625 640 697 620 598 693 668 732 648 695 640 706 676 655 694 661 683 668 652 702 662 656 622 721 641 672 660 613 679 663 637 673 695 619 637 677 619 614 646 626 635 664 627 657 571 583 643 630 586 627 589 603 615 600 579 592 616 543 633 631 570 586 601 565 599 595 577 626 614 572 616 566 569 549 583 569 591 576 516 553 524 597 536 552 583 537 505 565 581 564 553 586 551 519 521 556 548 518 520 534 576 540 532 528 544 519 545 562 543 568 513 525 594 567 568 513 571 569 496 527 534 535 518 498 525 551 563 505 517 534 530 588 509 570 530 474 540 502 549 530 524 532 532 539 547 560 500 519 526 508 521 502 515 529 544 539 536 511 574 522 511 544 508 464 542 524 547 552 486 513 518 524 518 550 486 535 547 560 504 536 538 513 486 514 495 524 493 524 517 548 529 499 538 480 540 515 513 548 530 507 560 477 524 549 541 479 508 501 520 509 507 522 513 450 567 510 494 517 550 505 543 473 534 504 521 521 510 536 497 516 527 497 526 520 513 515 497 490 530 485 520 534 472 523 519 489 490 512 512 503 497 465 528 517 498 472 522 535 557 487 523 469 519 464 506 479 523 499 491 476 501 489 536 519 506 545 487 522 511 522 547 532 468 489 523 549 511 505 521 497 497 537 508 527 532 473 551 499 508 512 488 491 517 503 503 493 511 467 523 506 512 511 487 496 530 503 488 457 460 519 501 578 494 500 519 485 497 504 511 476 494 520 514 430 542 505 525 459 486 488 483 462 533 485 472 529 505 494 538 493 495 482 491 481 533 486 502 478 464 497 508 471 538 497 503 479 530 488 531 490 521 529 499 500 547 507 502 477 519 471 505 520 502 507 483 476 515 530 522 503 524 458 490 500 455 529 527 521 510 506 490 452 471 499 496 491 517 453 493 486 538 512 476 521 548 496 569 480 527 495 523 499 507 500 508 481 527 499 505 472 512 482 476 479 484 468 496 489 478 508 498 470 427 469 461 484 496 492 531 491 463 475 511 507 543 502 508 500 487 482 501 501 544 535 503 516 477 477 483 473 498 516 502 527 494 516 527 461 512 541 521 484 542 506 527 510 508 540 489 508 509 502 534 475 469 541 503 511 516 505 545 500 500 518 494 478 527 545 520 545 503 536 572 543 528 511 552 531 511 546 561 540 580 545 524 581 557 581 550 579 511 554 533 544 535 500 574 476 533 526 546 510 519 495 547 539 542 504 516 496 521 565 515 519 543 477 548 542 527 520 476 504 496 478 543 530 536 517 509 484 481 515 522 549 575 539 512 504 524 509 504 506 541 507 523 494 519 499 548 554 531 536 504 517 518 527 491 543 527 498 514 535 531 530 538 491 482 511 525 501 514 509 513 519 525 501 475 519 582 520 492 489 475 542 487 500 521 503 540 494 479 523 512 493 454 497 495 500 472 544 523 498 476 476 526 474 514 505 496 506 453 525 496 482 459 497 506 469 546 512 510 484 471 490 521 513 505 502 442 492 469 491 514 488 521 503 479 503 532 464 488 556 500 474 496 480 510 542 476 510 500 471 507 473 510 441 486 497 558 483 493 526 485 469 483 483 486 526 487 509 522 471 523 524 511 492 497 524 480 498 494 491 457 484 497 467 502 496 466 515 496 471 499 503 472 487 484 465 476 506 470 485 474 497 506 469 523 505 546 535 498 494 526 475 509 537 489 480 497 529 560 487 519 474 487 491 481 538 513 470 548 526 532 547 558 523 573 554 526 509 522 584 527 572 506 538 519 497 541 572 551 565 507 553 549 544 550 554 560 560 587 568 527 569 523 589 527 569 606 532 573 560 566 580 533 597 585 586 627 614 605 654 643 617 618 624 580 575 561 564 581 649 602 603 618 550 606 597 604 610 623 609 540 611 560 572 601 595 600 611 571 579 563 573 596 576 592 561 570 577 585 573 509 585 563 514 584 509 536 566 489 583 566 521 571 552 503 540 577 519 565 543 558 507 535 543 556 556 507 511 495 477 531 509 508 534 493 522 480 536 540 526 501 535 515 526 528 513 506 527 533 525 505 556 510 543 512 529 552 499 520 508 554 492 548 529 507 548 507 503 453 519 543 521 484 515 492 535 485 496 523 522 510 543 503 514 507 472 490 567 533 521 499 478 504 520 476 519 516 481 509 493 495 526 456 505 525 474 473 521 509 506 505 455 528 477 492 506 502 525 484 478 496 501 539 527 443 520 478 509 521 453 467 477 505 497 466 516 461 499 501 499 491 513 521 484 463 491 485 508 459 477 487 446 498 501 513 489 495 517 437 479 464 478 524 453 485 513 462 510 465 466 516 511 534 434 494 454 499 489 492 488 453 464 470 461 479 485 463 505 515 484 452 475 501 493 481 455 510 503 457 444 460 469 473 435 462 494 486 509 536 491 487 490 483 477 460 479 459 505 506 483 473 520 490 493 500 467 455 465 461 464 512 481 452 454 453 500 457 470 486 510 492 493 492 527 502 495 481 458 451 482 460 499 473 439 468 503 490 470 445 513 456 491 467 527 445 472 460 511 489 470 476 498 450 458 430 479 508 479 450 482 509 494 490 476 491 459 491 478 493 493 494 525 439 499 475 443 462 515 463 514 464 445 494 481 485 462 469 538 474 499 513 463 506 502 477 483 504 494 487 526 489 506 471 527 473 475 428 481 458 499 510 530 464 465 466 489 465 500 464 524 464 478 452 465 486 474 503 509 471 498 471 478 451 472 481 486 437 447 476 502 484 465 466 463 519 481 536 472 513 456 504 455 488 519 518 498 466 468 470 476 477 480 454 460 481 471 469 472 469 523 470 508 493 499 439 458 484 470 456 480 440 449 527 481 466 519 492 446 532 437 482 477 472 511 493 521 460 504 484 482 481 477 509 547 465 504 481 469 461 488 504 443 475 474 456 451 481 430 468 468 523 464 483 469 472 463 460 526 472 481 460 466 495 457 529 503 502 491 494 477 493 489 506 499 477 458 468 499 502 475 495 485 492 448 506 521 485 470 505 511 503 517 508 467 497 460 465 483 480 475 459 473 468 483 517 456 478 496 469 486 536 488 509 488 494 501 489 497 525 477 505 489 473 457 499 494 492 527 449 503 521 514 479 494 484 488 453 474 521 533 499 503 509 473 498 487 477 486 496 515 486 504 473 494 503 468 527 503 489 487 441 424 498 482 520 476 501 503 491 486 501 478 503 521 515 483 539 506 507 514 499 530 457 511 496 498 510 481 511 503 519 495 481 475 490 544 488 486 454 545 465 508 469 514 538 531 571 519 527 498 532 492 564 499 501 496 519 475 466 551 516 561 496 524 538 538 512 529 529 522 524 545 553 517 525 574 553 602 515 541 517 562 559 515 548 531 525 539 528 544 531 562 537 570 523 538 529 497 502 514 524 569 539 517 527 533 564 543 550 456 517 564 559 567 521 558 540 521 538 530 526 536 568 509 512 540 507 558 549 525 530 561 546 507 528 493 527 530 514 508 575 553 568 548 531 575 504 582 529 510 523 539 519 527 583 552 553 490 506 484 538 479 538 521 526 507 486 494 497 504 525 522 537 510 513 523 553 487 517 531 472 495 456 489 526 497 514 485 498 513 520 512 521 504 507 507 491 537 481 539 532 504 554 475 532 508 500 496 467 546 504 554 491 511 505 485 530 495 527 487 468 549 545 553 535 516 535 505 518 507 506 546 540 553 510 546 516 575 509 527 488 533 470 532 524 539 533 538 551 558 474 484 530 518 517 544 530 552 506 481 491 541 529 498 497 518 515 532 507 497 513 541 539 491 517 522 546 538 513 510 503 513 534 515 541 509 531 521 549 538 536 555 494 545 549 555 553 549 569 550 513 577 500 550 567 519 531 585 573 580 544 533 555 541 538 609 567 562 640 563 582 532 558 571 558 631 561 610 610 633 654 598 617 603 602 651 646 627 632 633 616 633 673 614 686 655 670 730 668 722 684 721 714 781 723 736 743 702 730 733 759 722 740 743 748 753 728 764 799 736 759 733 752 700 770 694 699 743 731 770 744 723 722 740 695 699 720 740 712 716 651 676 676 687 705 620 619 614 658 661 645 671 631 629 579 588 581 649 576 601 564 569 556 571 570 576 562 613 547 576 558 569 534 552 529 542 551 625 508 510 504 536 509 526 540 540 522 555 559 546 562 554 492 511 574 552 605 555 550 557 551 523 574 510 500 534 545 555 559 587 557 505 548 551 543 542 557 544 526 575 573 578 625 602 587 544 582 554 582 551 538 548 597 522 608 544 591 555 583 541 546 564 596 593 528 576 568 576 535 537 514 572 512 574 569 543 577 544 500 519 560 514 566 553 525 558 575 543 551 552 525 563 548 542 544 552 537 539 535 572 532 545 547 533 566 511 557 567 560 521 547 559 534 546 513 588 541 567 520 548 575 550 567 500 563 527 530 533 545 521 571 561 545 557 529 509 469 521 535 510 545 561 502 533 476 483 517 495 527 522 530 546 513 513 525 498 535 523 514 516 511 510 474 549 491 472 510 498 501 531 489 531 529 510 485 461 536 542 517 524 528 480 476 507 508 506 485 528 548 480 500 477 537 508 491 526 510 505 504 490 475 514 496 487 513 472 516 505 503 499 551 495 512 462 492 507 507 516 499 495 499 544 543 506 529 515 497 511 491 491 509 485 520 491 512 485 531 522 533 491 530 475 524 511 519 528 513 474 490 450 504 509 508 495 509 490 518 498 500 475 491 528 527 513 540 526 516 512 528 528 521 508 549 491 530 505 489 536 518 487 546 544 543 577 528 555 504 482 538 529 550 500 524 513 590 561 548 539 575 511 548 587 555 557 566 537 589 527 541 550 525 532 602 507 542 509 530 571 494 535 518 540 553 567 539 512 537 503 545 531 516 523 508 499 513 560 537 513 500 538 523 493 536 530 519 541 497 507 486 522 502 526 485 514 482 507 494 511 505 521 460 496 463 481 528 488 488 511 537 496 493 485 468 519 543 525 465 498 476 482 509 525 490 498 541 504 478 508 487 525 473 476 475 477 503 507 482 518 515 482 486 461 498 477 485 468 543 496 524 464 502 498 489 539 480 495 518 524 510 430 499 504 491 500 502 488 528 545 473 475 469 478 454 465 476 500 497 480 473 503 501 523 468 503 480 476 451 467 492 485 505 499 441 469 479 503 490 493 508 498 477 493 491 494 464 508 499 471 492 474 463 474 514 486 474 497 458 483 479 488 518 496 491 470 462 502 491 488 499 473 502 504 477 511 488 483 487 551 470 510 485 486 475 527 487 511 474 479 520 488 504 489 503 504 510 482 518 451 513 489 452 468 525 477 506 526 469 527 476 483 520 519 520 457 496 503 508 493 503 500 586 513 549 519 538 504 521 530 512 528 518 551 528 499 493 521 497 507 535 486 541 517 507 558 527 496 509 477 557 511 522 526 538 515 552 552 515 557 518 479 504 509 514 498 470 505 540 521 502 475 470 518 532 518 521 546 519 552 554 523 531 499 505 506 500 517 487 504 502 535 506 515 494 501 499 483 476 487 561 546 458 540 538 509 485 466 495 515 460 524 463 496 491 486 470 526 484 494 469 474 525 464 463 513 502 501 511 505 518 533 504 511 488 524 497 524 509 472 531 502 520 493 506 512 520 485 480 488 460 479 506 511 505 511 466 510 484 472 538 517 538 513 517 536 501 526 504 509 496 467 441 507 498 455 480 481 471 519 504 524 482 518 495 518 482 489 514 455 507 552 497 460 490 473 509 501 532 501 471 513 466 513 493 504 490 540 500 508 521 456 496 506 488 488 529 481 506 490 479 506 433 494 486 477 472 511 450 490 492 471 569 514 489 518 482 482 469 442 508 480 517 462 521 556 484 530 492 509 542 508 535 514 516 579 545 518 560 533 501 512 539 544 515 511 487 565 504 550 553 544 515 494 508 524 559 541 532 532 598 592 556 532 533 582 514 520 552 546 578 554 541 577 592 563 595 570 519 577 573 523 557 562 564 547 596 583 564 577 555 630 576 639 551 634 607 574 616 616 664 665 621 593 605 661 709 635 636 633 595 624 676 660 687 679 661 684 664 647 633 629 665 734 727 600 656 620 694 659 623 652 631 642 640 637 680 684 612 672 671 666 663 609 652 672 606 636 605 619 543 600 593 658 576 604 604 550 615 576 607 560 620 541 576 530 572 582 588 581 572 563 560 533 520 542 562 533 559 544 516 537 520 504 549 531 526 455 547 499 553 508 577 482 539 491 526 514 545 522 509 490 533 524 587 521 510 534 525 524 523 511 559 447 522 516 502 552 539 500 489 523 514 539 499 514 507 530 499 519 475 498 516 517 533 539 512 517 521 530 501 543 500 490 510 495 520 516 570 526 542 547 568 544 510 523 526 529 547 528 553 548 510 518 529 590 548 528 520 512 512 517 566 531 524 550 558 513 470 522 496 507 511 542 546 564 499 494 539 545 536 532 505 529 476 517 551 489 514 513 562 501 563 499 508 485 488 523 513 497 504 513 468 533 498 505 523 514 517 553 481 512 506 501 488 488 466 493 500 463 496 543 464 512 553 510 497 499 495 486 481 487 492 480 486 516 510 499 485 502 487 481 504 490 481 491 493 479 524 494 507 482 511 498 511 478 466 504 487 507 475 486 518 489 494 504 457 490 485 499 513 493 478 485 520 489 494 493 499 511 443 480 495 520 513 492 484 502 529 481 469 467 494 517 538 506 494 468 479 473 460 495 548 474 498 499 440 503 422 505 502 522 488 487 511 486 471 493 477 496 509 481 485 493 464 470 492 454 480 494 463 480 498 484 486 528 469 524 486 497 529 450 474 488 481 505 470 491 487 446 499 468 484 487 504 499 501 504 456 488 502 472 503 516 485 436 515 505 494 467 460 471 510 474 491 458 502 461 470 451 532 487 461 473 479 493 470 443 463 494 463 458 426 497 462 455 486 455 551 456 491 466 512 462 485 507 477 476 512 456 451 479 438 463 446 478 478 451 476 464 508 457 445 448 498 487 501 493 479 494 455 524 487 486 460 541 476 476 500 482 478 491 467 495 474 471 447 492 478 503 470 451 508 512 507 482 503 476 487 460 492 482 456 488 494 485 494 475 459 479 472 480 468 522 486 481 503 470 477 482 485 462 462 484 459 495 477 490 501 492 517 493 442 519 439 432 454 472 483 486 448 511 487 519 494 493 446 417 460 458 458 495 456 450 450 506 487 506 460 468 488 500 447 504 492 480 498 470 473 477 483 481 455 481 447 471 470 495 509 480 492 470 483 458 499 518 468 461 505 465 488 491 501 489 467 498 435 462 502 495 506 503 464 479 496 566 482 510 528 468 487 496 464 506 493 496 513 481 478 525 493 512 523 496 501 475 486 495 480 509 534 490 536 525 543 510 520 514 513 472 514 513 511 515 493 541 510 511 568 547 467 508 553 506 501 506 496 503 494 516 509 486 530 527 521 485 516 495 568 549 570 520 493 527 538 524 485 508 518 535 524 516 547 532 516 553 536 522 520 548 529 509 530 528 504 531 497 561 566 541 532 523</counts>
			</dataPoints>
		</scan>
	</xrdMeasurement>
</xrdMeasurements>
