<?xml version="1.0"?>
<xrdMeasurements xmlns="http://www.xrdml.com/XRDMeasurement/2.3" xmlns:xsi="http://www.w3.org/2001/XMLSchema-instance" xsi:schemaLocation="http://www.xrdml.com/XRDMeasurement/2.3 http://www.xrdml.com/XRDMeasurement/2.3/XRDMeasurement.xsd" status="Completed" recordIdentifier="{9E4201DB-871D-46F8-8E1E-CF2EC1DE53B1}">
	<comment>
		<entry/>
	</comment>
	<sample type="To be analyzed">
		<id>GPSS_Li1p2Mn0p9Nb0p2Cl4_112725_69279e65f4e53d1f7239af1c</id>
		<name></name>
		<preparedBy></preparedBy>
	</sample>
	<xrdMeasurement measurementType="Scan" status="Completed" sampleMode="Reflection">
		<usedWavelength intended="K-Alpha 1">
			<kAlpha1 unit="Angstrom">1.5405980</kAlpha1>
			<kAlpha2 unit="Angstrom">1.5444260</kAlpha2>
			<kBeta unit="Angstrom">1.3922500</kBeta>
			<ratioKAlpha2KAlpha1>0.5000</ratioKAlpha2KAlpha1>
		</usedWavelength>
		<incidentBeamPath>
			<radius unit="mm">145.00</radius>
			<xRayTube id="1010048" name="Empyrean Cu LFF HR (9430 033 7310x)">
				<tension unit="kV">40.0</tension>
				<current unit="mA">15.0</current>
				<anodeMaterial>Cu</anodeMaterial>
				<focus type="Line">
					<length unit="mm">12.0</length>
					<width unit="mm">0.4</width>
					<takeOffAngle unit="deg">6.0</takeOffAngle>
				</focus>
			</xRayTube>
			<sollerSlit id="21010002" name="Soller slits 0.04 rad.">
				<opening unit="rad">0.0400</opening>
			</sollerSlit>
			<mask id="22031000" name="Fixed mask 13 mm">
				<width unit="mm">9.00</width>
			</mask>
			<divergenceSlit id="22120001" name="Divergence slit 1°" xsi:type="fixedDivergenceSlitType">
				<distanceToSample unit="mm">50.00</distanceToSample>
				<height unit="mm">1.52</height>
			</divergenceSlit>
		</incidentBeamPath>
		<sampleMovement xsi:type="spinningSampleMovementType">
			<spinnerRevolutionTime unit="seconds">1.0</spinnerRevolutionTime>
		</sampleMovement>
		<diffractedBeamPath>
			<radius unit="mm">145.00</radius>
			<antiScatterSlit id="22090040" name="AS slit 9 mm (PIXcel)" xsi:type="fixedAntiScatterSlitType">
				<height unit="mm">9.00</height>
			</antiScatterSlit>
			<sollerSlit id="21020003" name="Large Soller slits 0.04 rad.">
				<opening unit="rad">0.0400</opening>
			</sollerSlit>
			<filter id="20030001" name="Large beta-filter Nickel">
				<material>Ni</material>
				<thickness unit="mm">0.020</thickness>
			</filter>
			<detector id="7010019" name="PIXcel1D-Medipix3 detector" xsi:type="rtmsDetectorType">
				<phd unit="keV">
					<lowerLevel>4.02</lowerLevel>
					<upperLevel>11.27</upperLevel>
				</phd>
				<mode>Scanning</mode>
				<activeLength unit="deg">5.542</activeLength>
			</detector>
		</diffractedBeamPath>
		<scan appendNumber="0" mode="Continuous" scanAxis="Gonio" status="Completed">
			<header>
				<startTimeStamp>2025-12-06T12:35:02-08:00</startTimeStamp>
				<endTimeStamp>2025-12-06T12:43:09-08:00</endTimeStamp>
				<author>
					<name>AutomatedUser</name>
				</author>
				<source>
					<applicationSoftware version="1.7b (136)">PANalytical Aeris Instrument Suite</applicationSoftware>
					<instrumentControlSoftware version="3.2.00000000 20240306">AERIS</instrumentControlSoftware>
					<instrumentID>950485</instrumentID>
				</source>
			</header>
			<dataPoints>
				<positions axis="2Theta" unit="deg">
					<startPosition>10.00943322</startPosition>
					<endPosition>99.99442286</endPosition>
				</positions>
				<positions axis="Omega" unit="deg">
					<startPosition>5.00471661</startPosition>
					<endPosition>49.99721143</endPosition>
				</positions>
				<commonCountingTime unit="seconds">12.495</commonCountingTime>
				<counts unit="counts">2752 2911 2727 2769 2765 2710 2747 2706 2848 2861 2782 2780 2734 2694 2786 2743 2777 2732 2791 2717 2667 2848 2746 2823 2759 2651 2788 2693 2770 2777 2775 2811 2731 2684 2734 2712 2745 2693 2674 2743 2784 2753 2729 2785 2737 2819 2755 2724 2802 2822 2866 2781 2644 2835 2681 2763 2701 2725 2753 2673 2817 2759 2763 2707 2630 2764 2725 2743 2855 2729 2802 2786 2765 2799 2756 2637 2754 2731 2753 2854 2789 2785 2746 2722 2725 2809 2694 2709 2799 2777 2863 2791 2796 2793 2653 2691 2707 2800 2624 2779 2756 2738 2741 2634 2793 2733 2783 2743 2749 2822 2821 2771 2677 2864 2782 2701 2757 2719 2674 2757 2789 2693 2703 2754 2706 2662 2671 2798 2697 2815 2714 2712 2737 2669 2689 2771 2685 2715 2702 2768 2815 2624 2735 2689 2827 2698 2759 2652 2796 2760 2703 2729 2637 2660 2708 2754 2705 2750 2741 2738 2734 2692 2681 2715 2798 2754 2601 2688 2647 2677 2685 2786 2648 2726 2707 2619 2729 2657 2661 2741 2627 2759 2623 2734 2688 2764 2709 2718 2622 2717 2712 2614 2545 2632 2667 2661 2673 2550 2750 2632 2608 2837 2716 2722 2690 2656 2666 2643 2720 2679 2730 2696 2734 2734 2679 2685 2596 2588 2617 2589 2650 2606 2680 2561 2747 2564 2729 2639 2575 2736 2656 2644 2657 2617 2626 2591 2653 2590 2660 2724 2598 2599 2672 2615 2622 2620 2588 2692 2584 2679 2626 2671 2692 2601 2607 2552 2669 2680 2602 2551 2754 2624 2626 2656 2567 2642 2668 2630 2736 2611 2689 2654 2674 2579 2617 2615 2587 2622 2660 2643 2714 2486 2678 2591 2562 2548 2598 2614 2654 2607 2601 2654 2638 2660 2604 2665 2623 2536 2673 2725 2588 2551 2628 2724 2594 2681 2700 2569 2729 2688 2707 2718 2624 2662 2639 2644 2630 2618 2668 2786 2658 2662 2695 2648 2678 2676 2699 2749 2779 2726 2760 2705 2646 2779 2710 2745 2671 2747 2691 2754 2760 2694 2799 2755 2728 2805 2734 2858 2717 2705 2780 2800 2856 2754 2725 2784 2717 2828 2785 2914 2790 2819 2730 2899 2909 2827 2784 2858 2842 2816 2872 2856 2859 2896 2867 2896 2864 2883 2863 2953 2889 2922 2952 2851 2987 3061 2942 2930 2969 3001 2948 3119 2865 3065 2959 3039 2945 3011 3000 2947 3100 2985 3086 2988 3116 3035 3077 3175 3133 3125 3107 3199 3063 3101 3070 3271 3106 3205 3219 3278 3290 3176 3138 3302 3291 3265 3407 3328 3291 3378 3297 3355 3388 3337 3361 3425 3458 3447 3441 3516 3599 3686 3615 3638 3609 3693 3688 3734 3809 3759 3713 3780 3799 3971 3908 4003 4030 3985 4006 4060 3992 4017 3981 3965 3975 3920 3963 3934 3840 3889 3938 3941 3874 3863 3885 3814 4046 3888 4044 4043 4051 4000 4025 4063 4066 4207 4240 4161 4269 4414 4358 4428 4511 4497 4541 4501 4428 4695 4653 4530 4603 4631 4770 4687 4541 4437 4447 4372 4325 4136 4182 4111 3931 3799 3761 3837 3664 3618 3669 3515 3482 3471 3484 3486 3454 3413 3437 3350 3424 3470 3376 3297 3359 3362 3415 3281 3259 3368 3207 3168 3210 3088 3142 3136 2983 3059 3082 3050 3098 3101 3096 3054 3002 3024 3061 2991 3056 3036 3066 3020 3051 3045 2944 2966 3050 2933 3018 3019 2849 2977 2993 3018 2875 3028 2929 3024 2930 2909 2858 2876 2893 2910 2947 2759 2922 2908 2931 2961 2884 2977 2864 2978 2808 2845 2891 2852 2848 2952 2950 2972 2873 2888 2909 2826 2833 2810 2869 2815 2832 2780 2898 2920 2892 2904 2864 2777 2887 2872 2764 2905 2775 2827 2856 2774 2768 2796 2814 2754 2870 2722 2786 2809 2890 2762 2866 2827 2739 2799 2765 2825 2814 2767 2879 2814 2876 2823 2832 2813 2846 2872 2760 2747 2797 2748 2710 2768 2801 2765 2796 2713 2790 2742 2770 2934 2734 2825 2697 2663 2678 2733 2740 2715 2743 2765 2718 2728 2699 2766 2773 2851 2663 2700 2682 2705 2703 2830 2733 2674 2648 2791 2797 2719 2728 2723 2690 2679 2630 2741 2692 2689 2785 2742 2712 2756 2761 2794 2740 2688 2727 2691 2827 2693 2734 2728 2804 2720 2734 2722 2563 2709 2671 2629 2702 2652 2670 2686 2726 2690 2726 2672 2690 2734 2699 2693 2664 2656 2728 2540 2677 2707 2713 2757 2709 2728 2601 2681 2679 2794 2599 2643 2752 2637 2671 2662 2701 2576 2625 2738 2736 2629 2583 2696 2616 2609 2677 2665 2721 2737 2697 2721 2600 2624 2808 2705 2721 2669 2664 2686 2641 2697 2646 2707 2601 2743 2769 2636 2636 2609 2618 2716 2662 2635 2573 2654 2656 2603 2656 2654 2724 2590 2549 2678 2713 2556 2631 2707 2661 2660 2614 2544 2511 2641 2665 2645 2626 2691 2626 2615 2627 2595 2619 2575 2587 2774 2611 2742 2578 2634 2656 2652 2667 2629 2643 2574 2661 2661 2606 2509 2611 2576 2600 2550 2623 2586 2637 2614 2616 2652 2530 2628 2595 2598 2623 2673 2654 2623 2672 2590 2599 2632 2605 2681 2643 2639 2549 2688 2589 2665 2607 2550 2642 2620 2607 2559 2687 2689 2665 2602 2546 2618 2679 2632 2571 2587 2473 2584 2543 2460 2579 2595 2652 2679 2567 2536 2560 2636 2601 2650 2607 2516 2533 2448 2572 2602 2600 2597 2659 2592 2652 2635 2565 2473 2555 2645 2555 2733 2477 2542 2543 2570 2482 2607 2645 2580 2520 2462 2588 2481 2474 2636 2585 2510 2479 2586 2416 2567 2554 2536 2622 2473 2504 2550 2639 2582 2571 2586 2587 2484 2581 2506 2529 2540 2514 2563 2594 2515 2467 2463 2510 2505 2494 2486 2474 2537 2524 2508 2617 2527 2511 2471 2593 2407 2429 2452 2510 2530 2541 2515 2499 2493 2511 2493 2524 2555 2433 2530 2476 2512 2530 2451 2432 2492 2459 2503 2518 2449 2520 2510 2538 2492 2553 2536 2538 2494 2426 2464 2524 2494 2493 2552 2547 2476 2493 2551 2407 2489 2530 2462 2516 2493 2534 2502 2578 2503 2503 2381 2487 2508 2523 2509 2571 2558 2452 2429 2506 2487 2457 2517 2498 2564 2370 2406 2500 2453 2407 2555 2544 2542 2459 2481 2440 2578 2357 2431 2501 2521 2549 2568 2453 2457 2491 2545 2464 2500 2402 2552 2400 2527 2545 2557 2479 2462 2444 2446 2476 2424 2437 2502 2459 2420 2451 2505 2434 2493 2494 2478 2395 2526 2434 2487 2429 2531 2477 2562 2485 2598 2355 2518 2440 2448 2489 2469 2547 2569 2453 2496 2514 2478 2470 2439 2424 2450 2570 2486 2525 2488 2497 2547 2491 2497 2447 2517 2451 2487 2480 2448 2530 2540 2497 2491 2411 2415 2412 2391 2546 2534 2414 2517 2464 2443 2470 2545 2431 2416 2491 2507 2412 2458 2475 2531 2401 2464 2435 2439 2471 2431 2470 2408 2455 2460 2422 2499 2400 2439 2432 2318 2463 2378 2396 2398 2425 2371 2466 2378 2291 2331 2465 2465 2361 2389 2305 2387 2416 2436 2426 2451 2385 2406 2303 2250 2362 2348 2309 2333 2337 2344 2376 2291 2403 2323 2349 2395 2339 2407 2368 2320 2327 2323 2369 2272 2358 2262 2305 2335 2331 2268 2222 2258 2429 2384 2358 2223 2318 2228 2276 2243 2218 2271 2225 2244 2299 2278 2208 2339 2191 2223 2212 2235 2212 2366 2236 2194 2258 2208 2196 2174 2182 2213 2163 2105 2207 2188 2293 2202 2179 2133 2150 2165 2227 2218 2176 2044 2143 2172 2148 2174 2175 2192 2068 2146 2130 2156 2162 2163 2212 2092 2071 2155 2110 2098 2167 2163 2039 2004 2142 2159 2052 2115 2106 2169 2166 2125 2086 2087 1971 2132 2047 2105 2095 2136 2090 2072 2051 2102 2038 2029 2123 2081 2029 2050 2025 2114 2075 2057 2096 2055 2150 2033 2022 2119 2073 2024 2033 2058 2067 2048 2065 2022 2107 2012 2049 2048 2040 1967 2071 1939 2007 1997 2042 2073 2002 1999 2052 1995 1963 2015 2039 2045 1985 1993 1941 1947 1949 2018 2009 2017 2031 2002 2124 2034 2051 1995 1991 1995 1990 2001 1990 2021 2048 1974 2033 2030 1932 1944 1970 1984 1928 1997 1950 2046 2080 1997 1981 1905 2007 2015 1962 1939 1986 2008 2040 2031 2056 1908 1985 1977 2028 2022 2062 1973 2001 1901 1843 1938 1950 1902 1885 1985 1944 1952 1990 1909 1960 1978 2032 1903 2017 1989 1948 2022 1948 1919 1999 1923 1886 1984 1975 1961 1947 1995 1877 1984 2098 2031 2020 1953 2001 1958 1919 1915 2023 1984 1995 1957 1927 2026 2001 2022 2094 1927 2048 2058 1981 1990 2013 1970 1940 1955 2001 1961 1946 2004 1934 1958 2016 1946 1821 1987 1995 2036 1989 2017 2000 2053 1987 2009 1927 1972 1960 1952 1960 1961 1989 2052 2030 1962 2001 2020 1974 1966 1960 1985 1950 1962 1988 2034 2013 1936 2065 1969 1941 2044 1971 2019 1972 1984 2007 1944 1985 1928 2027 1997 1990 2030 1875 1990 1920 1874 1972 2033 2052 2061 1999 2007 2063 2031 2003 1999 1958 1923 1962 1958 1929 1970 2002 1940 1958 2004 2010 1990 1981 1954 1885 1970 2002 1935 1949 1952 1918 2000 1970 1930 1967 1920 1953 1984 1863 1921 1958 1997 1952 1961 1987 1947 1981 1860 1920 1898 1888 1977 1882 2005 1904 2017 1992 1860 1860 1866 1880 1905 1873 1791 1876 1846 1845 1836 1988 1877 1862 1913 1901 1863 1831 1882 1952 1852 1933 1825 1859 1884 1819 1871 1767 1843 1937 1856 1879 1926 1899 1918 1924 1868 1783 1948 1843 1844 1894 1773 1917 1843 1952 1851 1881 1918 1754 1832 1809 1856 1816 1814 1826 1848 1816 1902 1796 1896 1886 1796 1797 1776 1784 1779 1804 1781 1798 1823 1833 1767 1892 1794 1786 1815 1836 1844 1842 1832 1763 1861 1784 1793 1835 1835 1868 1918 1869 1861 1952 1850 1937 1829 1907 1836 2010 1982 1939 1985 1849 1995 1932 1939 1952 2078 2166 2162 2204 2190 2250 2424 2412 2385 2489 2470 2524 2650 2684 2764 2837 2950 2915 2915 2949 3055 3082 3184 3086 3224 3244 3172 3078 3137 3073 2882 2852 2700 2721 2660 2541 2389 2354 2276 2225 2197 2194 2185 2077 2060 2008 1962 1885 1984 1943 1849 1881 1915 1805 1851 1910 1890 1910 1832 1789 1837 1856 1826 1819 1748 1721 1715 1786 1703 1798 1732 1744 1716 1698 1757 1716 1680 1739 1696 1700 1703 1737 1740 1687 1736 1719 1621 1679 1674 1735 1663 1725 1737 1680 1666 1677 1752 1677 1639 1715 1692 1713 1684 1689 1740 1671 1824 1769 1808 1705 1736 1695 1756 1811 1855 1757 1847 1901 1937 1965 1907 1942 2132 2022 2168 2144 2135 2255 2292 2367 2385 2450 2449 2579 2690 2709 2634 2863 2855 2824 2901 2793 2872 2735 2882 2793 2813 2643 2572 2477 2435 2422 2309 2275 2235 2075 2084 2004 1997 1908 1937 1959 1887 1924 1822 1807 1779 1843 1855 1850 1858 1775 1835 1779 1878 1819 1844 1885 1936 1938 1961 1992 2021 1988 1965 2140 2096 2122 2118 2137 2268 2232 2294 2230 2399 2287 2345 2376 2386 2355 2303 2320 2232 2218 2174 2083 2105 2021 1939 1799 1843 1784 1679 1710 1688 1673 1616 1567 1524 1680 1562 1569 1645 1657 1602 1556 1637 1553 1489 1481 1506 1610 1605 1556 1542 1589 1611 1572 1564 1547 1568 1584 1544 1556 1546 1551 1578 1511 1538 1542 1458 1464 1528 1499 1500 1477 1470 1533 1470 1510 1476 1509 1582 1492 1516 1488 1559 1491 1469 1501 1479 1569 1518 1528 1506 1583 1457 1473 1452 1487 1466 1490 1442 1490 1503 1465 1497 1526 1480 1452 1545 1469 1433 1516 1472 1461 1485 1473 1457 1478 1483 1393 1503 1468 1467 1369 1479 1489 1440 1415 1373 1504 1420 1431 1490 1394 1446 1355 1411 1499 1408 1478 1340 1398 1352 1437 1490 1446 1496 1388 1419 1419 1463 1364 1445 1394 1402 1416 1430 1368 1450 1390 1426 1406 1398 1456 1473 1297 1451 1340 1402 1429 1367 1349 1488 1451 1398 1395 1419 1367 1367 1387 1422 1426 1401 1399 1442 1450 1429 1494 1397 1424 1414 1502 1420 1362 1421 1421 1418 1443 1370 1412 1418 1436 1383 1424 1425 1453 1394 1443 1370 1447 1409 1443 1402 1393 1305 1405 1397 1478 1450 1436 1478 1396 1457 1428 1389 1383 1370 1411 1360 1354 1367 1411 1331 1441 1483 1399 1409 1387 1504 1420 1371 1387 1393 1478 1355 1477 1356 1422 1416 1395 1433 1360 1379 1376 1418 1372 1395 1411 1428 1362 1430 1388 1350 1395 1438 1410 1455 1412 1420 1418 1422 1404 1425 1353 1384 1431 1404 1425 1444 1412 1372 1375 1469 1423 1422 1458 1346 1442 1426 1409 1410 1462 1359 1408 1511 1396 1481 1489 1480 1422 1408 1471 1436 1375 1461 1458 1432 1440 1432 1403 1477 1403 1467 1496 1428 1462 1565 1405 1408 1432 1472 1425 1461 1507 1442 1471 1444 1529 1466 1554 1555 1540 1463 1471 1537 1522 1600 1544 1556 1605 1635 1528 1549 1616 1619 1586 1581 1710 1676 1696 1739 1813 1736 1770 1751 1805 1833 1848 1792 1966 1943 1984 2062 2172 2212 2231 2378 2419 2589 2665 2820 2864 3036 3075 3317 3545 3554 3726 3805 4116 4230 4466 4648 4876 4965 5204 5279 5434 5439 5685 5719 5571 5530 5530 5239 5238 5103 4823 4683 4558 4389 4241 4261 3957 3953 3854 3708 3673 3649 3775 3660 3734 3775 3847 3965 3975 3999 4079 4096 4139 4179 4412 4605 4415 4552 4563 4614 4503 4551 4625 4339 4396 4239 4124 4107 3866 3893 3915 3650 3481 3447 3375 3282 3334 3299 3342 3282 3297 3223 3387 3324 3467 3557 3465 3702 3643 3600 3553 3398 3430 3192 3198 3063 2917 2806 2650 2590 2490 2435 2149 2195 1992 2005 1872 1838 1858 1768 1776 1699 1701 1693 1635 1567 1623 1642 1534 1589 1568 1536 1565 1556 1601 1566 1533 1535 1479 1483 1430 1503 1499 1488 1519 1447 1437 1364 1465 1365 1380 1468 1420 1476 1444 1393 1432 1434 1376 1392 1455 1433 1432 1387 1353 1433 1368 1370 1343 1372 1373 1379 1345 1337 1370 1376 1404 1328 1390 1397 1338 1356 1352 1351 1412 1420 1370 1399 1367 1389 1271 1387 1329 1390 1331 1282 1413 1388 1422 1307 1354 1347 1375 1297 1401 1358 1334 1313 1375 1368 1315 1411 1324 1293 1340 1334 1334 1367 1400 1345 1274 1405 1362 1371 1297 1305 1327 1339 1348 1308 1362 1330 1336 1343 1333 1413 1310 1333 1331 1337 1357 1310 1342 1351 1331 1386 1314 1319 1340 1295 1304 1305 1367 1327 1352 1314 1343 1307 1329 1328 1281 1387 1244 1326 1305 1322 1344 1307 1355 1303 1315 1333 1348 1317 1342 1291 1322 1343 1284 1310 1239 1286 1240 1362 1315 1326 1305 1333 1285 1259 1336 1263 1276 1350 1258 1265 1296 1303 1332 1333 1384 1333 1259 1271 1322 1253 1339 1271 1296 1319 1358 1317 1286 1331 1345 1372 1304 1340 1284 1350 1433 1363 1272 1356 1350 1372 1309 1397 1310 1308 1324 1335 1328 1344 1291 1335 1374 1376 1326 1405 1348 1361 1386 1426 1321 1302 1376 1358 1300 1326 1387 1376 1370 1342 1332 1388 1420 1394 1380 1375 1370 1356 1362 1377 1426 1395 1453 1386 1509 1429 1515 1505 1459 1481 1518 1486 1489 1465 1417 1497 1481 1453 1438 1446 1359 1460 1391 1438 1391 1439 1395 1382 1372 1391 1297 1372 1324 1286 1304 1333 1321 1276 1378 1256 1290 1355 1316 1290 1326 1282 1292 1268 1268 1245 1332 1285 1322 1286 1331 1215 1277 1218 1298 1227 1255 1247 1260 1281 1311 1287 1285 1251 1251 1231 1214 1233 1323 1269 1233 1290 1273 1294 1281 1246 1212 1264 1261 1196 1211 1255 1256 1203 1218 1208 1247 1301 1204 1236 1245 1259 1229 1273 1276 1188 1257 1297 1243 1241 1248 1214 1240 1237 1201 1215 1272 1211 1280 1214 1303 1215 1233 1274 1212 1226 1181 1229 1266 1226 1178 1188 1259 1228 1209 1260 1157 1183 1256 1187 1260 1229 1222 1248 1237 1248 1171 1213 1203 1183 1249 1215 1245 1205 1300 1227 1180 1228 1193 1294 1192 1202 1190 1243 1260 1178 1230 1195 1247 1186 1228 1234 1220 1223 1210 1249 1173 1173 1201 1190 1183 1229 1174 1225 1230 1190 1189 1239 1181 1226 1202 1241 1175 1250 1237 1168 1194 1267 1239 1272 1229 1211 1181 1216 1246 1111 1208 1173 1214 1183 1278 1182 1197 1212 1237 1228 1215 1177 1163 1223 1198 1190 1198 1231 1207 1249 1179 1193 1179 1198 1149 1185 1194 1234 1197 1137 1243 1277 1263 1172 1219 1231 1176 1179 1154 1188 1178 1152 1217 1169 1201 1192 1174 1196 1129 1200 1118 1229 1147 1231 1222 1177 1216 1228 1157 1187 1197 1202 1188 1189 1179 1196 1169 1114 1188 1208 1173 1205 1142 1181 1165 1167 1145 1190 1158 1139 1170 1219 1206 1208 1161 1150 1207 1177 1206 1230 1164 1143 1209 1136 1203 1249 1195 1183 1200 1223 1223 1186 1188 1161 1192 1157 1160 1295 1151 1220 1169 1183 1175 1165 1224 1223 1206 1228 1205 1201 1171 1201 1200 1199 1156 1267 1082 1169 1186 1193 1180 1151 1185 1125 1216 1168 1174 1194 1220 1160 1260 1173 1203 1215 1252 1121 1143 1180 1172 1199 1173 1193 1177 1192 1177 1156 1201 1181 1140 1257 1187 1157 1184 1155 1190 1119 1221 1130 1177 1196 1229 1207 1155 1134 1202 1206 1198 1176 1275 1167 1139 1153 1170 1168 1177 1194 1171 1160 1194 1147 1139 1159 1220 1252 1225 1219 1188 1210 1142 1179 1143 1241 1167 1176 1146 1099 1200 1190 1203 1167 1175 1194 1155 1199 1137 1178 1141 1204 1140 1140 1200 1197 1234 1092 1230 1165 1186 1253 1173 1115 1197 1207 1118 1216 1138 1177 1157 1203 1198 1223 1199 1190 1190 1128 1238 1112 1231 1204 1175 1224 1219 1254 1195 1182 1240 1223 1152 1156 1190 1183 1158 1173 1153 1174 1182 1171 1129 1185 1173 1156 1119 1207 1156 1177 1190 1130 1148 1149 1128 1195 1181 1164 1183 1181 1222 1201 1166 1234 1265 1173 1195 1227 1129 1249 1126 1150 1203 1131 1251 1123 1210 1227 1174 1165 1134 1153 1181 1199 1171 1097 1152 1194 1294 1167 1196 1186 1199 1182 1215 1182 1191 1135 1154 1232 1173 1202 1136 1153 1178 1140 1212 1185 1191 1225 1217 1213 1242 1124 1148 1086 1179 1189 1100 1195 1225 1218 1134 1223 1196 1143 1154 1165 1143 1239 1222 1226 1102 1210 1214 1156 1171 1126 1216 1195 1150 1193 1104 1157 1196 1146 1130 1213 1130 1168 1166 1245 1186 1162 1177 1204 1164 1202 1192 1143 1180 1131 1272 1181 1218 1273 1170 1198 1176 1099 1172 1210 1168 1197 1200 1195 1246 1183 1198 1261 1188 1198 1281 1222 1257 1247 1163 1246 1165 1176 1190 1166 1209 1175 1253 1247 1233 1245 1263 1183 1261 1221 1271 1239 1240 1173 1335 1236 1228 1325 1315 1290 1288 1280 1349 1433 1433 1423 1451 1393 1455 1561 1541 1483 1682 1695 1616 1666 1569 1641 1672 1541 1603 1443 1556 1488 1519 1469 1528 1424 1449 1460 1398 1323 1386 1353 1344 1334 1302 1249 1299 1305 1230 1260 1273 1261 1284 1271 1170 1236 1193 1259 1301 1227 1179 1158 1233 1262 1212 1220 1270 1265 1185 1215 1246 1210 1259 1223 1263 1216 1228 1181 1228 1254 1257 1242 1180 1257 1254 1207 1254 1290 1307 1198 1373 1268 1262 1305 1348 1366 1303 1343 1325 1221 1391 1379 1340 1310 1384 1336 1382 1472 1396 1467 1449 1542 1483 1464 1476 1448 1445 1451 1428 1381 1456 1404 1435 1451 1379 1409 1393 1403 1360 1396 1322 1279 1292 1262 1328 1290 1341 1317 1241 1337 1230 1293 1252 1202 1243 1275 1291 1235 1232 1184 1249 1257 1333 1186 1233 1281 1236 1206 1222 1184 1186 1298 1164 1271 1088 1148 1207 1249 1244 1292 1210 1195 1224 1195 1184 1244 1230 1209 1196 1237 1252 1236 1197 1256 1158 1121 1170 1260 1224 1240 1168 1195 1185 1173 1185 1250 1147 1156 1214 1178 1160 1192 1182 1141 1283 1165 1186 1245 1170 1120 1159 1123 1149 1173 1211 1176 1200 1148 1232 1147 1212 1183 1121 1238 1188 1213 1168 1161 1185 1194 1168 1130 1192 1159 1143 1180 1163 1168 1099 1183 1138 1165 1223 1279 1196 1223 1220 1208 1174 1120 1190 1169 1197 1192 1115 1195 1196 1174 1193 1218 1140 1207 1200 1146 1253 1142 1174 1134 1178 1097 1137 1254 1140 1173 1181 1155 1178 1195 1160 1132 1140 1205 1082 1188 1196 1123 1213 1153 1201 1155 1173 1195 1199 1146 1223 1155 1165 1148 1192 1183 1154 1180 1256 1228 1239 1188 1172 1167 1192 1184 1237 1190 1180 1228 1234 1202 1164 1182 1216 1279 1201 1216 1187 1162 1175 1182 1200 1151 1212 1196 1158 1207 1180 1154 1164 1183 1139 1232 1238 1181 1185 1242 1200 1231 1264 1238 1230 1229 1248 1176 1316 1188 1253 1319 1261 1266 1205 1154 1253 1210 1214 1337 1309 1266 1288 1266 1303 1263 1267 1268 1338 1393 1376 1303 1365 1403 1404 1351 1402 1423 1411 1459 1572 1607 1590 1660 1683 1692 1791 1852 1900 1909 2029 2069 2164 2388 2404 2634 2757 2888 3041 3301 3415 3550 3854 3988 4288 4452 4573 4514 4735 4840 4985 4791 4818 4514 4541 4322 4040 3976 3753 3681 3532 3566 3296 3305 3078 2913 2756 2556 2438 2307 2159 2171 2068 1925 1849 1812 1783 1825 1655 1774 1645 1667 1543 1539 1465 1586 1597 1553 1514 1502 1510 1477 1414 1491 1425 1357 1506 1457 1408 1386 1399 1329 1400 1321 1307 1321 1326 1409 1379 1367 1320 1372 1317 1335 1353 1304 1398 1283 1344 1324 1405 1372 1427 1521 1348 1405 1485 1442 1501 1523 1527 1637 1553 1662 1731 1653 1636 1738 1765 1819 1940 1925 1949 1930 2008 1954 2102 2009 2079 2184 2199 2155 2221 2219 2189 2181 2209 2181 2113 2213 2123 2076 2100 2114 2074 1958 1918 1977 1843 1769 1724 1751 1666 1704 1675 1643 1604 1591 1559 1602 1503 1511 1514 1461 1426 1397 1375 1449 1350 1335 1281 1312 1285 1384 1376 1301 1309 1254 1284 1267 1315 1308 1284 1262 1284 1268 1189 1216 1223 1229 1231 1194 1207 1215 1176 1221 1198 1205 1260 1272 1228 1225 1256 1205 1247 1260 1164 1219 1219 1227 1192 1216 1181 1200 1208 1177 1189 1254 1240 1205 1245 1192 1237 1172 1214 1224 1254 1234 1239 1226 1249 1276 1275 1272 1316 1260 1328 1309 1305 1366 1400 1378 1384 1387 1454 1459 1542 1546 1514 1562 1682 1657 1636 1652 1676 1693 1658 1657 1724 1780 1706 1809 1845 1869 1862 1791 1848 1777 1816 1750 1732 1693 1668 1589 1615 1558 1541 1521 1512 1484 1493 1478 1396 1427 1391 1295 1392 1313 1306 1298 1297 1242 1273 1240 1290 1214 1201 1143 1223 1206 1286 1181 1175 1184 1206 1177 1163 1186 1115 1137 1221 1180 1152 1187 1143 1155 1180 1206 1169 1174 1097 1153 1128 1091 1116 1203 1204 1150 1111 1094 1154 1192 1100 1125 1202 1141 1216 1113 1157 1145 1095 1171 1065 1119 1124 1094 1101 1070 1154 1092 1157 1111 1084 1087 1149 1114 1109 1117 1180 1102 1138 1144 1079 1082 1106 1138 1072 1057 1117 1140 1030 1135 1133 1140 1097 1129 1113 1131 1099 1137 1079 1136 1108 1135 1118 1111 1174 1188 1145 1130 1174 1100 1072 1105 1082 1190 1106 1078 1102 1186 1155 1080 1085 1135 1102 1088 1048 1082 1131 1099 1110 1073 1144 1150 1109 1098 1129 1127 1083 1076 1101 1109 1126 1195 1089 1126 1085 1101 1096 1076 1102 1083 1148 1057 1137 1071 1061 1081 1099 1106 1101 1101 1075 1041 1129 1112 1155 1081 1060 1109 1061 1086 1148 1074 1069 1061 1068 1082 1091 1106 1098 1155 1147 1153 1067 1079 1073 1071 1065 1059 1060 1095 1142 1078 1060 1063 1160 1096 1148 1090 1046 1179 1071 1136 1136 1122 1095 1088 1102 1137 1091 1081 1127 1070 1093 1112 1129 1126 1039 1105 1066 1083 1090 1087 1076 1070 1114 1085 1066 1161 1081 1137 1133 1073 1080 1087 1103 1097 1053 1111 1101 1018 1158 1037 1078 1059 1074 1191 1122 1123 1115 1117 1083 1067 1095 1099 1118 1109 1100 1109 1091 1152 1110 1186 1120 1096 1127 1142 1121 1119 1079 1144 1138 1117 1120 1152 1090 1013 1092 1120 1065 1107 1140 1192 1118 1100 1046 1103 1083 1067 1093 1059 1115 994 1046 1037 1077 1063 1071 1098 1031 1072 1097 1054 1082 1056 1129 1065 1160 1103 1049 1041 1094 1030 1132 1137 1043 1143 1044 1102 1090 1123 1040 1077 1106 1125 1057 1057 1136 1072 1053 1084 1105 1075 1070 1075 1064 1081 1035 1110 1099 1053 1064 1117 1060 1115 1019 1085 1101 1102 1091 1086 1139 1008 1082 1046 1077 1166 1107 1134 1044 1098 1063 1074 1117 1058 1071 1058 1035 1085 1100 1059 1067 1077 1084 1085 1083 1088 1055 1099 1090 1028 1031 1074 1045 1122 1066 1113 1027 1050 1066 1043 1062 1106 1044 1120 1132 1129 1100 1106 1071 1096 1068 1113 1058 1084 1093 1031 1132 1123 1047 1116 1086 1164 1124 1090 1075 1063 1083 1096 1087 1133 1050 1066 1083 1065 1053 1041 1130 1112 1103 1048 1064 1071 1079 1022 1061 1014 1081 1036 1111 1108 1067 1047 1069 1087 1109 1118 1063 1094 1075 1043 1103 1090 1116 1076 1080 1092 1128 1106 1072 1033 1101 1100 1083 1103 1058 1110 1071 1069 1140 1090 1112 1092 1098 1067 1114 1092 1108 1110 1106 1139 1057 1096 1004 1083 1074 1116 1070 1134 1087 1113 1041 1134 1150 1044 1024 1062 1123 1099 1076 1094 1117 1144 1054 1085 1061 1134 1160 1090 1084 1125 1105 1140 1158 1056 1191 1224 1242 1201 1192 1197 1223 1239 1241 1257 1232 1239 1267 1240 1238 1242 1284 1258 1208 1223 1242 1210 1213 1161 1151 1266 1152 1209 1159 1218 1168 1198 1215 1189 1211 1174 1191 1168 1076 1196 1137 1148 1077 1177 1129 1145 1164 1178 1173 1123 1135 1142 1126 1096 1138 1138 1124 1226 1136 1237 1183 1187 1216 1213 1255 1193 1179 1231 1158 1239 1273 1310 1283 1323 1327 1316 1399 1459 1374 1438 1440 1394 1309 1360 1363 1325 1288 1305 1316 1283 1324 1272 1256 1218 1265 1193 1297 1239 1183 1200 1209 1185 1166 1161 1163 1224 1144 1183 1215 1088 1090 1152 1093 1163 1097 1169 1139 1142 1132 1136 1137 1084 1069 1090 1186 1103 1118 1117 1132 1157 1169 1147 1105 1141 1116 1045 1059 1048 1232 1110 1087 1094 1077 1053 1153 1063 1090 1084 1117 1090 1142 1052 1150 1066 1060 1154 1072 1110 1096 1123 1105 1109 1142 1129 1114 1085 1147 1101 1045 1152 1094 1141 1123 1110 1086 1127 1147 1162 1145 1139 1241 1192 1207 1198 1211 1240 1247 1242 1252 1279 1301 1331 1361 1304 1372 1302 1386 1325 1312 1421 1367 1431 1355 1355 1376 1318 1377 1317 1294 1288 1255 1274 1286 1295 1256 1154 1247 1197 1279 1194 1188 1202 1150 1167 1137 1167 1170 1146 1139 1139 1031 1114 1131 1127 1087 1110 1096 1068 1072 1150 1027 1049 1062 1097 1137 1106 1078 1020 1111 1111 1135 1038 1142 1145 1029 1064 1062 1132 1039 1096 1088 1114 1131 1046 1088 1122 1112 1141 1082 1061 1129 1077 1116 1100 1124 1105 1112 1113 1115 1126 1114 1028 1123 1069 1112 1095 1066 1173 1046 1111 1067 1141 1103 1075 1105 1067 1101 1119 1100 1091 1075 1137 1161 1082 1169 1103 1132 1124 1142 1136 1136 1092 1180 1165 1152 1214 1195 1130 1171 1196 1176 1170 1220 1259 1221 1289 1246 1340 1291 1408 1406 1385 1417 1459 1531 1519 1503 1541 1611 1683 1663 1774 1735 1805 1695 1675 1748 1758 1678 1675 1652 1675 1686 1691 1647 1652 1743 1753 1712 1714 1727 1695 1685 1700 1854 1588 1638 1579 1612 1591 1445 1544 1514 1530 1496 1465 1483 1451 1405 1401 1348 1309 1348 1318 1364 1255 1259 1350 1283 1253 1253 1257 1227 1195 1212 1188 1130 1160 1202 1235 1199 1154 1221 1078 1183 1138 1135 1085 1144 1109 1138 1115 1141 1156 1090 1118 1080 1131 1101 1115 1108 1047 1103 1061 1100 1064 1089 1081 1120 1076 1088 1131 1080 1086 1127 1150 1138 1106 1113 1065 1070 1081 1057 1133 1137 1055 1119 1136 1087 1136 1108 1150 1115 1128 1148 1140 1152 1158 1096 1191 1221 1208 1131 1177 1271 1182 1247 1198 1197 1193 1198 1214 1206 1180 1192 1180 1229 1174 1184 1163 1210 1201 1155 1171 1131 1157 1122 1171 1146 1159 1086 1107 1131 1135 1151 1136 1122 1089 1114 1118 1082 1117 1126 1118 1167 1132 1098 1087 1154 1109 1102 1057 1109 1176 1108 1159 1095 1136 1135 1113 1141 1153 1114 1155 1129 1195 1168 1142 1193 1189 1245 1215 1230 1241 1281 1276 1208 1192 1206 1285 1223 1270 1241 1294 1272 1251 1208 1305 1256 1236 1246 1277 1243 1270 1319 1256 1286 1303 1286 1254 1233 1205 1265 1249 1265 1260 1216 1261 1234 1187 1212 1212 1215 1179 1196 1208 1222 1194 1127 1145 1191 1147 1097 1102 1134 1114 1090 1096 1134 1116 1094 1088 1131 1139 1050 1113 1150 1104 1113 1076 1068 1045 1078 1128 1090 1052 1036 1076 1071 1069 1038 1046 1051 1057 1048 1066 1035 1108 1074 984 1057 1097 1088 1073 1057 1072 1076 1066 1104 1072 1057 1091 1050 1056 1103 1107 1065 1060 1071 1025 1040 1071 1020 1091 1093 1029 1039 1069 1034 1033 1061 1052 1029 1091 1013 1023 1012 1016 996 1037 1002 1101 1024 1050 1087 1137 1050 1053 1059 1005 1074 1048 1093 1050 1086 1154 1062 1059 1065 1050 1046 1020 1060 1055 1059 1113 1050 1097 1058 1082 1132 1039 1080 1090 1068 1123 1003 1011 1041 1100 1157 1139 1091 1052 1063 1150 1138 1147 1077 1122 1156 1089 1157 1124 1168 1081 1194 1130 1146 1124 1131 1080 1098 1086 1115 1107 1113 1133 1084 1094 1065 1127 1103 1094 1071 1076 1102 1114 1109 1128 1064 1107 1034 1018 1053 1069 1099 1017 1103 1092 1060 1087 1071 1047 1130 1027 1087 1067 1120 1040 1051 1049 1088 1009 1096 1053 1104 1090 1111 1031 1062 1034 1053 1115 1039 1062 1082 1046 1019 1086 1085 1055 1076 1098 1076 1024 1006 989 1013 1039 1045 1000 1103 1046 1025 1054 1042 1063 1021 1089 1064 1017 1023 1072 1040 1011 1028 1063 1085 1028 1025 1050 1055 1004 1032 1065 1054 1034 1102 1027 1024 1087 1138 1052 1114 1065 997 1011 1055 958 1023 1038 1025 1025 1021 1059 1040 1029 1062 1022 1073 1007 971 1021 1047 1069 1018 1068 1005 1040 996 978 1072 1008 1002 1065 1054 1061 1075 1004 1041 1037 1025 1065 994 1054 1050 1024 1083 1021 1032 1066 1084 1019 1069 1058 1039 1025 1037 1095 1066 1033 1067 1033 1053 1078 995 1026 1054 1032 1018 1013 1039 1015 1029 1005 1042 1050 1061 1035 1023 1020 1032 1081 1049 1033 1054 1061 1033 1072 1061 1010 1034 1074 1039 1029 1043 995 1029 1075 1141 1000 1062 1027 1128 1012 1084 1029 1021 1043 1049 1057 1035 1052 1006 1076 1035 1079 1031 1038 1055 1051 1058 1075 1054 1046 1026 1030 1084 1006 1096 1068 1032 1037 1018 1008 1084 1004 1025 1049 1041 1049 1111 1046 1038 1047 1016 1078 1071 1067 1079 967 1052 1044 1081 1079 1045 1056 1001 1044 1017 1036 1005 1026 1062 1057 989 1067 1089 1083 1030 1048 1029 1065 1061 1062 1002 1032 1042 1067 1039 1066 1034 1145 1038 994 1080 1017 1087 1017 1035 1022 1076 1045 1042 1088 1140 1055 1076 1125 1083 1062 1074 1068 1082 1067 1088 1092 1080 1073 1158 1115 1137 1111 1119 1122 1141 1167 1053 1105 1075 1081 1065 1095 1057 1126 1150 1104 1101 1055 1063 1172 1059 1100 1079 1040 1065 1153 1012 1068 1082 1022 1059 1025 1059 1093 1071 1030 1072 1084 1062 1067 1013 1028 1074 1083 1107 1102 1059 1039 1078 1025 1047 1111 1067 1025 1046 1053 1090 1084 1082 1060 1085 1092 1074 1136 1072 1116 1094 1158 1076 1109 1037 1030 1065 1067 1097 1082 1036 1094 1050 1123 1079 1111 1010 1024 1058 1043 1131 1044 1049 1043 1040 1099 1068 1078 1018 1041 1047 1032 1068 1127 1066 1087 1094 1091 1112 1085 1067 1058 1082 1113 1083 1066 1059 1111 1106 1099 1090 1097 1030 1049 1080 1084 1077 1073 1031 1055 1126 1005 1108 1034 1058 1079 1081 1123 1128 1054 1077 1054 1044 959 1011 1081 1119 1023 978 1076 1032 1023 1046 1040 974 1023 1065 1003 1073 1041 1065 998 1079 1027 1048 1069 1093 1019 1090 1050 1038 1058 1038 1055 1009 1053 1105 1054 1023 1026 1055 1055 1074 1015 1005 1035 1010 1038 1033 1002 982 1030 1066 1012 1052 1023 1037 1069 1026 1076 1057 1002 1006 1044 992 1062 1085 1003 1071 1098 1003 1081 1007 1001 1028 1049 1050 1016 1056 1068 973 1062 1007 973 1034 1028 1021 1002 1066 989 1054 1056 1054 1031 1034 1057 1035 1118 983 1061 1039 1058 1050 986 1059 989 1007 987 1050 1047 1047 1004 1038 1084 1063 1013 1073 1102 1003 1056 1025 1027 1056 1054 1043 996 1036 1009 1064 1047 986 1023 1041 1038 1004 1059 1036 1117 1098 1068 1017 1051 1090 1114 1065 1111 1107 1145 1056 1063 1130 1159 1217 1109 1111 1133 1185 1203 1181 1197 1234 1191 1266 1287 1249 1164 1264 1219 1269 1285 1206 1222 1250 1130 1152 1152 1160 1199 1131 1191 1174 1162 1149 1146 1162 1147 1173 1187 1184 1180 1137 1083 1155 1125 1123 1129 1129 1063 1121 1096 1014 1109 1048 1064 1072 1120 1085 1099 1029 1082 1093 1061 1081 1060 1048 1099 1063 1069 1108 1095 1126 1067 1074 1082 1051 1064 1096 1074 1069 1091 1155 1069 1087 1113 1085 1101 1123 1115 1135 1160 1152 1093 1175 1146 1168 1156 1176 1182 1206 1206 1239 1154 1171 1194 1167 1199 1222 1170 1125 1140 1174 1206 1165 1119 1158 1198 1123 1154 1200 1143 1178 1162 1101 1202 1137 1118 1165 1174 1112 1092 1049 1170 1026 1082 1131 1089 1104 1084 1163 1025 1070 1093 1102 1109 1140 1093 1132 1115 1112 1060 1072 1051 1070 1119 1013 1109 1127 1097 1137 1140 1102 1109 1158 1131 1165 1065 1077 1097 1146 1121 1192 1109 1151 1104 1152 1149 1143 1101 1126 1121 1115 1127 1100 1067 1084 1109 1130 1169 1113 1173 1152 1073 1133 1164 1138 1100 1101 1067 1070 1098 1114 1098 1063 1090 1015 1091 1050 1044 1062 1040 1092 1046 1021 1012 1032 1064 1003 1078 1024 1020 1048 999 1004 1039 1020 1000 1037 1021 1083 1055 1037 1035 1054 1071 1081 976 1072 1057 1099 987 1023 1042 1034 999 1028 1048 1010 1015 1002 1071 1004 1050 1074 1012 1034 1019 1098 1007 1107 1054 1032 1038 1058 1014 1022 1024 1036 1047 1101 1066 958 991 1045 995 962 1023 986 1041 1063 1021 1033 1059 1046 1052 1007 946 1042 996 1056 1007 1006 1069 1056 1086 1002 1027 1025 999 1071 1055 998 957 1045 1063 1041 1000 1019 1010 1042 1014 1005 1029 1082 1019 1038 1005 986 1132 1054 1014 986 1066 1000 1080 1031 1062 1046 1002 1024 1007 1029 1039 981 998 1079 939 1091 1051 1092 1015 1054 1015 1014 1053 982 1095 1030 1028 1029 1029 1049 1037 1006 997 1003 991 1052 1046 1025 1029 1021 1053 1029 1063 1064 991 1111 1037 1048 1043 1036 1057 1076 1000 1030 995 1057 1016 1069 1026 1024 1075 944 1041 1056 1029 982 1000 1022 1093 1017 1039 1019 997 1013 1015 1050 1025 1027 1076 984 1020 1049 998 1099 999 1018 985 1008 1093 1023 1107 1058 1002 1147 1023 1028 1064 1045 1020 1016 1052 1074 1030 1038 1017 1088 1064 1003 1070 1007 1016 994 1035 994 1046 1032 997 1083 1054 1058 1023 1000 1014 999 987 1036 1049 1033 1070 1043 1008 996 1033 1039 1020 1095 1052 1052 1056 1019 1026 1028 1057 1041 1033 1011 1011 1006 1032 999 1040 968 1075 1067 996 999 1010 961 1019 978 1091 1037 1048 1039 1015 963 991 1043 1004 1051 959 1073 1024 1050 1000 1038 1015 1000 1008 1076 1044 1052 1082 1001 1025 1043 1051 1054 1059 1015 1010 1025 1049 964 1033 996 976 1019 1059 1015 1057 1047 1004 1078 1037 974 1003 951 1005 1027 931 1045 1030 1043 987 1045 1003 1030 1028 1028 1038 1031 1072 1000 1034 985 1044 986 1114 1013 1040 1050 1054 1006 1026 968 1089 1020 1041 1036 1058 1057 1037 1064 1022 1028 1070 995 1064 1042 1020 1025 1058 1043 1051 973 971 1061 1054 1062 1067 1077 994 1077 981 1036 1062 1061 987 1038 1029 1067 1008 1019 1019 1035 989 1050 1003 1046 1048 1044 951 1052 1027 1059 1042 1058 998 1023 1007 1002 1080 1004 1091 1019 1046 1027 1034 1068 1032 972 1056 1051 1049 1023 1017 1056 1061 1035 1017 992 1047 1088 1050 1057 1049 1087 1026 1055 1047 1053 1069 1072 1092 1072 1040 1093 1142 1077 1152 1085 1185 1138 1079 1168 1179 1157 1143 1121 1141 1160 1194 1165 1186 1112 1095 1121 1069 1086 1109 1143 1097 1096 1161 1070 1110 1099 1161 1146 1082 1134 1124 1113 1120 1095 1082 1101 1170 1149 1117 1031 1092 1141 1013 1075 1066 1101 1078 1076 1088 1112 1104 1079 1108 1094 1129 1116 1112 1086 1119 1121 1102 1175 1140 1121 1132 1109 1121 1171 1074 1169 1139 1111 1090 1034 1121 1091 1078 1081 1140 1079 1059 1119 1139 1105 1098 1120 1077 1103 1091 1056 1057 1071 1093 1040 1051 1087 1045 1109 1093 1040 1039 1047 1029 1106 1062 1045 1016 1067 1067 1019 1057 1049 1099 988 1121 1061 1072 1045 1042 1101 1099 1098 1075 1033 1072 1037 1020 1068 1040 1002 1046 1038 1002 1025 1035 1073 1055 1054 1078 1102 1064 1118 999 1108 1048 1058 1042 1068 998 1064 1037 982 1063 969 1049 1032 1013 1009 1054 1069 1049 1045 1092 1063 1029 1050 1063 1060 1122 1046 1039 1021 1129 1072 1041 1103 1035 1054 1090 1049 992 1069 1056 1026 1057 1035 1083 1094 1051 1073 1087 1038 1053 1026 1063 1079 1008 1066 1111 1089 1096 1037 1088 1040 1100 1074 1084 1030 1096 1084 1079 1041 1081 1084 1008 1077 1092 1039 1047 1090 1032 1060 1086 1092 1100 1002 1086 1106 1100 1139 1055 1156 1117 1167 1130 1155 1188 1138 1166 1130 1183 1125 1129 1242 1206 1248 1145 1150 1135 1178 1176 1138 1132 1183 1121 1184 1215 1184 1149 1164 1190 1212 1255 1199 1177 1212 1207 1159 1185 1252 1149 1204 1292 1253 1213 1202 1198 1252 1296 1348 1295 1332 1386 1395 1434 1439 1488 1526 1525 1527 1655 1645 1613 1585 1616 1562 1615 1658 1635 1569 1563 1515 1511 1511 1554 1538 1534 1541 1576 1646 1559 1666 1644 1566 1683 1583 1647 1567 1524 1519 1598 1514 1525 1451 1454 1355 1353 1374 1317 1397 1324 1367 1307 1269 1347 1346 1243 1307 1260 1310 1286 1206 1253 1184 1208 1191 1203 1156 1154 1199 1157 1118 1182 1140 1174 1139 1153 1109 1126 1115 1107 1119 1208 1085 1134 1153 1112 1120 1104 1081 1100 1164 1157 1055 1134 1097 1093 1076 1131 1140 1115 1077 1105 1097 1078 1079 1067 1105 1111 1085 1046 1055 1083 1070 1093 1049 1022 1099 1082 1045 1072 1075 1056 1061 1102 1062 1004 1066 1058 1115 1059 1119 1031 1088 1065 1052 1048 1101 1118 1077 1090 1082 1068 1078 1043 1051 1061 1076 1078 1125 1074 1068 1126 1051 1039 1132 1095 1122 1134 1077 1135 1170 1077 1087 1108 1108 1133 1101 1081 1199 1146 1153 1102 1158 1123 1121 1175 1150 1124 1221 1111 1238 1220 1245 1239 1277 1148 1208 1210 1338 1260 1280 1386 1326 1336 1384 1307 1363 1372 1388 1462 1366 1390 1493 1456 1572 1388 1469 1451 1423 1447 1391 1382 1418 1348 1329 1276 1379 1296 1298 1278 1380 1291 1327 1312 1288 1339 1358 1326 1231 1280 1285 1276 1267 1245 1176 1269 1185 1213 1132 1212 1137 1241 1163 1169 1115 1196 1123 1215 1133 1079 1052 1088 1092 1099 1043 1082 1070 1081 1172 1054 1011 1102 1096 1103 1151 1125 1085 1044 1135 1077 1068 1119 1104 1110 1060 977 1067 1053 1058 1083 1047 1021 1064 1090 1070 1034 1071 1143 1073 1053 1018 1108 1027 1045 1076 1079 1020 1035 1050 1001 981 1030 1096 1061 1052 1066 1008 1046 1090 1132 1031 1090 1048 1055 1113 1050 1065 1048 1067 985 1098 1068 1048 1040 1031 1004 1122 1081 1083 1006 1026 1110 1064 1062 1036 1065 1092 1047 1040 1094 1079 1055 1062 1095 1071 1139 1090 1157 1044 1163 1127 1083 1008 1045 1047 1016 1018 1019 1094 1055 1069 999 1127 1083 1061 1006 1020 1067 1073 1109 1050 1064 1070 1056 1049 1057 1121 1016 1018 1052 1019 1041 1043 1023 1048 1001 1032 1086 1097 1084 1099 1032 1120 1017 1023 1084 1061 1076 1112 1045 1043 1013 1080 1016 1066 984 1054 1037 1014 1096 996 1052 1060 981 988 1073 1112 1101 1062 1031 1051 1058 971 1056 1070 1079 1061 1046 1039 1100 1045 1033 1043 1053 1059 1059 1040 1036 999 1021 1092 1009 1024 1020 1060 1055 1031 1130 1022 1008 1038 999 1062 1049 1081 1057 1020 1016 1090 1047 1014 1069 1044 1057 1065 1026 1023 1010 1013 1064 1040 1017 1053 1031 1009 1048 1046 1065 1073 1038 1042 1076 1043 1055 1042 1026 1007 1098 1037 1059 1036 1069 1073 1063 1093 983 1074 1023 1052 1012 1082 1068 1016 1065 1047 1033 988 1035 996 1069 1008 1068 1072 1073 977 1053 1004 1036 1053 1044 1025 1097 1014 1038 994 976 1039 1032 1071 1028 1022 986 1054 1034 1041 1060 1058 991 1080 1041 1074 1033 1071 1010 1044 1063 1077 1023 1037 1006 1026 1028 1107 976 1049 1077 1066 953 1051 994 1064 1092 1023 1066 986 1061 1036 1066 1033 1025 1033 1047 1038 981 1014 1079 1013 1024 1041 1008 996 980 1057 1066 1056 1042 1038 960 1033 1073 1049 1007 1068 1086 1047 983 1011 1077 1040 1066 1064 1061 1103 1052 1060 1008 1060 1017 1086 1073 1023 1124 1073 1112 1099 1073 1068 1078 1065 1013 1013 1082 1081 1040 1115 1085 1085 1071 1067 1072 1026 1067 1102 1145 1083 1090 1097 1081 1111 1102 1094 1054 1081 1144 1068 1102 1080 1038 1092 993 1105 1091 1041 1100 1055 1102 1060 1121 1104 1074 1149 1021 1134 1031 1105 1143 1066 1045 1071 1073 1061 1062 1074 993 1136 1068 1090 1056 1138 1094 1097 1065 1056 1090 1075 1010 1106 1064 1093 1150 1089 1037 1058 1067 1085 1121 1091 1070 1101 1161 1099 1139 1086 1108 1078 1064 1076 1082 1057 1060 1118 1019 1044 1042 1094 1061 1050 1094 1010 1088 1064 1064 1076 1005 1035 1128 1075 1058 999 1094 1060 1108 1069 1107 1047 1044 1065 1069 1091 1086 1036 1084 1107 1035 1048 1048 1098 1067 1118 975 1028 1072 1027 1066 1067 1077 991 1060 1115 1045 1094 1046 1056 1077 1063 1049 1064 1037 1041 1043 1009 1081 1097 1100 1075 1036 1030 1038 1077 1048 1018 1030 1053 1051 1027 1022 1036 1017 1054 1018 1073 1085 1071 1064 1005 1042 1100 1045 1070 1024 1015 1024 1076 1078 1060 1074 1114 1033 1132 1075 995 1071 1031 997 1051 1102 1013 1054 1030 1082 1045 1161 1094 1079 1023 1021 1043 1006 1054 1033 1012 997 1023 1072 1028 1059 1070 991 1050 1092 996 1030 981 1055 1119 1023 1097 1046 1066 1069 1057 1048 1004 1061 1040 1050 1072 1038 1030 1085 999 1079 1039 1076 1088 1087 1102 1110 1052 1126 1063 990 1008 1137 1086 1072 1066 1074 1054 1079 1117 1091 1049 1093 1069 1085 1077 1091 1108 1105 1070 1071 1143 1148 1066 1063 1138 1150 1079 1163 1060 1101 1226 1136 1214 1234 1228 1229 1300 1190 1273 1305 1375 1438 1451 1355 1448 1448 1545 1533 1508 1516 1510 1507 1530 1467 1553 1438 1380 1346 1319 1378 1353 1286 1289 1316 1292 1287 1304 1293 1304 1332 1347 1428 1353 1282 1317 1349 1394 1373 1342 1344 1297 1279 1256 1235 1259 1219 1307 1153 1144 1183 1185 1139 1177 1146 1141 1148 1137 1152 1127 1152 1093 1103 1168 1094 1102 1147 1095 1092 1149 1126 1143 1136 1129 1080 1097 1073 1118 1063 1127 1130 1140 1171 1134 1114 1105 1123 1169 1242 1129 1163 1230 1201 1185 1162 1217 1241 1151 1183 1194 1159 1160 1231 1135 1173 1145 1144 1159 1156 1156 1089 1120 1173 1207 1105 1091 1086 1121 1203 1178 1169 1138 1182 1132 1081 1152 1127 1109 1104 1118 1130 1108 1073 1078 1104 1118 1109 1122 1108 1091 1116 1111 1038 1098 1084 1138 1065 1079 985 1088 1082 1025 1101 1097 1058 1034 1103 1093 1071 1060 1089 1082 1106 1056 1100 1070 1044 1106 1091 1032 1042 1059 1136 1087 1095 1071 1063 1076 1121 1147 1139 1121 1143 1086 1096 1120 1158 1123 1181 1142 1125 1118 1200 1130 1092 1158 1134 1106 1206 1094 1082 1078 1120 1040 1123 1078 1029 1088 1103 1106 1038 1085 1052 1122 1113 1121 1077 1156 1129 1139 1175 1070 1091 1203 1134 1166 1131 1161 1091 1147 1147 1172 1163 1165 1127 1155 1131 1209 1184 1236 1149 1135 1068 1172 1104 1102 1120 1124 1078 1151 1147 993 1092 1079 1135 1085 1093 1124 1186 1094 1080 1162 1098 1067 1049 1106 1052 1101 1084 1078 1167 1084 1059 1078 1086 1111 1070 1075 1096 1051 1085 1041 1068 1095 1123 1048 1067 1076 1107 1089 999 1053 1034 1106 1078 987 1118 1122 1083 1070 1039 1040 1096 1070 1033 978 1018 1014 1075 1083 1071 1068 1032 1100 1081 1101 1071 1078 1042 1023 1120 1045 1056 1057 1077 1048 1074 1116 1052 1079 1039 1032 1112 1045 1063 1072 1076 1078 1033 1054 1079 1064 1066 1061 1048 1040 1069 1047 1048 1075 1062 1042 1118 1041 1074 1038 1050 1061 1096 1006 997 1046 1071 1111 1067 1093 1137 1078 1080 1100 991 1033 1073 1053 1089 1116 999 1070 1068 1083 1094 1033 994 1042 1025 1088 1096 1046 1038 1073 1065 1060 977 1097 1051 1076 1037 1064 1057 1037 1047 1019 1029 1020 1035 1095 1039 979 1034 1060 1086 1024 1021 1102 1052 1102 1067 1000 1036 1105 995 1053 1059 1008 1054 1054 1069 1071 998 1030 1044 1053 1022 1044 961 1067 1006 1000 1083 1011 1050 1004 1085 1093 1017 994 1050 1020 1035 1049 1001 1014 1023 1024 1006 992 1015 1107 1036 1007 1016 1031 1014 1088 1007 1062 1089 1028 1008 1012 1072 1059 1029 1094 1095 999 1037 1028 1000 1035 1010 1001 1044 1042 1029 1051 1057 1047 1014 1055 1082 1027 1027 1039 1050 1076 1035 1025 1084 1035 1073 984 1082 1045 1017 1013 1045 1064 1053 1020 1052 976 1018 997 1030 975 1044 1081 1020 1043 1039 1036 1038 1009 1058 971 1040 1103 1140 1023 974 995 1050 1051 1045 1079 1041 1034 1007 993 1042 1047 1012 976 1035 1084 1060 988 1035 1015 1017 1028 1060 1043 1028 1010 1013 966 1016 1088 963 1047 1060 1084 1028 1006 1072 1104 1105 1011 1011 1044 1042 1072 1026 1027 1105 1011 1020 1022 1006 1019 1064 1047 1075 1060 1061 1060 975 1081 1064 1007 1006 1004 981 1109 1053 1002 1045 1063 1006 1062 1070 963 1044 1027 1085 1079 1074 1078 982 1068 1106 1093 1028 1047 1014 1076 1024 1083 1077 1068 1089 1070 1099 1076 1089 1070 1078 1101 1115 1095 1165 1132 1114 1144 1115 1162 1117 1095 1066 1119 1078 1134 1117 1087 1050 1154 1095 1058 1057 1026 1030 1115 1045 1049 1050 1105 1084 1095 1047 1064 1118 1057 1101 1037 1089 1078 1075 1068 1087 1087 1107 1107 1125 1092 1080 1095 1136 1163 1099 1074 1082 1077 1047 1093 1070 1104 1101 1090 1112 1114 1079 1134 1096 1051 1122 1056 1020 1107 1079 1121 1088 1093 1060 1062 1076 1102 1077 1084 1065 1019 1034 1077 1078 1096 1064 1067 1130 1102 1146 1050 1062 1113 1058 1067 1086 1068 1096</counts>
			</dataPoints>
		</scan>
	</xrdMeasurement>
</xrdMeasurements>
