<?xml version="1.0"?>
<xrdMeasurements xmlns="http://www.xrdml.com/XRDMeasurement/2.3" xmlns:xsi="http://www.w3.org/2001/XMLSchema-instance" xsi:schemaLocation="http://www.xrdml.com/XRDMeasurement/2.3 http://www.xrdml.com/XRDMeasurement/2.3/XRDMeasurement.xsd" status="Completed" recordIdentifier="{F2892370-1C74-4160-A060-00D627A02343}">
	<comment>
		<entry/>
	</comment>
	<sample type="To be analyzed">
		<id>GPSS_Li1p8Bi0p2Mg0p8Cl4_122325_694ae824ae15af25ac37277b</id>
		<name></name>
		<preparedBy></preparedBy>
	</sample>
	<xrdMeasurement measurementType="Scan" status="Completed" sampleMode="Reflection">
		<usedWavelength intended="K-Alpha 1">
			<kAlpha1 unit="Angstrom">1.5405980</kAlpha1>
			<kAlpha2 unit="Angstrom">1.5444260</kAlpha2>
			<kBeta unit="Angstrom">1.3922500</kBeta>
			<ratioKAlpha2KAlpha1>0.5000</ratioKAlpha2KAlpha1>
		</usedWavelength>
		<incidentBeamPath>
			<radius unit="mm">145.00</radius>
			<xRayTube id="1010048" name="Empyrean Cu LFF HR (9430 033 7310x)">
				<tension unit="kV">40.0</tension>
				<current unit="mA">15.0</current>
				<anodeMaterial>Cu</anodeMaterial>
				<focus type="Line">
					<length unit="mm">12.0</length>
					<width unit="mm">0.4</width>
					<takeOffAngle unit="deg">6.0</takeOffAngle>
				</focus>
			</xRayTube>
			<sollerSlit id="21010002" name="Soller slits 0.04 rad.">
				<opening unit="rad">0.0400</opening>
			</sollerSlit>
			<mask id="22031000" name="Fixed mask 13 mm">
				<width unit="mm">9.00</width>
			</mask>
			<divergenceSlit id="22120001" name="Divergence slit 1°" xsi:type="fixedDivergenceSlitType">
				<distanceToSample unit="mm">50.00</distanceToSample>
				<height unit="mm">1.52</height>
			</divergenceSlit>
		</incidentBeamPath>
		<sampleMovement xsi:type="spinningSampleMovementType">
			<spinnerRevolutionTime unit="seconds">1.0</spinnerRevolutionTime>
		</sampleMovement>
		<diffractedBeamPath>
			<radius unit="mm">145.00</radius>
			<antiScatterSlit id="22090040" name="AS slit 9 mm (PIXcel)" xsi:type="fixedAntiScatterSlitType">
				<height unit="mm">9.00</height>
			</antiScatterSlit>
			<sollerSlit id="21020003" name="Large Soller slits 0.04 rad.">
				<opening unit="rad">0.0400</opening>
			</sollerSlit>
			<filter id="20030001" name="Large beta-filter Nickel">
				<material>Ni</material>
				<thickness unit="mm">0.020</thickness>
			</filter>
			<detector id="7010019" name="PIXcel1D-Medipix3 detector" xsi:type="rtmsDetectorType">
				<phd unit="keV">
					<lowerLevel>4.02</lowerLevel>
					<upperLevel>11.27</upperLevel>
				</phd>
				<mode>Scanning</mode>
				<activeLength unit="deg">5.542</activeLength>
			</detector>
		</diffractedBeamPath>
		<scan appendNumber="0" mode="Continuous" scanAxis="Gonio" status="Completed">
			<header>
				<startTimeStamp>2025-12-25T14:25:51-08:00</startTimeStamp>
				<endTimeStamp>2025-12-25T14:33:58-08:00</endTimeStamp>
				<author>
					<name>AutomatedUser</name>
				</author>
				<source>
					<applicationSoftware version="1.7b (136)">PANalytical Aeris Instrument Suite</applicationSoftware>
					<instrumentControlSoftware version="3.2.00000000 20240306">AERIS</instrumentControlSoftware>
					<instrumentID>950485</instrumentID>
				</source>
			</header>
			<dataPoints>
				<positions axis="2Theta" unit="deg">
					<startPosition>10.00943322</startPosition>
					<endPosition>99.99442286</endPosition>
				</positions>
				<positions axis="Omega" unit="deg">
					<startPosition>5.00471661</startPosition>
					<endPosition>49.99721143</endPosition>
				</positions>
				<commonCountingTime unit="seconds">12.495</commonCountingTime>
				<counts unit="counts">3450 3505 3443 3472 3560 3463 3457 3428 3505 3340 3427 3503 3456 3503 3521 3497 3448 3411 3424 3525 3460 3408 3457 3513 3547 3561 3524 3511 3458 3462 3496 3419 3480 3493 3550 3623 3505 3581 3571 3618 3502 3522 3604 3553 3557 3616 3432 3535 3613 3498 3638 3603 3446 3637 3596 3599 3496 3665 3602 3544 3678 3578 3554 3629 3561 3749 3670 3593 3644 3659 3618 3715 3569 3692 3689 3705 3634 3717 3797 3648 3856 3736 3682 3738 3757 3787 3692 3778 3679 3691 3767 3673 3839 3759 3687 3787 3708 3701 3823 3807 3832 3788 3876 3837 3815 3805 3832 3882 3803 3807 3880 3790 3824 3836 3861 3737 3732 3801 3834 3891 3912 3855 3824 3760 3989 3948 3970 3944 3942 3813 3926 3864 3928 3834 3908 3888 3866 3947 3932 3933 3900 3992 3918 3875 3925 3909 3899 4001 3878 3938 4074 3944 3869 3994 3879 3962 3834 3959 3859 3833 3922 3870 3930 3983 3824 3807 3884 3916 3924 3934 4031 3950 3821 3929 3918 3992 3910 3922 3919 3980 3910 3925 3902 3912 3835 3895 3926 3967 3917 3870 3928 3903 3940 3997 3898 3962 3890 3878 3875 3888 3769 3887 3982 3839 3889 3814 3825 3812 3790 3821 3755 3859 3890 3863 3864 3750 3711 3848 3819 3758 3808 3704 3678 3744 3691 3643 3761 3705 3743 3692 3608 3606 3654 3722 3733 3637 3712 3671 3716 3728 3768 3755 3701 3752 3670 3692 3736 3732 3651 3609 3645 3769 3592 3676 3642 3597 3707 3635 3666 3593 3588 3586 3702 3510 3556 3572 3533 3470 3533 3561 3602 3482 3577 3645 3492 3567 3564 3548 3514 3619 3578 3482 3578 3582 3489 3550 3608 3598 3540 3524 3562 3544 3542 3642 3461 3504 3565 3491 3574 3571 3521 3511 3571 3576 3537 3637 3567 3526 3617 3470 3565 3498 3539 3431 3523 3614 3615 3585 3533 3661 3644 3555 3548 3549 3599 3431 3567 3610 3542 3539 3692 3525 3534 3520 3677 3564 3640 3523 3570 3554 3665 3436 3693 3594 3623 3715 3542 3637 3558 3618 3618 3626 3585 3641 3580 3508 3606 3535 3700 3635 3671 3886 3664 3741 3698 3722 3687 3624 3652 3705 3605 3682 3699 3647 3599 3643 3728 3690 3770 3613 3744 3722 3671 3673 3719 3769 3725 3720 3666 3806 3657 3710 3830 3727 3651 3715 3616 3703 3771 3681 3719 3694 3773 3822 3779 3780 3684 3790 3685 3802 3678 3803 3807 3831 3704 3844 3902 3886 3957 4011 3831 3982 3844 3902 3912 3974 3957 3985 3865 4014 4008 3872 4177 4005 4044 4036 4149 4103 4218 3989 4263 4031 4126 4134 4201 4219 4270 4421 4398 4474 4469 4621 4613 4608 4701 4816 4775 4896 4867 4777 4748 4889 4700 4752 4687 4401 4228 4132 4018 4066 3895 3900 3906 3684 3778 3881 3755 3892 3764 3819 3795 3749 3798 3762 3726 3853 3884 3856 3891 3860 3852 3828 3788 3678 3704 3794 3740 3657 3832 3704 3663 3704 3708 3632 3694 3711 3607 3826 3579 3771 3782 3691 3662 3692 3607 3665 3496 3612 3710 3602 3480 3453 3467 3416 3535 3392 3390 3371 3363 3377 3328 3362 3323 3277 3354 3354 3277 3329 3362 3263 3222 3327 3256 3318 3225 3419 3314 3295 3296 3196 3148 3254 3279 3230 3307 3306 3321 3226 3241 3196 3189 3191 3275 3219 3304 3157 3312 3146 3223 3309 3151 3139 3130 3232 3198 3182 3231 3060 3168 3174 3254 3195 3184 3132 3183 3193 3043 3090 3224 3059 3114 3016 3105 3151 3073 3024 3131 3135 3019 3030 3145 3074 3051 3078 2976 3058 3093 3059 3038 3011 2995 3112 3059 3010 3045 2949 2975 3037 2993 3040 3006 2979 3003 2999 3038 2956 3038 2923 3052 2942 2952 3024 2898 2942 2986 2940 2882 2910 2910 2936 3044 2891 2899 3053 2874 2974 3049 2862 3044 2987 2869 2851 2956 2844 2982 2989 2945 3011 2961 2851 2929 2885 2932 2977 2893 2999 2960 3000 2907 2838 2903 2832 2941 2989 2951 2895 2907 2855 2870 2861 2920 2824 2834 2859 2845 2865 2812 2873 2784 2812 2884 2866 2835 2785 2866 2872 3048 2789 2926 2879 2835 2932 2744 2915 2786 2785 2832 2752 2929 2786 2871 2865 2772 2738 2871 2797 2813 2786 2837 2766 2861 2789 2838 2812 2811 2809 2794 2780 2763 2803 2782 2864 2745 2716 2760 2781 2799 2833 2804 2758 2711 2763 2699 2862 2744 2813 2674 2797 2770 2838 2760 2848 2738 2745 2790 2701 2850 2734 2743 2788 2829 2744 2710 2852 2833 2769 2631 2688 2773 2719 2738 2759 2752 2704 2803 2688 2844 2726 2720 2755 2788 2742 2736 2808 2853 2779 2660 2721 2794 2755 2770 2672 2829 2677 2699 2790 2708 2671 2771 2724 2796 2764 2639 2696 2724 2687 2692 2737 2715 2792 2653 2634 2671 2662 2655 2694 2686 2727 2741 2720 2725 2605 2682 2707 2629 2681 2727 2607 2710 2660 2718 2714 2736 2659 2654 2570 2564 2602 2648 2670 2583 2694 2607 2692 2656 2543 2625 2659 2590 2644 2585 2640 2589 2582 2661 2638 2763 2638 2599 2599 2556 2704 2607 2585 2578 2518 2596 2639 2561 2615 2644 2533 2572 2563 2571 2593 2524 2598 2663 2635 2527 2537 2502 2586 2500 2576 2568 2595 2522 2662 2553 2619 2611 2426 2613 2513 2568 2505 2499 2595 2526 2478 2469 2584 2510 2502 2485 2593 2488 2462 2532 2574 2457 2487 2494 2479 2524 2486 2642 2513 2521 2503 2503 2403 2531 2581 2443 2402 2419 2560 2484 2397 2641 2474 2477 2446 2502 2464 2422 2442 2506 2492 2479 2483 2412 2456 2527 2396 2497 2424 2500 2530 2575 2444 2451 2448 2387 2426 2478 2411 2442 2411 2460 2371 2432 2476 2362 2412 2436 2579 2462 2417 2513 2402 2424 2460 2353 2454 2293 2502 2385 2490 2463 2465 2399 2387 2356 2481 2466 2322 2389 2381 2438 2505 2431 2396 2433 2347 2350 2446 2453 2422 2376 2413 2435 2345 2381 2507 2375 2319 2347 2402 2336 2376 2413 2388 2267 2375 2410 2350 2349 2363 2371 2413 2368 2403 2324 2353 2387 2392 2500 2395 2462 2417 2393 2381 2455 2352 2361 2348 2409 2418 2329 2481 2358 2438 2425 2410 2429 2380 2399 2464 2388 2325 2418 2405 2368 2428 2378 2409 2382 2412 2426 2447 2469 2349 2373 2397 2362 2368 2467 2402 2458 2516 2432 2376 2385 2437 2367 2381 2470 2418 2355 2474 2449 2435 2372 2373 2405 2412 2434 2378 2421 2355 2375 2359 2383 2392 2389 2481 2334 2396 2415 2429 2398 2379 2335 2334 2362 2383 2297 2401 2360 2317 2286 2401 2253 2430 2395 2354 2399 2328 2362 2344 2422 2283 2374 2382 2436 2339 2356 2336 2353 2306 2321 2377 2385 2321 2214 2404 2300 2309 2307 2308 2246 2353 2336 2326 2374 2269 2343 2278 2336 2306 2210 2335 2267 2267 2258 2196 2282 2201 2280 2247 2147 2272 2217 2230 2265 2249 2306 2259 2179 2270 2114 2254 2273 2248 2213 2221 2200 2209 2260 2135 2292 2142 2167 2192 2143 2124 2176 2124 1985 2034 2064 2196 2113 2082 2169 2074 1983 2120 2136 2057 2073 2065 2064 2025 2055 1978 2090 2026 2125 1910 1981 2022 2004 2018 1982 1989 2023 1962 1958 2022 1965 1994 2000 1892 1997 1948 1947 1957 1934 1945 2029 1938 1983 1915 1915 2045 1927 1929 1911 1939 1956 1890 1914 1841 1894 1893 1919 1878 1964 1815 1888 1866 1853 1862 1795 1840 1925 1895 1820 1734 1785 1831 1807 1834 1814 1789 1837 1798 1740 1788 1759 1800 1772 1773 1743 1727 1827 1736 1738 1806 1819 1701 1819 1800 1694 1740 1779 1739 1752 1710 1718 1665 1741 1692 1675 1741 1678 1680 1746 1737 1691 1667 1709 1693 1673 1709 1781 1659 1691 1707 1713 1757 1658 1696 1722 1706 1838 1603 1643 1668 1684 1769 1721 1673 1724 1673 1610 1649 1701 1714 1609 1763 1593 1644 1636 1619 1679 1630 1674 1659 1688 1603 1589 1645 1642 1537 1621 1619 1605 1597 1630 1632 1654 1614 1643 1690 1594 1643 1631 1634 1651 1721 1600 1526 1648 1627 1659 1660 1594 1663 1636 1657 1596 1572 1559 1655 1601 1614 1555 1587 1553 1674 1625 1614 1653 1540 1614 1604 1638 1616 1606 1635 1647 1591 1530 1571 1598 1657 1513 1609 1623 1570 1646 1525 1609 1554 1612 1672 1573 1592 1619 1571 1639 1587 1632 1655 1545 1613 1585 1598 1567 1625 1575 1671 1583 1667 1476 1612 1599 1624 1487 1595 1547 1650 1561 1610 1577 1624 1605 1552 1637 1615 1573 1589 1599 1611 1588 1603 1660 1628 1569 1632 1586 1661 1661 1593 1720 1643 1627 1574 1588 1663 1567 1596 1599 1612 1594 1608 1598 1649 1570 1673 1590 1581 1710 1580 1636 1579 1592 1591 1647 1588 1609 1636 1606 1624 1585 1597 1569 1662 1556 1519 1662 1539 1565 1559 1560 1558 1546 1625 1564 1607 1624 1625 1551 1622 1531 1525 1519 1568 1548 1552 1572 1538 1570 1556 1631 1488 1511 1453 1555 1524 1626 1570 1574 1591 1615 1502 1606 1499 1539 1526 1494 1547 1539 1589 1554 1522 1523 1493 1441 1539 1490 1479 1520 1548 1547 1489 1494 1434 1521 1503 1554 1451 1535 1464 1517 1435 1455 1503 1510 1467 1485 1487 1486 1449 1529 1428 1404 1450 1446 1447 1404 1491 1443 1504 1443 1386 1411 1474 1428 1377 1440 1421 1373 1414 1367 1425 1340 1370 1436 1326 1374 1368 1348 1401 1330 1371 1329 1342 1268 1395 1306 1388 1328 1370 1380 1379 1372 1197 1372 1382 1344 1275 1300 1346 1384 1283 1286 1315 1268 1273 1209 1257 1279 1308 1289 1271 1232 1283 1268 1281 1254 1319 1220 1268 1299 1265 1251 1279 1205 1307 1287 1262 1201 1203 1263 1256 1249 1247 1173 1226 1233 1261 1269 1241 1256 1202 1204 1200 1231 1285 1220 1220 1206 1156 1140 1210 1191 1197 1214 1268 1285 1178 1184 1144 1284 1207 1228 1253 1220 1286 1227 1295 1301 1238 1321 1280 1281 1226 1255 1276 1263 1285 1218 1289 1359 1410 1307 1271 1350 1326 1393 1420 1369 1479 1508 1504 1512 1487 1566 1478 1464 1415 1455 1439 1432 1381 1384 1383 1378 1335 1295 1297 1279 1169 1149 1141 1204 1134 1172 1233 1099 1158 1133 1162 1140 1152 1071 1218 1217 1064 1172 1128 1128 1174 1063 1173 1093 1143 1163 1056 1125 1180 1111 1120 1090 1148 1138 1133 1179 1124 1172 1139 1154 1094 1085 1147 1135 1189 1177 1201 1144 1238 1115 1201 1151 1138 1251 1306 1280 1303 1276 1399 1350 1467 1468 1534 1611 1683 1778 1902 2061 2173 2332 2406 2506 2572 2651 2782 2793 2759 2763 2758 2669 2776 2871 2776 2850 2947 2908 3037 3229 3260 3473 3739 3972 4191 4495 5012 5367 5788 6311 6389 6881 7116 7657 7795 8143 8247 8332 8160 8252 7992 7761 7414 6854 6235 5709 5154 4756 4410 3887 3522 3036 2900 2626 2404 2200 2108 2181 2151 2062 2043 2125 2047 2074 1942 1997 2109 2092 2146 2119 2075 2088 2086 2016 1991 1961 1980 1881 1871 1750 1686 1563 1495 1540 1536 1388 1408 1322 1324 1292 1276 1253 1146 1159 1224 1236 1102 1168 1142 1026 1100 1092 1091 1106 1041 994 968 1045 979 991 976 897 972 924 969 922 912 911 882 978 865 912 917 865 943 900 933 905 904 907 924 926 979 939 950 872 906 880 851 886 847 845 884 860 887 879 817 923 889 922 840 896 859 887 961 900 900 860 899 898 897 911 893 910 922 858 868 903 870 882 841 897 861 854 936 909 835 853 814 874 800 816 860 838 855 817 864 831 884 870 797 822 796 836 845 816 880 838 812 769 810 882 869 831 834 849 837 830 803 854 825 853 779 813 834 828 872 806 849 823 855 834 829 851 795 783 849 873 827 815 780 837 809 804 815 832 848 816 819 808 812 860 858 816 815 783 860 862 804 856 808 854 811 866 801 887 872 850 877 838 862 819 871 853 805 847 829 883 770 859 803 830 817 841 877 855 847 913 828 881 829 857 776 854 862 824 839 899 882 877 832 831 848 832 776 834 805 749 818 744 839 850 773 764 850 753 793 811 811 811 791 824 776 787 818 828 734 792 711 821 763 775 773 771 779 809 814 810 763 820 772 782 768 787 713 752 768 817 723 793 753 769 776 798 787 812 793 818 792 757 793 810 832 801 791 800 767 786 803 815 792 814 744 820 755 849 803 818 769 796 830 759 828 838 762 754 860 843 839 815 811 876 823 855 790 778 841 908 804 835 874 799 819 811 771 925 804 812 897 824 785 852 861 822 863 785 806 807 762 773 779 825 797 858 811 893 858 908 912 874 924 933 908 931 988 1021 1017 1120 1120 1185 1280 1282 1387 1503 1651 1789 1811 1881 2099 2055 2084 2195 2217 2311 2324 2358 2334 2437 2549 2721 2657 2846 3058 3233 3255 3406 3532 3727 3959 4327 4429 4945 5200 5534 5918 6430 6570 6948 7101 7350 7427 7654 7514 7419 7150 6822 6429 6129 5488 5196 4831 4481 4035 3637 3458 3126 2713 2494 2325 2132 2024 1871 1782 1678 1675 1564 1487 1596 1489 1519 1610 1624 1611 1701 1712 1807 1718 1787 1828 1921 1971 1991 1978 1935 1973 1850 1801 1685 1669 1647 1527 1450 1352 1338 1231 1178 1069 1099 1069 964 922 935 941 894 885 846 862 866 819 844 842 760 792 778 824 759 767 777 837 791 783 791 765 789 808 752 746 742 709 712 748 792 726 777 731 723 726 782 693 710 727 699 728 737 709 743 746 690 743 755 728 707 741 692 728 717 711 759 706 749 728 763 733 741 697 731 691 693 690 708 701 718 729 744 676 702 677 790 698 756 700 700 703 706 710 730 753 761 706 696 711 741 715 766 722 746 698 746 704 738 746 728 723 796 730 747 747 733 760 741 786 740 735 826 701 761 735 726 752 704 685 751 713 743 741 754 702 706 664 699 742 693 672 659 658 666 683 665 646 678 715 688 661 637 683 627 652 682 675 691 583 687 581 697 670 661 609 689 654 601 663 647 672 680 614 657 639 594 593 661 651 618 629 619 637 660 668 642 672 667 615 653 653 628 675 630 626 652 663 634 622 618 557 658 650 586 602 612 612 597 616 688 567 587 652 621 617 644 660 564 636 595 658 617 624 618 615 595 630 607 594 643 657 587 646 607 665 624 628 633 651 635 681 576 595 658 646 594 633 613 616 604 611 598 604 618 598 562 598 585 626 621 609 642 589 620 597 608 690 568 586 572 628 598 584 619 608 609 553 615 584 594 573 631 538 572 628 622 606 604 600 538 639 613 564 591 573 587 603 591 570 625 580 607 573 612 586 623 523 602 595 597 570 565 571 578 564 580 586 593 583 564 585 619 581 583 530 527 595 576 554 592 588 549 598 591 567 567 557 523 578 579 588 576 580 534 604 567 580 523 575 601 602 551 579 553 591 570 603 570 594 545 586 572 545 554 543 557 566 576 608 553 521 535 599 537 553 576 509 559 557 522 604 551 578 642 602 564 550 558 578 572 554 603 531 564 597 580 564 563 542 564 524 524 631 620 557 524 569 591 572 533 561 528 571 539 542 541 560 582 579 561 574 597 542 603 587 535 608 544 558 576 581 600 548 557 573 526 599 608 569 541 574 578 514 564 603 533 576 555 537 570 553 553 558 550 545 593 543 505 564 516 548 487 539 516 546 560 550 527 545 529 512 582 577 565 563 513 553 544 538 543 533 548 520 572 580 534 553 543 562 538 519 549 580 570 556 526 534 582 548 526 585 510 530 583 562 566 616 552 534 564 540 537 585 532 557 614 540 585 616 530 591 573 585 538 534 554 597 586 525 566 534 567 586 565 602 560 549 569 575 553 581 583 579 566 570 553 616 599 578 553 579 562 612 607 578 561 591 579 583 541 554 569 555 531 556 544 580 596 518 538 537 599 565 540 558 550 576 585 552 547 546 549 517 538 536 513 569 538 522 540 569 537 529 536 521 508 544 521 531 523 504 485 508 537 516 534 552 553 483 549 505 528 530 545 545 546 522 511 527 549 512 461 516 525 532 480 498 510 549 511 574 533 542 518 563 490 582 531 482 503 517 554 564 500 497 539 550 536 540 513 513 552 523 515 549 582 540 518 550 575 571 523 586 560 575 541 568 528 508 521 556 554 578 570 594 556 589 588 589 575 588 558 601 546 586 590 539 570 528 587 592 600 553 531 564 559 540 526 525 551 578 507 556 549 510 551 552 563 541 539 549 575 596 541 513 551 531 546 574 562 545 565 571 535 571 574 540 547 584 528 554 515 523 534 511 572 562 530 533 509 482 507 495 508 544 528 504 563 529 493 583 532 526 517 497 521 501 531 492 492 501 524 584 498 509 527 533 521 484 458 557 528 513 514 524 533 502 510 526 460 500 531 503 543 473 556 509 523 516 492 483 493 505 504 519 460 509 497 453 511 514 525 488 483 507 502 483 476 505 449 481 484 450 473 528 476 523 517 537 510 496 487 489 474 494 469 488 480 493 501 506 527 490 483 517 499 574 500 556 525 483 506 541 504 523 536 545 490 540 506 543 504 509 533 528 505 529 554 554 554 568 562 529 559 561 551 536 522 538 550 527 572 506 492 487 524 509 515 509 512 521 509 481 514 487 479 479 485 520 466 452 469 487 493 485 471 481 496 502 481 512 557 563 556 591 580 582 603 609 599 641 592 633 659 670 682 663 705 665 735 696 704 747 743 807 833 827 877 861 928 910 990 974 1050 1049 1105 1152 1190 1163 1190 1101 1147 1199 1090 1128 982 1049 966 933 926 813 883 780 800 839 767 717 704 681 596 616 605 602 550 554 560 573 574 552 510 551 498 515 483 522 490 471 495 470 456 530 485 504 451 495 492 476 497 479 530 487 486 520 466 497 492 477 490 475 474 506 480 496 452 455 497 494 506 450 496 475 492 468 536 466 487 456 494 469 503 442 463 504 506 490 456 465 522 471 502 494 434 452 469 462 424 525 476 499 491 469 495 506 476 475 489 438 469 477 426 442 443 439 472 464 422 461 463 473 493 476 478 500 428 467 421 468 467 441 430 470 448 464 438 452 466 485 498 415 452 449 481 458 509 502 462 471 455 492 472 485 499 429 477 465 466 490 465 443 456 477 500 423 506 454 465 437 457 484 472 446 457 486 458 442 464 441 479 460 455 476 493 483 488 432 476 490 441 431 468 471 502 419 504 461 486 478 466 443 477 488 472 484 451 462 488 463 494 494 452 468 469 459 497 460 499 498 507 464 472 482 483 468 505 508 476 471 509 460 453 477 457 464 526 496 526 488 514 500 454 444 496 500 488 488 450 494 487 466 467 482 497 505 516 477 486 440 478 564 486 491 455 493 476 509 490 510 525 485 439 501 503 477 501 481 475 499 486 480 500 470 470 463 487 446 484 540 471 467 474 470 496 510 509 471 464 487 500 495 459 489 445 486 476 479 482 473 515 477 504 481 487 469 506 495 527 465 542 525 478 489 480 472 538 499 498 547 498 549 515 515 494 507 515 504 556 507 540 554 560 566 540 542 558 612 628 618 631 642 637 650 698 733 838 852 915 1049 1084 1227 1207 1231 1375 1331 1444 1505 1517 1570 1625 1665 1796 1834 1899 1872 1945 2088 2192 2304 2517 2586 2778 2989 3167 3327 3667 3799 3857 4226 4358 4554 4563 4875 4842 4841 4822 4817 4514 4218 4227 4136 3937 3696 3519 3332 3211 3051 2872 2664 2558 2264 2165 2010 1884 1614 1581 1451 1338 1215 1164 1126 1043 1019 972 926 909 871 865 805 890 864 838 887 876 881 818 807 827 798 786 872 874 837 921 917 897 964 959 951 947 977 970 984 911 958 988 882 939 898 874 811 850 772 883 836 751 759 741 684 704 686 664 651 631 653 595 571 598 571 549 522 523 513 520 553 551 518 515 512 547 436 506 495 522 500 481 472 469 509 507 468 487 477 499 478 464 490 502 482 463 480 447 454 463 467 462 449 481 482 462 502 444 460 466 462 505 455 450 471 448 428 481 463 450 449 466 442 427 456 469 441 444 470 478 474 426 444 431 441 418 418 444 449 440 436 489 461 421 443 437 437 438 532 427 483 474 439 426 429 475 452 432 447 487 431 476 422 481 490 458 501 496 475 454 512 498 513 451 474 529 492 486 546 499 509 518 578 543 552 588 557 536 564 606 658 563 639 651 627 648 650 666 678 710 703 751 758 681 717 684 694 681 725 661 673 625 665 618 634 631 604 568 571 527 572 551 537 549 525 515 485 523 485 487 466 464 476 498 460 495 467 439 474 456 411 439 471 480 462 461 448 475 471 506 484 437 462 492 490 519 477 510 501 432 483 519 453 506 494 484 486 516 454 472 470 490 489 467 469 459 485 468 452 475 436 420 418 478 448 441 461 419 488 481 435 453 393 437 386 453 429 403 414 441 421 446 431 439 381 455 424 440 403 358 420 398 418 436 439 417 385 407 437 396 417 377 418 401 426 383 455 409 393 407 409 409 411 402 375 393 393 426 437 402 429 392 409 406 419 403 421 417 416 400 407 393 429 395 437 420 441 392 386 424 382 443 390 400 373 427 395 405 429 386 448 411 380 390 457 369 381 400 407 403 400 397 402 431 375 376 414 446 402 413 380 416 425 369 436 369 382 401 393 430 377 374 433 398 433 402 396 370 383 381 407 387 400 367 410 396 365 379 409 429 400 404 375 451 418 393 436 352 366 426 385 420 420 399 359 391 405 399 409 397 375 393 388 415 390 416 404 436 428 448 393 413 365 398 413 396 416 367 427 427 434 432 437 399 419 358 416 424 373 383 413 437 430 450 392 361 383 382 395 358 423 392 386 421 371 439 402 419 357 394 389 400 379 405 387 410 407 408 395 381 414 392 416 380 415 434 436 411 410 408 444 433 438 375 359 360 410 433 413 397 400 423 383 400 401 369 398 359 431 371 349 397 390 389 358 375 404 407 379 428 348 400 392 401 383 391 371 351 350 362 356 400 382 399 383 437 372 386 405 383 392 375 392 362 328 368 356 398 365 377 402 382 366 342 386 373 405 346 369 364 408 336 363 375 370 380 336 349 366 360 367 359 373 376 371 366 408 393 394 366 375 376 370 398 413 377 388 369 398 373 376 377 373 375 392 400 401 359 397 386 338 355 397 411 355 425 367 390 390 415 414 378 383 391 361 394 399 415 373 394 418 386 366 405 402 383 421 382 396 418 384 393 367 383 385 394 385 419 383 394 420 370 395 368 401 382 386 374 386 366 374 377 384 377 363 362 369 368 358 389 392 397 383 375 381 372 359 374 348 358 383 351 371 391 371 398 381 353 421 371 356 380 400 391 395 402 413 380 399 393 383 332 397 366 366 375 366 421 389 375 363 370 396 396 362 392 380 363 389 362 405 389 377 359 401 409 409 378 400 397 377 404 386 393 436 420 397 413 411 432 363 400 428 397 459 383 408 386 447 426 428 453 411 441 465 462 433 443 459 453 402 447 407 446 418 427 446 395 418 410 411 459 463 428 416 468 391 430 416 450 431 443 430 453 458 462 512 523 533 582 568 613 679 630 637 667 736 687 722 716 779 788 879 894 884 939 1021 1007 1057 1141 1206 1220 1316 1387 1450 1492 1542 1658 1650 1755 1792 1812 1841 1785 1868 1923 1876 1743 1685 1711 1627 1578 1566 1500 1432 1437 1265 1288 1200 1198 1117 1164 1068 1005 961 864 857 838 798 685 616 653 645 634 585 630 557 551 522 522 496 489 482 527 461 504 514 495 518 454 486 516 480 470 494 508 528 523 565 523 524 578 537 576 597 598 629 579 579 631 583 644 661 636 638 667 680 671 621 655 602 627 621 586 610 585 549 624 549 532 559 568 498 501 571 538 506 481 471 456 463 453 467 434 478 428 440 435 432 437 392 383 412 411 434 398 406 342 389 413 375 405 349 410 380 424 352 361 362 383 431 408 387 391 347 395 363 411 374 381 343 333 376 379 364 394 379 377 377 357 430 333 396 367 388 369 358 392 359 385 377 381 378 372 373 392 345 343 367 392 336 386 380 391 381 375 339 409 374 408 347 370 381 375 340 396 389 386 327 385 400 359 382 388 347 352 352 374 389 367 393 357 388 381 358 378 373 356 411 397 409 384 398 389 393 432 372 382 378 415 432 405 391 399 419 426 407 407 445 399 396 450 437 484 484 509 537 564 552 548 519 612 617 703 671 706 679 711 725 758 774 777 815 876 947 988 1084 1032 1192 1252 1234 1359 1355 1492 1473 1548 1555 1578 1547 1573 1575 1485 1412 1515 1494 1406 1328 1359 1312 1313 1229 1251 1254 1147 1130 1087 1113 974 972 918 878 835 803 777 674 665 650 660 590 538 609 562 522 555 493 533 500 459 514 459 480 466 432 447 443 460 406 439 459 440 475 477 423 458 446 463 432 448 423 452 433 475 431 503 457 473 474 488 492 555 494 477 511 528 521 509 500 535 490 484 507 547 501 494 526 464 469 496 438 483 443 439 447 441 430 372 426 442 419 399 415 429 396 386 375 432 392 376 342 365 347 406 354 402 393 368 366 385 382 382 347 387 390 387 388 359 337 385 350 324 373 364 374 386 393 403 339 339 350 378 371 345 405 366 353 356 335 362 390 378 324 356 349 349 356 360 335 369 325 381 373 398 361 362 381 439 385 404 438 401 406 397 413 440 404 413 444 455 481 470 493 443 473 475 524 554 551 556 500 525 555 572 587 550 546 518 569 517 505 563 547 569 503 503 509 504 515 496 517 499 493 457 426 454 451 440 415 416 406 425 432 408 369 355 395 387 357 366 356 326 334 390 352 365 340 335 350 321 341 319 322 323 346 337 335 362 336 341 365 337 351 366 348 362 353 347 330 377 320 381 339 283 330 331 381 330 356 347 342 349 313 331 309 356 338 320 339 332 315 342 379 341 334 326 345 332 311 308 303 285 302 327 317 340 314 321 366 329 316 331 343 335 331 311 328 342 351 344 341 334 341 325 315 332 327 343 326 350 290 344 327 347 316 313 335 350 321 354 336 325 313 308 305 319 335 300 305 336 335 332 357 334 326 311 332 325 338 325 304 341 292 363 324 327 343 327 318 344 323 328 319 322 347 355 323 356 317 360 300 354 323 362 290 342 318 293 342 322 293 336 358 316 290 306 306 307 334 316 327 303 319 319 327 324 337 344 315 309 310 308 332 333 353 324 320 359 298 298 312 321 279 340 333 338 359 302 316 321 303 341 292 343 325 336 323 309 323 297 314 274 286 313 316 271 320 316 344 339 327 326 286 333 298 299 303 330 301 341 295 327 340 308 310 325 264 289 323 333 325 333 299 295 298 317 312 285 300 337 306 304 287 286 324 295 308 290 308 291 302 297 325 308 296 312 317 312 301 306 316 304 326 325 339 307 326 306 303 308 350 313 307 315 329 311 324 323 314 320 307 316 310 338 305 345 348 334 347 301 315 328 362 329 344 312 307 306 284 311 332 291 298 325 293 344 312 319 313 296 356 301 284 306 281 294 326 353 304 363 319 325 314 352 297 310 272 308 294 325 291 304 310 333 298 322 318 311 301 286 277 284 306 323 318 291 323 304 302 300 301 320 284 347 272 307 286 275 305 312 336 316 305 363 335 294 330 307 295 279 317 276 301 275 286 331 286 299 281 297 301 312 320 335 303 267 295 291 283 321 328 291 339 286 265 330 308 314 289 288 319 329 299 329 280 290 298 308 319 339 278 317 308 288 294 297 324 309 326 282 330 297 342 305 310 280 341 319 309 308 310 282 317 337 334 330 350 342 339 318 353 337 352 329 344 336 327 344 338 326 364 359 376 402 415 378 424 434 453 399 434 437 476 467 425 425 460 466 433 462 395 431 435 450 407 438 393 404 419 436 396 407 385 394 384 381 384 376 373 363 342 360 359 348 342 321 362 348 349 349 307 321 328 321 328 326 316 351 345 304 287 320 311 299 303 335 335 309 307 290 288 298 309 292 324 290 314 297 261 291 319 289 290 268 294 313 317 280 292 281 291 302 304 272 275 311 266 285 281 282 303 303 297 274 258 305 296 307 294 334 329 290 295 325 309 302 296 305 250 264 302 283 269 332 316 272 275 269 298 285 272 283 339 276 289 314 280 315 305 291 319 306 290 271 294 276 293 308 309 298 310 266 290 318 262 294 280 268 309 317 283 285 312 287 316 303 309 307 285 288 325 281 283 308 268 283 279 323 296 302 328 312 305 300 304 277 303 267 288 274 316 266 296 268 346 278 312 280 305 294 321 302 294 287 289 300 351 281 293 291 280 299 274 319 244 297 270 305 245 269 296 285 286 285 307 280 302 287 319 301 296 285 291 283 283 276 264 304 321 291 282 290 307 308 295 282 299 302 301 301 295 307 249 314 304 310 319 304 290 314 304 296 297 302 329 310 308 280 297 326 324 310 327 301 339 322 331 327 342 309 316 330 351 295 303 309 356 362 334 347 338 330 371 394 379 421 401 459 401 421 402 419 463 471 489 466 507 539 590 591 575 600 609 712 706 696 710 746 782 752 754 783 733 738 702 685 715 684 736 652 599 633 642 672 614 643 593 589 603 606 556 560 551 545 487 478 508 485 467 469 471 436 446 436 451 351 413 392 411 393 393 354 375 383 398 343 319 392 328 344 323 336 350 359 358 325 345 308 360 326 338 319 306 304 334 320 308 301 342 328 338 317 311 344 309 336 317 315 343 294 360 351 359 367 350 332 348 359 370 339 344 358 366 339 357 356 332 341 338 391 354 348 329 360 368 378 330 359 337 347 329 374 346 359 315 320 351 345 345 297 319 324 310 300 314 318 327 309 285 304 352 363 307 327 309 323 313 293 283 343 290 288 294 288 303 304 305 305 289 298 267 279 311 283 298 314 283 269 345 259 285 308 277 305 288 311 308 312 303 330 316 320 339 287 330 330 323 342 333 363 351 339 316 307 327 322 351 317 343 300 350 323 308 313 326 346 316 334 349 286 295 296 295 290 341 291 292 305 296 309 289 318 287 298 317 300 290 301 302 297 301 313 303 287 314 282 286 318 261 306 285 275 307 289 304 285 287 288 303 329 301 291 280 292 279 268 275 275 290 303 322 268 243 285 291 279 278 281 282 293 275 307 268 292 313 301 303 287 297 278 302 270 281 293 318 275 279 297 287 272 312 286 267 285 289 293 285 300 270 258 288 317 272 294 287 319 284 273 325 281 295 298 262 293 265 324 296 248 306 287 281 291 283 308 274 262 261 280 328 317 308 317 282 309 269 273 290 296 294 244 258 280 282 273 276 293 284 274 299 294 294 286 236 279 337 268 291 281 247 271 269 256 288 276 256 267 289 288 297 239 278 242 277 279 263 278 323 297 285 280 286 288 303 266 293 258 329 281 294 291 264 267 291 271 291 240 294 303 307 283 275 247 284 269 297 298 290 296 285 280 292 223 305 291 286 292 314 288 314 243 295 311 285 271 320 266 294 295 288 284 302 298 276 287 279 271 272 286 303 266 302 292 326 273 266 290 282 258 292 297 294 274 288 291 244 317 284 287 267 287 314 298 264 312 280 273 298 299 305 297 286 270 264 311 275 269 304 290 287 274 290 282 284 311 308 291 277 313 286 295 291 263 272 294 278 263 289 275 288 316 264 270 273 276 296 310 266 274 325 290 284 303 320 316 296 261 298 281 278 284 294 302 300 280 307 289 275 310 286 270 265 307 291 290 274 245 274 337 278 294 294 270 294 306 299 301 273 305 303 290 325 271 273 297 298 274 295 315 288 279 323 302 296 292 247 283 286 308 315 283 287 282 289 291 300 267 261 307 282 288 283 259 293 310 299 299 305 271 298 292 299 320 300 265 282 249 309 287 301 276 287 294 286 293 303 248 306 303 292 298 338 315 298 336 295 274 279 273 304 281 298 260 294 294 302 285 305 294 324 270 280 280 348 312 281 333 306 311 304 297 305 334 320 386 356 353 347 334 329 350 334 374 373 401 378 370 386 358 375 394 397 419 361 391 397 387 404 423 352 376 365 374 378 354 369 383 379 383 396 363 366 357 396 382 400 363 410 378 385 369 406 436 366 363 412 424 394 371 472 438 455 447 495 451 408 503 498 528 534 563 575 640 631 672 679 663 686 689 730 696 693 699 742 762 738 679 726 679 650 657 650 617 606 586 585 598 587 604 576 574 611 514 596 590 543 550 562 536 523 482 488 512 485 459 438 448 417 414 409 400 377 371 389 384 384 328 358 355 359 350 351 338 351 359 362 322 354 307 368 349 374 332 357 325 333 350 358 335 319 354 283 273 350 295 298 306 291 326 341 348 339 300 344 333 333 342 328 324 301 339 349 372 343 361 382 336 329 335 331 338 401 379 390 377 380 353 418 368 389 349 404 409 371 380 383 376 391 401 373 400 386 330 352 349 405 395 338 395 346 370 355 364 373 363 346 343 339 368 348 388 359 343 342 321 321 315 351 341 344 340 328 323 340 308 309 290 300 336 328 337 311 318 339 347 298 308 316 331 303 321 337 324 320 300 313 336 275 366 333 326 330 350 336 301 321 342 331 373 335 350 357 324 346 378 357 382 358 349 389 411 424 389 395 427 431 470 480 450 523 519 555 537 576 624 591 608 668 727 713 741 792 877 892 935 928 1051 1138 1076 1221 1229 1294 1312 1303 1273 1300 1327 1313 1243 1199 1166 1167 1157 1092 1073 1078 1077 1026 1035 1093 1074 1026 984 966 982 969 969 972 944 909 884 871 859 777 816 791 681 768 696 640 636 638 599 592 543 527 511 481 484 492 440 460 428 411 456 428 419 410 428 353 392 398 384 413 375 401 367 373 375 362 386 352 365 339 313 367 374 351 354 350 340 352 339 328 341 366 356 358 350 359 341 379 360 347 348 373 384 394 349 407 363 377 416 406 438 430 412 384 409 462 410 434 419 404 404 458 447 465 439 461 409 428 440 451 467 412 445 469 487 436 437 422 404 423 404 393 398 418 421 449 398 378 397 406 407 378 386 386 407 402 378 385 380 384 381 342 398 363 342 347 347 369 355 331 297 350 380 383 371 352 399 390 393 397 367 354 368 401 386 385 389 371 377 372 395 412 390 351 346 362 349 378 340 352 368 330 377 375 356 356 337 339 377 374 341 341 347 297 285 358 353 344 334 337 333 326 338 313 317 349 322 330 319 305 325 312 295 300 318 323 295 316 295 289 308 296 336 321 302 308 306 308 289 302 313 290 299 307 293 312 287 249 334 277 275 287 299 322 316 313 273 296 300 304 330 319 285 291 328 303 297 305 271 292 298 272 272 288 307 264 326 250 271 297 282 315 281 289 269 302 289 307 291 285 309 293 340 303 297 321 298 239 291 289 263 295 279 308 294 275 273 293 284 272 261 268 294 246 258 282 300 308 272 248 273 313 290 295 305 246 281 318 287 324 304 291 275 250 318 293 294 328 285 308 270 286 293 290 300 298 282 296 264 285 318 283 332 304 305 312 271 293 291 269 284 290 289 264 312 275 321 292 272 322 257 300 284 286 314 293 285 283 326 298 298 311 302 271 247 271 307 285 282 273 312 286 288 305 283 298 273 296 295 309 277 270 294 308 286 281 287 278 304 308 277 273 262 285 300 259 278 310 282 266 279 270 289 282 297 263 294 245 300 289 284 280 275 291 272 266 276 307 257 299 296 320 287 299 312 289 306 317 296 291 290 297 315 269 295 273 311 307 280 271 291 256 292 296 284 293 273 287 262 288 289 290 302 279 315 303 281 280 285 321 295 280 291 282 269 296 282 314 295 306 278 264 295 276 282 292 275 299 250 295 286 262 308 304 262 263 308 262 293 268 311 298 249 281 246 284 283 261 282 270 277 264 266 314 306 256 314 303 280 285 298 261 268 286 288 300 272 309 295 302 288 271 311 291 308 272 309 281 300 281 276 304 284 313 284 298 296 291 271 285 298 293 302 289 270 296 315 285 278 264 295 283 312 296 281 295 299 284 292 283 295 292 312 267 316 290 290 297 271 276 285 260 277 292 270 267 281 306 309 295 278 273 292 266 290 249 278 313 296 331 312 316 321 323 294 333 315 360 336 334 371 340 323 344 349 316 338 341 373 374 368 376 368 374 363 383 374 358 365 347 364 373 365 333 344 369 343 326 354 317 344 327 309 339 311 333 331 330 337 342 337 346 339 336 327 316 366 333 311 312 306 351 332 309 318 343 292 286 295 278 269 321 273 312 288 284 307 299 295 319 288 280 285 286 301 305 305 310 291 295 288 267 315 271 329 308 310 295 278 249 283 278 335 299 265 268 276 305 285 297 262 263 289 292 262 241 304 256 284 287 315 292 289 269 315 278 277 272 241 300 282 257 275 311 267 297 306 281 295 270 319 295 325 264 264 279 244 297 288 281 299 272 279 302 287 303 303 273 337 293 301 267 290 293 258 307 266 304 289 320 307 284 292 292 309 280 276 278 272 310 292 260 288 271 303 347 300 319 320 295 317 295 267 303 300 277 291 309 274 296 314 281 284 278 305 268 292 308 319 301 319 274 280 297 308 311 257 318 281 259 311 276 293 289 274 287 288 324 318 293 301 289 286 268 285 324 264 266 296 293 292 258 294 267 278 276 291 285 324 297 329 322 333 303 332 302 308 272 329 286 292 284 316 322 324 315 341 339 304 292 304 311 303 334 335 342 352 371 402 361 328 401 345 384 421 368 407 402 471 466 477 495 523 528 589 610 589 628 635 706 727 752 805 845 884 965 1019 1006 1057 1092 1128 1087 1166 1201 1119 1108 1034 979 984 933 976 912 926 899 844 851 894 844 804 826 827 802 844 786 797 867 844 869 799 848 807 772 780 727 757 688 749 686 677 657 645 553 583 582 581 553 493 509 481 454 445 433 398 421 402 404 402 355 404 388 363 420 429 350 348 356 336 360 335 381 342 335 313 338 332 308 320 313 344 304 335 349 324 362 328 341 328 338 315 324 285 347 310 313 310 319 323 312 300 333 315 310 326 307 311 313 320 342 322 355 308 332 349 328 324 322 380 333 330 339 367 352 373 374 354 343 337 417 367 387 371 375 377 326 379 377 387 357 386 436 403 402 372 369 412 400 407 426 443 383 379 390 398 392 391 403 404 388 380 381 397 373 386 382 387 363 371 395 397 370 350 357 391 380 372 384 391 399 409 343 362 340 345 343 336 353 351 369 313 329 324 331 343 312 350 338 327 336 316 332 306 317 310 312 309 331 311 299 286 344 320 342 302 310 315 302 309 334 313 291 309 324 312 315 283 317 301 274 301 302 279 290 292 293 272 303 315 237 297 300 303 292 293 302 293 286 299 319 296 296 277 274 299 290 283 296 287 283 297 286 266 288 271 279 243 297 282 268 277 310 301 291 281 267 290 276 279 282 292 297 300 247 286 284 297 262 250 263 309 259 281 298 272 293 298 275 297 258 274 236 302 291 284 274 259 289 287 283 290 289 287 283 305 282 302 278 258 274 248 248 289 272 286 294 280 298 279 287 272 265 286 274 297 287 277 268 274 300 256 287 243 268 308 284 282 274 244 284 303 277 293 291 276 260 294 280 250 244 267 273 262 290 294 290 299 292 267 296 281 283 296 271 287 246 264 265 298 270 290 306 284 273 268 282 295 271 262 310 284 300 259 309 274 247 310 310 236 278 294 302 306 284 257 239 284 317 290 291 283 284 270 245 294 282 273 267 303 265 291 249 237 248 265 289 247 278 284 294 265 284 317 283 265 291 290 313 228 282 290 247 270 278 308 304 272 285 267 262 305 270 288 281 279 272 283 266 278 277 276 259 283 274 241 311 267 289 274 269 285 286 281 322 286 290 266 273 284 277 299 284 269 290 309 258 262 275 282 289 273 241 289 289 260 305 296 296 269 297 302 267 268 302 270 268 278 251 278 275 284 294 281 302 289 262 283 308 282 289 288 283 285 277 268 284 276 305 291 290 269 278 290 281 244 265 295 256 288 275 257 270 273 278 270 306 297 297 274 285 275 283 251 282 271 306 258 259 263 284 288 273 272 276 308 276 279 275 278 270 274 284 278 293 301 283 306 263 280 270 278 288 290 275 277 309 233 263 278 312 250 290 284 271 244 293 285 276 296 323 312 284 296 287 289 342 334 296 321 290 326 326 317 299 279 299 270 344 328 311 326 331 339 336 372 356 355 348 389 378 398 371 414 404 430 414 443 471 532 474 520 467 458 498 444 510 454 437 440 467 414 439</counts>
			</dataPoints>
		</scan>
	</xrdMeasurement>
</xrdMeasurements>
