<?xml version="1.0"?>
<xrdMeasurements xmlns="http://www.xrdml.com/XRDMeasurement/2.3" xmlns:xsi="http://www.w3.org/2001/XMLSchema-instance" xsi:schemaLocation="http://www.xrdml.com/XRDMeasurement/2.3 http://www.xrdml.com/XRDMeasurement/2.3/XRDMeasurement.xsd" status="Completed" recordIdentifier="{95B2995B-248A-40BF-ADD4-A16DE968FEB5}">
	<comment>
		<entry/>
	</comment>
	<sample type="To be analyzed">
		<id>GPSS_Li1p6Mn0p9V0p2Cl4_110325_69093a3ff040177efa2b52e1</id>
		<name></name>
		<preparedBy></preparedBy>
	</sample>
	<xrdMeasurement measurementType="Scan" status="Completed" sampleMode="Reflection">
		<usedWavelength intended="K-Alpha 1">
			<kAlpha1 unit="Angstrom">1.5405980</kAlpha1>
			<kAlpha2 unit="Angstrom">1.5444260</kAlpha2>
			<kBeta unit="Angstrom">1.3922500</kBeta>
			<ratioKAlpha2KAlpha1>0.5000</ratioKAlpha2KAlpha1>
		</usedWavelength>
		<incidentBeamPath>
			<radius unit="mm">145.00</radius>
			<xRayTube id="1010048" name="Empyrean Cu LFF HR (9430 033 7310x)">
				<tension unit="kV">40.0</tension>
				<current unit="mA">15.0</current>
				<anodeMaterial>Cu</anodeMaterial>
				<focus type="Line">
					<length unit="mm">12.0</length>
					<width unit="mm">0.4</width>
					<takeOffAngle unit="deg">6.0</takeOffAngle>
				</focus>
			</xRayTube>
			<sollerSlit id="21010002" name="Soller slits 0.04 rad.">
				<opening unit="rad">0.0400</opening>
			</sollerSlit>
			<mask id="22031000" name="Fixed mask 13 mm">
				<width unit="mm">9.00</width>
			</mask>
			<divergenceSlit id="22120001" name="Divergence slit 1°" xsi:type="fixedDivergenceSlitType">
				<distanceToSample unit="mm">50.00</distanceToSample>
				<height unit="mm">1.52</height>
			</divergenceSlit>
		</incidentBeamPath>
		<sampleMovement xsi:type="spinningSampleMovementType">
			<spinnerRevolutionTime unit="seconds">1.0</spinnerRevolutionTime>
		</sampleMovement>
		<diffractedBeamPath>
			<radius unit="mm">145.00</radius>
			<antiScatterSlit id="22090040" name="AS slit 9 mm (PIXcel)" xsi:type="fixedAntiScatterSlitType">
				<height unit="mm">9.00</height>
			</antiScatterSlit>
			<sollerSlit id="21020003" name="Large Soller slits 0.04 rad.">
				<opening unit="rad">0.0400</opening>
			</sollerSlit>
			<filter id="20030001" name="Large beta-filter Nickel">
				<material>Ni</material>
				<thickness unit="mm">0.020</thickness>
			</filter>
			<detector id="7010019" name="PIXcel1D-Medipix3 detector" xsi:type="rtmsDetectorType">
				<phd unit="keV">
					<lowerLevel>4.02</lowerLevel>
					<upperLevel>11.27</upperLevel>
				</phd>
				<mode>Scanning</mode>
				<activeLength unit="deg">5.542</activeLength>
			</detector>
		</diffractedBeamPath>
		<scan appendNumber="0" mode="Continuous" scanAxis="Gonio" status="Completed">
			<header>
				<startTimeStamp>2025-11-05T12:07:41-08:00</startTimeStamp>
				<endTimeStamp>2025-11-05T12:15:48-08:00</endTimeStamp>
				<author>
					<name>AutomatedUser</name>
				</author>
				<source>
					<applicationSoftware version="1.7b (136)">PANalytical Aeris Instrument Suite</applicationSoftware>
					<instrumentControlSoftware version="3.2.00000000 20240306">AERIS</instrumentControlSoftware>
					<instrumentID>950485</instrumentID>
				</source>
			</header>
			<dataPoints>
				<positions axis="2Theta" unit="deg">
					<startPosition>10.00943322</startPosition>
					<endPosition>99.99442286</endPosition>
				</positions>
				<positions axis="Omega" unit="deg">
					<startPosition>5.00471661</startPosition>
					<endPosition>49.99721143</endPosition>
				</positions>
				<commonCountingTime unit="seconds">12.495</commonCountingTime>
				<counts unit="counts">2922 2946 2991 2927 2895 3047 2996 2931 2923 2906 3027 2977 2909 2929 2935 2964 2830 2898 2916 2915 2838 2880 2845 2866 2915 2945 2858 2954 2924 2879 2945 2873 2932 2882 2928 2949 2938 2975 2888 2984 2997 2959 2920 2967 2934 2960 2891 2801 2962 2979 3025 2943 3005 2866 2870 2951 3056 3031 2920 2977 2889 3042 2942 2905 2908 2898 3053 2991 2937 3007 2970 3064 2992 3091 2864 2980 3019 2986 3008 3038 3009 3058 3023 3023 3075 3071 3018 3064 2998 2922 3107 3101 3003 3115 3062 2914 2946 2956 2967 3061 3133 3079 2985 2888 2997 2939 3033 2944 2895 2942 2995 2913 3010 3010 2961 2951 2918 2898 2941 3031 3043 2979 2868 2915 2979 2916 3075 2916 2917 2907 2933 2983 2976 3059 2915 2924 2871 2938 2957 2880 2925 2887 2853 3073 2877 2836 2905 2864 3048 2877 2813 2873 2865 2992 2787 2924 2904 2931 2907 2864 2828 2870 2922 2929 2918 2811 2849 2963 2881 2909 2892 2876 2827 2794 2845 2907 2897 2937 2865 2854 2940 2825 2745 2929 2861 2817 2876 2825 2889 2829 2784 2873 2844 2902 2868 2787 2896 2940 2899 2870 2814 2737 2821 2942 2761 2925 2834 2808 2870 2835 2805 2792 2779 2738 2715 2821 2798 2846 2857 2788 2863 2889 2750 2791 2865 2864 2852 2875 2756 2847 2775 2778 2916 2830 2771 2818 2746 2818 2782 2896 2744 2762 2815 2854 2791 2714 2769 2825 2775 2831 2806 2920 2691 2786 2886 2877 2769 2799 2792 2973 2823 2728 2797 2772 2872 2787 2784 2782 2832 2837 2688 2812 2808 2770 2732 2788 2779 2943 2835 2870 2864 2922 2832 2824 2773 2926 2735 2881 2771 2958 2821 2850 2868 2858 2859 2833 2927 2885 2783 2916 2863 2855 2840 2921 2983 2913 3045 2987 2940 2843 2827 2961 2950 2782 2882 2911 2984 2848 2853 3002 2906 3020 2947 2926 2979 3058 2941 2960 3010 3062 3000 3118 3003 2984 3020 2964 3082 3066 2989 3062 3024 2973 3060 2900 3123 3125 3147 3113 3027 3109 3002 3052 3149 3205 3087 3138 3208 3244 3130 3248 3225 3137 3183 3221 3175 3179 3165 3236 3100 3201 3242 3257 3217 3244 3258 3283 3164 3329 3360 3383 3266 3291 3352 3262 3485 3344 3342 3441 3368 3341 3384 3422 3388 3305 3419 3460 3416 3360 3518 3444 3599 3576 3559 3566 3582 3676 3619 3820 3617 3704 3701 3783 3759 3892 3940 3869 4014 3951 4109 4132 4081 4088 4229 4251 4193 4312 4366 4376 4528 4630 4647 4764 4713 4909 4801 5008 4917 5074 5205 5249 5190 5365 5237 5135 5249 5316 5330 5345 5159 5174 5302 5067 4923 4808 4890 4844 4633 4489 4469 4417 4398 4131 4197 4043 3878 3948 3922 3696 3673 3773 3600 3549 3667 3636 3634 3453 3435 3589 3472 3516 3498 3342 3456 3517 3426 3433 3399 3496 3329 3347 3448 3483 3487 3371 3461 3446 3328 3423 3372 3282 3374 3339 3355 3397 3358 3353 3441 3311 3423 3336 3341 3300 3314 3324 3278 3241 3287 3326 3264 3187 3242 3155 3210 3327 3363 3297 3225 3176 3179 3273 3254 3256 3015 3266 3188 3230 3102 3199 3295 3229 3201 3234 3217 3180 3205 3156 3103 3125 3153 3173 3174 3222 3122 3253 3185 3187 3159 3058 3222 2985 3167 3066 3195 3097 3104 3187 3199 3117 3147 3059 3108 3157 3131 3105 3125 3019 2967 3126 3023 3109 3048 3011 3052 3050 2913 3090 2996 3100 3107 3109 3007 3009 2978 2912 3120 3087 3024 3020 2956 3028 3071 2983 2989 3008 2964 2965 2982 2974 3001 2914 3010 3055 3000 3121 3114 3002 2970 3019 2814 2947 2896 2931 3063 2934 3012 2962 2954 2953 3010 3026 2915 3043 2910 2873 2867 2947 3048 3049 3003 2990 3005 2818 2983 2932 2917 3003 2924 3001 2949 2915 2958 2899 2993 2937 2953 2794 2929 2894 2987 2907 2900 2988 2800 2975 2870 2852 2881 2884 2842 2872 2956 2883 2900 2966 2936 2912 2864 2972 2857 2843 2906 2941 2891 2890 2880 2974 2834 2868 2988 2895 2870 2805 2838 2838 2932 2934 2990 2886 3076 2816 2810 2923 2745 2937 2894 2927 2867 2892 2947 2934 2823 2866 2813 2774 2785 2817 2926 2736 2873 2817 2802 2802 2721 2848 2746 2863 2806 2892 2920 2817 2875 2784 2853 2802 2778 2819 2852 2803 2766 2846 2721 2770 2721 2864 2812 2841 2819 2971 2827 2929 2699 2856 2737 2855 2758 2870 2742 2804 2821 2884 2761 2930 2916 2819 2722 2851 2949 2854 2767 2809 2777 2824 2888 2832 2840 2838 2784 2803 2789 2737 2798 2716 2834 2740 2811 2807 2724 2749 2786 2843 2771 2762 2695 2789 2804 2748 2734 2777 2858 2876 2902 2733 2705 2885 2774 2751 2707 2735 2793 2726 2749 2681 2784 2793 2740 2774 2829 2705 2846 2777 2783 2789 2743 2801 2762 2751 2715 2815 2630 2715 2691 2809 2804 2777 2773 2693 2696 2728 2676 2839 2704 2791 2657 2758 2791 2743 2646 2708 2697 2660 2841 2669 2756 2757 2703 2739 2708 2709 2682 2701 2725 2693 2766 2671 2671 2725 2781 2714 2694 2733 2779 2658 2684 2813 2649 2751 2689 2722 2651 2692 2741 2593 2657 2585 2710 2676 2663 2737 2588 2599 2602 2701 2573 2636 2718 2593 2790 2626 2667 2641 2581 2635 2686 2794 2552 2640 2690 2589 2677 2682 2667 2630 2589 2675 2636 2694 2680 2595 2680 2617 2632 2605 2602 2587 2524 2640 2583 2618 2667 2579 2600 2593 2621 2611 2603 2623 2585 2607 2644 2545 2651 2621 2614 2623 2599 2511 2580 2624 2515 2508 2592 2508 2643 2623 2572 2552 2485 2535 2561 2563 2589 2579 2605 2504 2625 2670 2602 2501 2511 2465 2610 2499 2514 2548 2600 2501 2540 2724 2587 2458 2524 2562 2552 2505 2483 2546 2582 2457 2537 2557 2467 2487 2497 2541 2571 2595 2538 2515 2507 2534 2535 2536 2411 2677 2444 2588 2565 2542 2544 2503 2604 2551 2543 2454 2481 2608 2538 2567 2517 2511 2541 2545 2494 2589 2544 2590 2545 2529 2525 2509 2546 2535 2538 2565 2571 2559 2380 2556 2545 2592 2501 2581 2611 2585 2536 2593 2553 2550 2639 2544 2431 2564 2527 2608 2512 2536 2465 2549 2564 2608 2533 2556 2484 2481 2483 2601 2523 2598 2501 2566 2544 2501 2599 2540 2556 2555 2551 2649 2590 2523 2519 2445 2536 2582 2535 2607 2578 2529 2581 2505 2580 2592 2623 2509 2584 2486 2505 2455 2515 2463 2433 2596 2536 2522 2522 2572 2628 2503 2517 2471 2599 2515 2560 2543 2614 2423 2482 2516 2566 2444 2490 2549 2539 2449 2500 2527 2522 2490 2571 2399 2465 2589 2474 2441 2487 2446 2546 2460 2405 2427 2531 2482 2525 2403 2504 2579 2452 2477 2522 2449 2503 2542 2540 2457 2525 2397 2351 2455 2442 2377 2370 2471 2410 2380 2388 2527 2452 2472 2375 2364 2363 2295 2437 2343 2420 2403 2488 2410 2292 2391 2319 2377 2323 2407 2354 2378 2381 2245 2395 2326 2366 2304 2304 2337 2247 2293 2261 2322 2329 2360 2271 2219 2261 2280 2172 2192 2234 2271 2220 2254 2193 2326 2199 2221 2314 2235 2252 2173 2247 2152 2206 2249 2260 2286 2245 2142 2207 2114 2251 2219 2178 2171 2243 2165 2171 2181 2217 2197 2184 2250 2145 2102 2140 2181 2156 2098 2049 2197 2174 2081 2148 2215 2138 2187 2177 2136 2100 2150 2094 2098 2043 2074 2051 2019 2157 2102 2019 1993 2100 2026 2022 2052 2097 1995 2102 1956 2024 2100 2006 2064 2047 2018 2038 2046 2078 2004 2030 2003 1967 1970 2010 2089 1968 2029 2026 2053 2072 2029 2020 1941 2021 1980 1926 2026 2032 1996 2000 2043 1998 2026 2051 1967 1999 1975 2027 1922 2043 2042 1966 1916 1950 1986 1980 2008 1965 1947 1858 1990 1965 1970 2042 1945 1992 1945 2008 1949 1914 1963 1991 1918 1949 1904 1951 2000 1971 1959 1966 1882 1971 1911 1890 1882 1927 1951 1900 1905 2021 1934 1943 1896 1924 1878 1899 1956 1851 1901 1893 1895 1993 1883 1921 1886 1924 1888 1973 1936 1854 1866 1927 1947 1866 1868 1922 1856 1869 2011 1979 1990 1925 1873 1880 1906 1929 1885 1882 1843 2025 1947 1894 2021 1861 1909 1891 1966 1869 1945 1935 1981 1919 1830 1812 1899 1906 1930 1919 1978 1984 1914 1890 1947 1876 1916 1885 1959 1919 1953 1887 1852 1931 1957 1872 1861 1896 1941 1959 1854 1966 1895 1917 1971 1939 1935 1933 2005 1916 1939 1935 1991 1867 1875 1904 1919 1849 1952 1894 1979 1920 1949 1928 1839 1906 1848 1908 1949 1967 1983 1941 1943 1958 1914 1944 1909 2016 1949 1857 1883 1976 1973 1934 1959 1879 1966 1958 1862 1927 1831 1890 1967 1924 1945 1879 1838 1968 1919 1884 1957 1854 1927 1907 1994 1924 1976 1897 1912 1938 1878 1913 1998 1940 1910 2045 1927 1921 1921 1827 1939 1844 1943 1888 1893 1980 1945 1909 1793 1939 1836 1891 1901 1924 1839 1931 1872 1861 1923 1923 1921 1916 1884 1942 1925 1863 1875 1851 1895 1960 1890 1870 1824 1913 1875 1855 1791 1836 1816 1861 1899 1928 1815 1845 1808 1803 1869 1776 1880 1818 1912 1781 1890 1878 1803 1764 1878 1778 1788 1745 1800 1775 1746 1764 1833 1800 1774 1768 1785 1762 1756 1750 1865 1795 1847 1832 1760 1763 1801 1745 1779 1769 1769 1706 1740 1711 1768 1767 1733 1705 1692 1729 1807 1767 1653 1703 1770 1703 1773 1666 1733 1696 1747 1747 1790 1738 1719 1707 1698 1726 1689 1713 1606 1708 1698 1747 1667 1721 1689 1689 1628 1615 1665 1671 1620 1727 1572 1738 1642 1655 1703 1676 1761 1678 1635 1704 1695 1756 1710 1644 1736 1701 1772 1689 1736 1772 1753 1760 1836 1767 1766 1790 1770 1911 1838 1838 1796 1887 1951 1968 1906 1916 2008 2031 2088 2138 2202 2233 2309 2393 2457 2512 2554 2735 2695 2709 2717 2791 2840 2898 2923 2902 2834 2856 2837 2732 2768 2752 2656 2699 2527 2450 2425 2296 2322 2247 2179 2127 2006 2031 1947 1830 1895 1827 1832 1767 1719 1735 1663 1603 1658 1639 1630 1540 1553 1591 1673 1542 1473 1587 1636 1564 1557 1529 1552 1546 1571 1624 1567 1501 1565 1449 1541 1505 1538 1568 1551 1545 1550 1457 1524 1494 1522 1489 1489 1521 1499 1501 1568 1582 1521 1566 1549 1517 1619 1653 1567 1557 1588 1577 1642 1647 1574 1658 1702 1685 1713 1724 1768 1830 1775 1754 1754 1854 1901 1943 1950 2048 2096 2170 2284 2358 2493 2635 2604 2702 3003 3042 3220 3260 3298 3495 3642 3824 3854 4019 3952 3956 4172 4041 3996 4027 4034 4033 3981 3915 3835 3624 3591 3367 3312 3072 2961 2858 2755 2620 2502 2299 2224 2123 1970 1958 1872 1865 1783 1716 1707 1610 1605 1612 1545 1552 1569 1605 1499 1485 1455 1535 1511 1460 1486 1467 1451 1472 1436 1456 1422 1528 1420 1428 1391 1436 1374 1427 1398 1413 1409 1422 1412 1419 1432 1376 1464 1419 1372 1397 1459 1425 1326 1407 1449 1394 1370 1387 1359 1402 1364 1351 1381 1371 1406 1387 1378 1444 1409 1380 1364 1367 1335 1370 1382 1331 1359 1394 1357 1342 1286 1393 1326 1300 1363 1318 1395 1397 1369 1358 1360 1326 1359 1380 1343 1316 1398 1354 1351 1321 1402 1377 1422 1384 1301 1395 1361 1415 1357 1330 1351 1350 1343 1403 1325 1379 1335 1261 1234 1347 1292 1303 1274 1266 1281 1308 1368 1368 1237 1329 1280 1352 1322 1269 1343 1258 1278 1328 1304 1270 1275 1277 1288 1318 1319 1264 1316 1299 1329 1333 1326 1251 1261 1345 1275 1181 1381 1261 1321 1272 1324 1299 1329 1277 1310 1270 1286 1287 1277 1303 1264 1285 1250 1274 1315 1255 1265 1210 1220 1310 1319 1265 1330 1265 1258 1313 1303 1336 1303 1255 1264 1255 1348 1264 1280 1289 1335 1244 1291 1351 1238 1209 1314 1315 1297 1311 1268 1244 1321 1321 1297 1247 1268 1329 1314 1270 1251 1231 1202 1285 1331 1278 1345 1339 1322 1325 1316 1271 1263 1296 1330 1312 1235 1292 1344 1306 1351 1235 1262 1273 1287 1234 1326 1251 1295 1285 1247 1267 1277 1253 1322 1274 1273 1311 1282 1244 1253 1196 1242 1206 1289 1276 1255 1247 1258 1272 1292 1351 1283 1324 1324 1224 1253 1318 1255 1288 1257 1326 1216 1254 1295 1255 1226 1333 1194 1325 1222 1370 1365 1311 1281 1281 1275 1248 1296 1260 1252 1262 1244 1274 1270 1254 1303 1330 1324 1346 1334 1245 1258 1290 1299 1320 1271 1295 1339 1293 1259 1384 1262 1330 1330 1257 1339 1284 1333 1315 1395 1295 1400 1337 1306 1255 1321 1341 1322 1335 1347 1347 1313 1348 1339 1313 1314 1384 1383 1312 1384 1334 1321 1298 1316 1347 1330 1347 1388 1335 1356 1356 1310 1420 1383 1341 1377 1395 1435 1468 1436 1521 1482 1548 1509 1583 1586 1596 1500 1613 1610 1673 1683 1762 1818 1830 1901 1923 2042 2067 2245 2260 2434 2471 2665 2770 2912 3139 3326 3479 3941 3963 4473 4693 5045 5486 5697 6279 6582 7077 7640 7863 8517 8590 8871 9199 9606 9770 9943 9852 9866 9699 9637 9526 9250 9147 8893 8589 8384 7690 7252 6764 6566 5918 5635 5306 4878 4435 4095 3808 3582 3242 2941 2865 2595 2386 2295 2140 2064 1946 1855 1775 1805 1707 1742 1623 1682 1495 1515 1464 1539 1495 1424 1414 1443 1367 1397 1376 1369 1317 1334 1397 1322 1367 1361 1378 1315 1292 1387 1335 1351 1314 1278 1298 1304 1280 1346 1275 1316 1271 1282 1284 1291 1196 1251 1211 1330 1316 1351 1285 1256 1264 1264 1243 1291 1208 1280 1215 1238 1226 1223 1217 1265 1204 1203 1288 1257 1289 1259 1180 1247 1290 1204 1268 1221 1270 1236 1197 1189 1234 1264 1212 1206 1249 1201 1254 1236 1163 1194 1283 1265 1204 1245 1156 1220 1237 1219 1181 1226 1159 1230 1148 1218 1239 1200 1218 1155 1144 1129 1216 1271 1234 1177 1214 1158 1218 1217 1223 1208 1210 1214 1177 1179 1254 1111 1222 1200 1175 1143 1182 1173 1218 1186 1229 1153 1142 1166 1192 1174 1199 1206 1217 1214 1148 1221 1127 1146 1218 1207 1197 1169 1230 1215 1194 1149 1202 1129 1216 1206 1178 1197 1227 1233 1213 1178 1218 1202 1197 1219 1174 1146 1184 1120 1195 1170 1214 1178 1189 1177 1183 1187 1153 1241 1206 1159 1158 1182 1098 1132 1175 1093 1149 1125 1167 1184 1193 1215 1154 1185 1177 1159 1145 1135 1143 1100 1157 1142 1165 1170 1134 1086 1186 1189 1153 1112 1114 1176 1164 1158 1163 1194 1125 1165 1212 1190 1144 1266 1199 1228 1177 1138 1171 1197 1186 1205 1198 1174 1194 1162 1209 1186 1125 1136 1168 1205 1174 1163 1193 1201 1202 1217 1175 1159 1244 1355 1241 1299 1308 1285 1265 1200 1266 1263 1286 1304 1247 1288 1330 1216 1228 1208 1199 1220 1203 1264 1206 1230 1166 1160 1120 1159 1151 1160 1126 1133 1135 1109 1141 1139 1187 1108 1162 1101 1230 1118 1072 1134 1158 1110 1111 1200 1151 1167 1113 1126 1112 1136 1148 1105 1102 1085 1176 1073 1139 1020 1089 1076 1146 1146 1070 1076 1074 1085 1091 1051 1077 1048 1124 1089 1119 1065 1163 1141 1090 1013 1098 1063 1114 1057 1118 1161 1154 1102 1149 1035 1087 1097 1049 1106 1152 1109 1109 1105 1044 1081 1059 1037 1132 1104 1099 1102 1159 1107 1110 1156 1087 1076 1012 1079 1076 1070 1069 1052 1080 1099 1119 1143 1078 1137 1068 1137 1057 1081 1078 1158 1059 1073 1165 1076 1165 1090 1086 1078 1116 1150 1100 1085 1132 1100 1074 1109 1115 1089 1136 1077 1044 1104 1117 1103 1043 1087 1089 1002 1082 1063 1119 1076 1112 1024 1053 1063 1047 1077 1090 1096 1099 1093 1096 1071 1045 1144 1154 1072 1038 1145 1040 1073 1056 1077 1045 1029 1119 1069 1044 1078 1064 1092 1126 1047 1023 1122 1046 1097 1071 1040 1089 1090 1101 1111 1026 1045 1080 1149 1062 1079 1102 1030 1073 1082 1065 1084 1021 1106 1150 1070 1072 1111 1049 1074 1071 1052 1059 1083 1073 1001 1036 990 1072 1116 1037 1088 1105 1033 1055 1084 1079 1055 1037 1020 1063 1083 1043 1037 1075 1044 1052 1101 1051 1108 1066 1123 1060 1046 1096 1053 1060 1075 1106 1064 1083 1067 991 1044 1073 1067 1071 1072 1065 1014 1062 1076 1069 1021 1091 1053 1020 1067 1026 1069 1091 1076 1099 1096 1056 1103 1009 1065 1021 1070 1023 1084 1000 1107 1117 1057 1041 982 1056 1075 1045 1085 1065 1046 1050 1036 1053 1083 1066 1027 1064 1063 1066 1082 1033 1067 1075 1064 1000 1009 1063 1046 1068 1115 996 1088 1119 1065 1089 1117 1040 1043 1040 1089 1055 1013 1103 1042 1096 1096 1072 1117 1036 1103 1029 1031 1109 1020 1109 1049 1065 1082 1087 1050 1020 1038 1058 1049 1042 1065 1072 1058 1004 1043 1133 1031 1034 1066 1053 1034 1084 1007 1056 1065 1049 1069 991 1059 1091 1055 1099 1105 1019 1045 1025 1020 1103 1051 1035 1051 1065 1074 1070 1041 1031 955 1063 1005 1033 1022 1034 1038 1115 1037 1055 1043 1038 1060 1067 1023 1017 1047 1094 1066 1082 1045 1037 1071 1036 1028 1021 1060 1081 1101 1080 1049 1098 1036 1085 1037 1029 1090 1021 1002 1096 1054 1058 1007 1073 1011 1057 1080 1013 1056 1044 1041 1082 1031 1096 1027 1068 1012 1002 956 1038 1090 992 1054 1058 1082 1118 1099 1078 1049 1011 987 1043 1094 1082 1021 1082 1063 994 1057 991 1097 1027 1098 1022 1048 1051 1038 1016 1095 1082 1099 1039 1072 1054 1066 1012 1034 1009 1083 1087 1058 1057 1030 1109 1028 1046 1021 1029 980 1034 1078 1054 1055 1040 1076 1057 1027 1042 1063 1091 1045 1082 1078 1089 1078 1060 1041 1041 1031 1066 1039 1069 1069 1056 1020 1052 1037 1041 1057 1081 1054 1034 1021 1034 1006 1048 1067 1074 1018 1051 1022 1010 1039 1035 1060 1065 1067 1028 1015 1067 1052 1032 1028 999 1009 1038 1079 1034 1054 1110 1042 1108 1032 1019 990 1027 1096 1112 1047 1023 1048 1014 1013 1074 1039 1079 1080 1015 1037 1012 1030 1089 1047 1027 1037 976 1060 1025 1056 1089 1056 1004 1121 1090 1055 1088 1024 1067 1000 1003 1043 1069 1074 1017 1078 1007 1111 1024 1050 1064 1092 1044 1014 1045 1098 1000 1090 1089 1068 968 1115 1078 1100 1063 1059 1095 1013 996 1038 1068 1047 1098 1064 1079 1034 1058 1100 1062 1131 1037 1030 1091 1115 1062 1035 1040 1104 1056 1082 1134 1033 1040 1026 1091 1043 1036 1124 1100 1053 1073 1085 1177 1109 1160 1109 1119 1078 1216 1239 1239 1226 1294 1307 1213 1402 1414 1427 1418 1449 1427 1545 1631 1680 1773 1773 1815 1910 1885 1894 1890 1951 1923 1904 1912 1939 1954 1945 1993 1957 1960 2007 1851 1766 1681 1687 1659 1545 1572 1616 1507 1487 1399 1359 1352 1311 1257 1255 1185 1236 1178 1154 1175 1130 1125 1050 1042 1076 1051 1069 993 1044 1053 1019 1037 1068 1017 1008 999 1042 1100 1041 1000 1056 1042 1073 983 1141 1023 1129 1024 1063 1035 1076 1030 1030 987 984 1035 954 1007 1017 1052 986 944 1008 943 1020 1025 1023 1075 1035 1042 1022 1085 1015 1057 1005 1009 1005 981 1064 969 973 1015 1022 1057 1012 1059 1045 980 1012 1088 1058 972 1081 1027 1099 1060 1001 1001 1038 1026 996 1018 1041 1038 1040 959 1005 945 991 949 1071 980 988 1032 969 1036 1027 1040 996 1011 1005 1039 997 1005 993 1011 1023 954 964 1093 976 1009 1001 948 993 942 1049 997 1057 1060 962 1046 995 999 1004 1049 1057 1018 953 973 1010 1041 1015 1009 1019 970 1018 1054 1010 1051 1061 980 985 1035 980 996 990 1044 990 1023 998 1002 1061 966 980 1021 1061 988 997 1032 1012 1016 1058 1064 1045 992 979 948 1057 954 1023 944 996 1072 1004 1009 1068 1014 1020 1090 1028 1001 1020 1077 1003 1074 1056 1040 1046 1117 1021 1022 1014 1008 1038 1038 1075 1064 1028 991 1059 1002 1041 997 1017 981 1010 992 1042 1046 1042 1050 1086 1016 1035 1060 1062 1057 999 1021 1001 1036 1032 1069 1032 1071 1045 1015 1089 991 1005 1058 1004 1100 1026 999 1014 1016 1057 1066 1041 1016 992 1107 1062 1068 1066 1034 1058 1000 1025 1046 1023 1098 1081 1029 1053 1039 968 1031 1059 1032 1091 1085 1054 1120 999 1040 1046 1042 1079 1028 1028 1056 1066 1038 1033 1071 1065 1080 1068 1056 1054 1091 1100 1059 1088 1071 1044 1010 1100 1100 1073 1048 1134 1096 1042 1060 1104 1121 1081 1133 1089 1169 1120 1112 1094 1098 1112 1147 1116 1124 1220 1109 1171 1175 1192 1204 1196 1181 1226 1257 1287 1280 1293 1285 1351 1358 1462 1390 1477 1542 1594 1752 1740 1854 1969 2067 2146 2254 2414 2561 2722 2815 3059 3156 3508 3631 3948 4139 4367 4537 4691 5045 5142 5369 5441 5473 5669 5762 5841 5899 5826 6029 5961 5764 5624 5811 5359 5347 4858 4817 4537 4359 4143 3887 3801 3651 3380 3109 2965 2640 2606 2340 2326 2061 2008 1916 1817 1697 1613 1585 1477 1429 1442 1304 1413 1277 1343 1301 1213 1226 1220 1151 1189 1112 1157 1125 1087 1066 1055 1026 1169 1074 1119 1100 1038 1077 1015 1104 1057 1060 1041 1032 1028 1062 1098 1116 1056 1052 1091 1072 1016 1089 1069 1085 1082 1033 1034 1022 1068 1061 1109 1027 1077 1098 1043 1001 1068 1024 1008 1036 1043 1040 1055 1031 1057 1120 1037 1045 1024 1019 1088 1074 1060 1024 1061 1076 1102 1003 1117 988 1067 1053 1068 1058 1036 1008 1003 1055 1030 1051 988 1024 1130 1049 981 1033 1041 979 1001 970 1051 968 1012 1064 1007 927 989 1051 1035 1024 1042 990 981 1021 1024 941 1028 1007 1009 998 959 1012 1047 962 1069 1014 962 971 964 990 945 1006 1072 936 988 998 974 1046 1005 1042 1003 991 976 955 1016 1024 1009 948 1049 981 1071 1019 1018 1023 989 1032 1057 1028 1031 1039 1065 1059 1083 991 1078 1035 1079 1069 1128 1088 1147 1122 1194 1147 1154 1229 1265 1254 1333 1351 1308 1373 1400 1367 1390 1408 1465 1432 1521 1498 1507 1541 1499 1495 1534 1557 1496 1408 1438 1537 1447 1397 1426 1372 1353 1295 1345 1347 1253 1157 1191 1126 1171 1158 1123 1146 1060 1098 1085 1070 1052 1013 1024 1031 988 1023 1031 990 1018 955 1022 997 965 1006 990 1004 971 1009 1009 1025 1004 968 982 1013 975 996 988 954 995 986 1034 1054 911 988 1022 968 992 1048 980 1001 916 953 948 952 978 982 964 934 981 956 948 984 946 976 959 987 954 932 973 926 964 944 973 963 989 909 981 936 963 954 956 943 967 952 939 924 979 966 936 969 982 953 1008 1006 949 1005 918 910 964 947 973 952 988 939 996 961 985 928 928 961 960 961 1004 986 948 955 945 914 981 973 955 953 937 894 902 949 972 1009 953 957 913 942 953 893 940 957 987 955 951 947 976 996 977 965 1017 967 996 922 944 940 910 933 962 931 974 917 952 998 949 918 974 887 939 881 900 936 931 937 951 933 937 955 949 982 946 984 987 886 966 935 905 907 909 908 945 937 1019 897 961 961 947 927 925 928 996 896 913 930 950 919 941 939 962 896 902 912 875 898 925 932 931 973 1020 901 957 929 897 933 882 979 893 909 923 986 960 931 913 910 894 970 926 912 894 845 999 929 965 930 915 938 939 901 959 925 951 908 871 999 888 917 983 881 915 926 892 985 875 929 919 926 942 939 934 954 963 912 943 935 926 917 929 921 927 939 1005 918 887 947 972 917 913 900 979 921 953 906 922 908 943 928 968 906 939 912 935 967 942 939 884 909 916 931 940 912 895 900 917 891 893 925 946 920 921 931 929 1005 893 952 927 937 917 899 932 956 892 941 925 928 946 926 916 940 995 886 923 956 990 982 939 890 902 937 930 967 892 911 888 914 897 928 914 929 928 921 910 900 926 888 946 891 933 851 932 863 897 946 949 950 935 856 880 918 938 922 920 905 897 917 980 899 938 936 915 891 944 913 952 897 950 892 923 902 907 921 936 941 951 883 926 913 900 843 845 891 926 873 903 924 935 985 907 966 973 909 877 875 910 977 902 933 832 958 894 928 961 902 950 891 1006 890 858 901 924 945 931 947 932 959 920 963 896 959 962 898 918 903 889 928 905 882 988 894 913 874 886 941 923 904 903 939 924 933 904 927 930 901 939 904 929 941 950 915 902 905 902 941 934 957 895 902 960 856 908 938 950 927 873 884 905 942 936 920 940 884 928 901 875 904 950 916 916 929 973 942 902 877 934 909 925 941 937 905 873 916 980 932 912 945 934 955 971 949 1003 959 958 934 935 1002 917 962 1049 961 984 1059 1036 1011 1039 1047 1033 1018 1137 1051 1024 1047 970 1052 1001 1006 1059 1017 1072 1016 1027 983 981 963 974 1017 1001 956 960 905 985 971 980 933 1000 957 912 996 978 989 990 994 943 984 922 1002 1007 1034 975 1084 1030 989 995 1085 1086 1081 1107 1073 1134 1200 1131 1223 1198 1205 1209 1263 1334 1397 1296 1360 1340 1388 1429 1401 1458 1477 1408 1491 1503 1472 1463 1386 1416 1449 1434 1305 1368 1370 1352 1323 1285 1226 1309 1153 1298 1202 1174 1179 1124 1147 1106 998 1045 1012 981 1001 1024 983 1020 983 938 949 973 963 938 952 939 972 951 923 902 953 966 937 975 878 903 957 893 942 942 905 930 952 873 915 912 942 883 932 894 904 905 882 854 929 915 886 843 884 906 908 932 897 867 882 983 888 935 933 950 946 923 951 917 989 906 902 897 924 908 913 909 887 922 930 908 945 912 923 863 917 951 924 925 848 925 915 922 895 876 909 927 881 910 909 915 899 896 890 949 837 889 931 889 912 982 953 914 954 875 876 886 921 863 891 887 922 898 943 910 879 1011 901 902 918 862 881 895 916 933 857 926 945 948 946 898 910 912 951 905 927 889 917 877 928 944 852 888 911 871 878 923 897 888 849 887 963 920 906 937 932 917 924 882 965 941 955 948 916 942 878 929 894 915 970 947 848 936 935 919 946 906 915 898 971 950 974 886 910 972 892 940 917 928 923 930 936 890 962 953 951 995 997 968 1020 1023 1033 1027 995 1087 1072 1111 1052 1123 1147 1200 1211 1247 1234 1277 1300 1316 1277 1366 1384 1487 1545 1533 1563 1630 1675 1759 1788 1849 1969 1978 2028 2002 2021 2091 2005 2095 2008 2029 1941 1958 1971 1852 1889 1842 1803 1784 1721 1752 1628 1633 1617 1539 1528 1426 1416 1407 1369 1368 1298 1290 1220 1192 1138 1160 1124 1068 1090 1014 1014 1015 983 1009 1067 1050 976 950 1030 936 1035 910 936 971 918 918 927 929 905 959 901 935 977 898 993 899 913 941 924 921 938 889 885 862 905 953 935 947 845 988 935 925 869 921 860 946 868 885 901 907 899 856 910 951 931 906 988 958 869 890 915 910 963 910 921 864 865 921 926 920 901 957 875 810 862 911 942 883 859 844 859 897 891 892 864 923 929 896 938 950 861 892 946 901 922 914 874 882 877 878 852 849 869 903 889 896 901 925 897 927 895 914 862 935 920 942 917 927 909 880 937 932 912 816 931 901 909 977 964 962 941 954 912 945 921 994 966 1009 984 1042 995 1027 976 1018 1018 1039 1037 1066 1096 1079 1082 1113 1122 1148 1136 1209 1120 1160 1200 1174 1254 1180 1175 1172 1123 1221 1148 1150 1166 1126 1102 1067 1090 1041 1074 1014 1014 1086 1077 1069 981 1017 959 1029 980 963 1001 968 945 962 982 904 921 915 935 986 863 894 886 945 897 929 860 926 906 904 875 895 948 880 926 878 935 900 883 885 859 881 863 895 896 928 791 858 890 821 875 889 901 908 900 899 909 879 897 855 936 853 854 907 857 874 908 912 922 897 870 908 897 888 893 855 883 843 867 871 872 804 836 893 872 888 842 945 906 890 847 905 894 900 869 887 853 920 867 933 875 903 836 880 843 878 858 842 892 935 889 875 854 879 849 888 833 859 928 916 893 898 885 879 880 835 875 814 847 845 932 837 860 857 854 844 884 852 864 867 857 854 868 831 892 913 879 873 889 870 897 857 919 843 906 902 914 878 906 895 902 899 877 830 845 846 913 831 845 846 896 906 858 864 870 863 854 879 829 823 892 879 833 860 903 812 879 841 834 886 885 886 850 887 898 864 847 908 842 874 892 881 831 861 874 892 859 814 914 921 861 889 827 853 875 875 891 895 891 863 839 852 841 842 847 891 890 831 851 864 855 860 924 917 895 876 855 884 853 869 840 884 866 884 878 879 881 841 857 856 947 857 856 873 865 873 892 909 890 869 770 880 881 917 945 797 848 897 868 842 832 909 878 844 843 835 830 845 877 816 833 903 873 838 937 851 883 891 842 827 835 838 860 884 887 862 858 840 892 919 869 886 879 889 837 856 891 882 845 870 885 849 857 897 874 877 828 865 844 850 848 885 804 889 859 822 876 927 852 898 790 920 874 838 847 848 892 843 894 843 847 878 884 906 838 875 866 794 891 847 807 869 874 838 869 829 846 875 888 880 830 829 912 829 873 856 875 905 896 805 892 882 889 824 873 847 827 835 862 885 886 787 811 905 851 876 910 827 876 848 859 832 796 817 939 882 865 794 804 846 850 884 846 884 906 901 882 875 884 883 846 849 861 856 854 898 800 860 828 853 866 832 868 864 892 832 887 869 892 881 887 876 834 863 864 825 865 879 935 851 844 942 833 880 910 915 872 857 889 938 889 912 903 912 893 882 909 880 900 942 944 969 912 885 999 964 900 959 899 960 944 1018 992 1030 988 974 1022 981 1091 963 1047 1050 1034 1021 1011 1069 1001 946 980 1011 993 998 992 988 960 1026 962 970 988 1039 993 915 934 946 982 915 903 894 919 935 908 960 921 910 879 834 854 898 869 938 903 877 874 877 882 843 855 820 893 855 817 886 825 932 830 868 819 884 864 828 883 852 857 835 878 886 871 835 875 788 878 824 836 909 873 869 851 882 845 909 811 834 804 833 870 890 857 887 834 915 844 893 832 900 915 868 855 832 854 879 914 861 868 822 883 876 874 868 863 837 846 876 813 893 837 863 839 858 809 875 899 840 866 821 877 845 874 864 876 875 789 806 888 811 807 889 889 849 862 843 852 888 926 829 851 860 874 856 889 882 836 859 855 901 851 930 839 832 805 830 787 852 814 882 851 826 866 814 828 906 838 835 879 858 849 880 835 873 901 851 869 845 877 863 816 867 888 870 844 828 800 876 901 848 896 821 837 901 835 846 832 863 833 849 837 861 850 846 911 849 909 864 898 888 878 839 835 866 841 822 883 856 901 831 890 852 799 875 879 825 850 892 833 865 817 829 844 885 850 896 846 873 863 859 863 888 876 907 830 858 876 903 895 845 930 904 871 919 896 862 857 881 862 972 895 916 869 909 919 907 957 893 931 964 920 975 927 915 1034 967 1007 981 972 996 1119 1056 1057 1026 1047 1075 1130 1098 1148 1111 1143 1190 1249 1161 1224 1260 1313 1321 1262 1322 1297 1340 1275 1279 1292 1344 1307 1246 1281 1209 1260 1240 1199 1132 1185 1171 1118 1159 1194 1121 1164 1126 1137 1082 1135 1095 1050 1049 1053 910 1069 981 942 960 962 958 953 956 890 909 910 879 903 863 859 916 974 872 910 913 896 897 896 882 874 913 836 899 891 847 876 857 877 869 923 882 873 822 852 855 859 861 932 836 819 888 850 842 834 876 856 859 891 803 822 874 852 846 882 815 883 838 887 852 932 819 849 867 879 884 866 824 870 883 796 899 798 890 814 835 822 890 852 906 840 829 912 877 856 827 892 884 862 848 884 900 837 857 836 905 877 855 854 846 857 925 811 832 857 843 872 821 860 871 835 864 813 830 870 846 829 832 849 804 801 810 868 853 890 881 847 836 848 853 829 883 816 771 895 833 872 786 864 851 833 832 880 875 836 891 853 832 833 856 885 829 823 872 888 820 803 838 883 831 837 891 815 832 845 879 781 834 875 862 861 826 814 810 873 842 854 835 897 877 839 899 825 811 878 860 866 842 861 862 828 823 870 811 795 833 876 851 830 868 854 874 829 856 867 796 831 832 796 812 806 843 838 893 817 869 843 869 856 849 820 845 875 834 849 853 846 807 905 772 842 855 850 845 839 867 942 795 831 801 841 866 844 849 873 817 805 905 864 829 875 826 860 805 902 830 822 836 884 857 811 872 789 860 813 877 837 871 886 853 806 793 880 842 843 864 860 866 806 834 888 825 839 839 830 849 837 871 788 835 838 854 857 846 905 830 857 814 836 817 831 829 841 809 814 838 879 775 880 899 878 851 850 876 845 863 839 793 866 858 832 838 781 871 789 851 800 844 830 844 908 834 844 817 870 841 854 821 912 822 895 860 832 788 867 831 839 895 808 822 812 824 882 896 779 854 841 851 833 871 856 875 835 817 819 847 869 931 871 892 873 810 868 826 880 865 824 869 876 882 888 817 841 828 809 793 790 773 896 825 831 804 844 907 836 840 885 882 826 883 794 815 880 861 860 851 848 828 813 850 870 901 842 853 848 870 863 839 857 872 832 866 796 839 806 851 870 817 890 860 826 830 834 834 824 855 858 904 896 854 882 859 839 859 854 890 838 825 850 901 829 846 826 828 912 870 863 837 858 889 864 843 883 853 853 801 849 866 924 861 858 862 813 816 857 851 843 875 842 820 822 811 870 800 855 832 795 856 824 876 901 841 821 823 823 860 868 887 830 884 831 814 809 857 896 847 818 866 895 866 906 905 865 900 856 885 845 849 844 839 852 842 836 848 817 840 859 892 888 840 862 839 837 793 893 870 848 860 882 825 852 830 879 842 876 861 885 843 856 892 862 852 838 855 865 773 813 853 880 859 843 854 922 824 850 836 840 854 848 864 831 885 862 891 894 847 848 892 901 884 938 864 832 826 876 944 833 850 879 885 893 973 869 972 858 854 879 928 873 920 930 928 956 939 935 965 944 964 937 940 975 976 992 937 976 994 927 985 981 958 986 966 973 885 950 970 944 934 909 997 942 930 955 937 904 910 951 888 939 1037 988 965 987 934 943 944 915 909 968 905 942 1023 974 911 1038 905 984 928 939 967 895 976 966 963 1034 973 977 1059 1011 970 1063 1023 955 1031 1027 1031 946 1014 969 1054 1027 956 976 995 964 1023 991 948 1001 996 967 952 973 968 956 972 903 938 960 920 912 923 967 914 959 931 890 836 951 905 923 877 884 888 895 900 897 870 884 828 893 881 848 938 890 849 891 861 922 857 845 826 890 872 891 874 860 851 846 882 867 874 852 852 860 863 824 873 835 831 888 888 870 896 803 862 872 897 880 915 868 844 861 901 861 877 895 851 894 880 895 872 841 846 913 826 878 890 872 882 861 837 882 849 829 869 900 862 846 919 856 894 895 852 855 868 903 900 860 907 916 863 898 842 910 914 853 863 860 910 858 882 865 938 910 886 857 854 870 937 869 836 884 869 921 895 866 887 888 849 875 867 866 864 973 825 945 914 880 926 875 872 881 931 827 873 865 932 840 849 896 929 875 928 948 927 924 964 939 952 904 938 940 969 965 978 1086 1039 991 1072 1091 1095 1049 1080 1130 1082 1136 1113 1174 1180 1192 1187 1197 1221 1206 1207 1211 1273 1276 1320 1364 1343 1346 1420 1479 1529 1570 1616 1613 1634 1700 1733 1783 1771 1793 1863 1858 1867 1829 1816 1728 1798 1629 1720 1653 1617 1642 1546 1520 1529 1525 1520 1422 1470 1359 1353 1452 1345 1469 1346 1393 1324 1407 1298 1371 1268 1270 1208 1212 1205 1177 1132 1097 1060 1011 1065 998 970 1010 994 906 933 993 924 950 1005 891 950 958 907 907 921 932 875 903 971 920 917 860 864 874 916 947 872 865 847 893 885 934 883 863 882 854 806 934 870 905 871 905 850 865 848 869 840 921 891 893 862 907 879 847 856 840 853 843 847 864 829 897 886 850 848 867 897 870 891 878 839 926 842 853 907 795 874 842 854 831 856 891 872 900 931 905 924 887 934 892 890 928 873 885 853 882 845 903 876 837 919 888 944 865 914 861 838 920 906 896 910 912 874 917 937 977 897 943 889 909 883 945 950 937 942 908 945 926 958 949 930 908 977 958 1011 936 964 959 913 910 913 907 894 933 907 991 945 962 942 924 945 958 824 914 907 862 898 889 875 932 858 870 928 882 884 874 906 892 837 864 895 873 881 822 870 840 865 890 859 874 847 883 813 906 828 893 842 827 863 880 898 861 840 841 853 863 835 864 891 793 839 878 830 832 802 897 807 886 890 818 850 839 860 912 809 809 842 830 824 850 841 896 888 896 885 869 862 828 858 874 854 896 898 853 850 790 856 831 877 898 816 892 882 932 842 848 852 876 897 875 859 872 886 866 841 882 923 903 866 863 822 917 858 857 849 867 888 918 862 805 844 885 844 895 843 880 861 788 858 861 863 821 871 856 852 932 904 927 876 850 833 858 831 812 907 864 800 852 857 861 923 808 875 847 872 841 844 875 865 847 856 846 892 892 882 861 863 906 852 839 825 897 851 847 859 874 860 833 807 848 804 858 805 828 888 787 846 890 868 895 843 820 840 920 885 872 854 865 914 871 824 825 879 825 857 788 862 845 807 899 861 860 890 862 833 814 840 896 924 777 855 906 866 803 832 802 852 817 837 867 858 873 816 799 856 849 889 875 890 886 837 873 869 844 900 814 845 880 854 897 806 823 858 868 836 795 893 845 843 875 818 832 825 850 858 812 883 873 861 832 855 838 925 868 841 894 825 801 826 865 890 902 834 859 849 884 890 869 818 856 843 877 862 862 920 877 866 826 864 927 890 859 864 813 817 913 864 858 832 872 876 862 821 851 822 902 862 882 883 829 829 821 862 798 758 837 868 829 796 808 922 856 807 838 853 816 878 804 858 861 844 866 864 873 826 837 894 832 891 887 853 827 867 798 862 840 824 879 838 919 881 820 866 867 936 889 843 880 886 836 954 902 861 863 866 894 790 830 874 851 891 845 883 854 840 886 858 875 853 882 895 900 799 851 888 914 861 850 846 824 914 868 879 801 910 874 862 848 890 862 885 857 862 868 914 914 879 855 897 832 903 864 868 892 961 878 931 905 919 931 941 908 961 966 972 1010 957 946 987 983 940 946 887 957 952 982 968 930 889 952 912 922 871 964 919 958 936 964 895 853 888 899 889 940 925 909 893 959 874 910 943 907 950 929 911 883 915 908 853 871 843 924 880 836 857 876 839 865 892 820 906 867 847 870 877 894 847 860 841 919 839 872 810 866 858 860 849 840 868 931 872 845 818 867 902 838 835 888 870 864 862 869 901 835 826 873 867 865 837 848 809 892 841 906 899 827 848 874 839 807 827 888 900 854 839 882 850 861 862 875 840 878 852 861 918 918 888 847 837 845 785 826 830 846 888 855 873 911 859 862 847 807 916 890 862 831 814 953 848 899 841 819 889 792 815 836 842 883 838 883 904 847 850 844 846 856 828 896 922 808 849 865 845 919 893 861 912 892 846 874 874 826 885 809 813 901 828 888 845 864 862 850 867 811 833 847 818 856 869 847 882 818 833 825 847 904 862 840 842 916 834 855 843 821 867 883 859 842 812 880 878 859 840 919 853 910 886 851 869 867 837 849 866 871 827 927 933 908 898 924 890 894 968 878 884 927 937 948 996 879 923 980 956 981 1011 1023 1017 1031 1008 1032 1059 1072 1035 1045 1048 1038 1080 1051 1041 1078 1142 1080 1071 1081 1087 1149 1087 1159 1230 1170 1156 1243 1250 1341 1249 1306 1323 1448 1437 1457 1381 1449 1440 1447 1548 1507 1490 1472 1466 1513 1449 1437 1428 1325 1324 1363 1287 1308 1257 1267 1235 1238 1244 1157 1188 1206 1234 1208 1324 1252 1212 1164 1197 1205 1131 1168 1219 1153 1080 1134 1109 1127 1080 1078 1058 1043 1052 988 949 982 981 918 918 958 944 937 967 908 887 892 859 925 888 882 936 956 859 893 895 917 795 845 884 916 865 876 903 865 946 905 911 846 878 884 845 876 862 870 857 857 905 883 867 884 821 901 885 857 879 858 837 905 900 929 880 839 897 856 865 873 881 898 846 891 865 882 827 857 876 837 887 858 877 904 962 861 933 817 893 808 844 832 889 894 892 873 867 915 899 826 928 867 855 909 884 848 875 853 906 831 850 892 864 853 879 908 831 874 915 922 870 936 835 905 844 901 870 879 894 925 898 846 891 880 937 916 855 930 876 917 873 919 924 913 953 878 915 909 921 849 901 917 894 893 911 873 915 897 822 901 898 896 869 936 858 900 923 873 852 889 913 860 914 826 815 898 866 901 855 902 861 865 838 830 831 842 824 886 856 898 869 837 870 861 790 888 842 886 850 852 847 918 867 860 826 902 881 848 788 876 901 818 864 815 842 870 850 855 883 829 862 873 837 858 881 838 844 865 870 840 907 843 823 835 847 859 856 895 865 837 840 826 868 880 851 834 814 820 853 855 795 801 789 818 841 860 841 825 849 854 858 814 882 862 836 811 847 834 840 842 860 829 888 847 857 797 846 877 855 885 816 873 864 846 817 778 839 846 830 836 817 829 858 846 894 856 811 838 801 877 889 851 824 843 868 868 813 857 839 833 867 845 848 891 880 815 836 842 866 842 833 842 921 904 836 845 810 886 837 855 849 865 885 809 910 839 836 864 865 858 863 869 842 810 861 918 847 903 910 815 839 858 847 817 807 832 867 889 834 797 855 827 852 856 888 829 864 834 846 852 862 834 822 864 877 884 832 881 844 877 919 913 850 915 856 877 831 885 814 849 841 883 770 820 817 862 830 813 822 848 895 896 852 804 884 883 835 869 855 873 867 850 850 801 906 870 810 882 828 888 878 845 885 860 834 873 895 805 863 872 862 834 829 837 857 823 812 859 840 818 856 850 806 837 909 824 892 868 878 869 862 833 827 790 853 866 820 840 867 837 854 874 873 839 843 856 830 849 860 855 880 901 856 868 835 847 864 824 864 805 879 838 808 826 837 848 859 874 862 869 839 870 854 887 831 870 775 858 845 858 860 801 853 845 849 866 817 825 866 861 903 851 846 885 826 892 856 870 849 889 901 860 781 856 879 853 849 820 849 873 822 851 823 881 834 874 825 907 866 792 827 842 851 841 866 842 787 928 874 854 876 814 878 875 903 929 870 869 911 907 958 832 884 940 895 875 928 874 909 886 878 916 892 896 901 921 842 890 956 921 886 868 935 939 945 955 933 949 944 934 958 999 995 952 1022 970 970 1002 966 996 995 1006 1068 1019 970 994 948 943 934 966 981 960 914 950 916 929 923 919 947 984 959 969 984 980 978 994 943 985 930 991 986 943 890 946 1001 925 980 893 964 966 883 967 937 863 913 988 970 955 967 979 890 938 920 970 975 986 1041 934 1007</counts>
			</dataPoints>
		</scan>
	</xrdMeasurement>
</xrdMeasurements>
