<?xml version="1.0"?>
<xrdMeasurements xmlns="http://www.xrdml.com/XRDMeasurement/2.3" xmlns:xsi="http://www.w3.org/2001/XMLSchema-instance" xsi:schemaLocation="http://www.xrdml.com/XRDMeasurement/2.3 http://www.xrdml.com/XRDMeasurement/2.3/XRDMeasurement.xsd" status="Completed" recordIdentifier="{FB419ACB-28B6-4AB7-ACAA-F68BDA31084C}">
	<comment>
		<entry/>
	</comment>
	<sample type="To be analyzed">
		<id>GPSS_Li1p65Fe0p95V0p15Cl4_112425_69248ac4f4e53d1f723993d3</id>
		<name></name>
		<preparedBy></preparedBy>
	</sample>
	<xrdMeasurement measurementType="Scan" status="Completed" sampleMode="Reflection">
		<usedWavelength intended="K-Alpha 1">
			<kAlpha1 unit="Angstrom">1.5405980</kAlpha1>
			<kAlpha2 unit="Angstrom">1.5444260</kAlpha2>
			<kBeta unit="Angstrom">1.3922500</kBeta>
			<ratioKAlpha2KAlpha1>0.5000</ratioKAlpha2KAlpha1>
		</usedWavelength>
		<incidentBeamPath>
			<radius unit="mm">145.00</radius>
			<xRayTube id="1010048" name="Empyrean Cu LFF HR (9430 033 7310x)">
				<tension unit="kV">40.0</tension>
				<current unit="mA">15.0</current>
				<anodeMaterial>Cu</anodeMaterial>
				<focus type="Line">
					<length unit="mm">12.0</length>
					<width unit="mm">0.4</width>
					<takeOffAngle unit="deg">6.0</takeOffAngle>
				</focus>
			</xRayTube>
			<sollerSlit id="21010002" name="Soller slits 0.04 rad.">
				<opening unit="rad">0.0400</opening>
			</sollerSlit>
			<mask id="22031000" name="Fixed mask 13 mm">
				<width unit="mm">9.00</width>
			</mask>
			<divergenceSlit id="22120001" name="Divergence slit 1°" xsi:type="fixedDivergenceSlitType">
				<distanceToSample unit="mm">50.00</distanceToSample>
				<height unit="mm">1.52</height>
			</divergenceSlit>
		</incidentBeamPath>
		<sampleMovement xsi:type="spinningSampleMovementType">
			<spinnerRevolutionTime unit="seconds">1.0</spinnerRevolutionTime>
		</sampleMovement>
		<diffractedBeamPath>
			<radius unit="mm">145.00</radius>
			<antiScatterSlit id="22090040" name="AS slit 9 mm (PIXcel)" xsi:type="fixedAntiScatterSlitType">
				<height unit="mm">9.00</height>
			</antiScatterSlit>
			<sollerSlit id="21020003" name="Large Soller slits 0.04 rad.">
				<opening unit="rad">0.0400</opening>
			</sollerSlit>
			<filter id="20030001" name="Large beta-filter Nickel">
				<material>Ni</material>
				<thickness unit="mm">0.020</thickness>
			</filter>
			<detector id="7010019" name="PIXcel1D-Medipix3 detector" xsi:type="rtmsDetectorType">
				<phd unit="keV">
					<lowerLevel>4.02</lowerLevel>
					<upperLevel>11.27</upperLevel>
				</phd>
				<mode>Scanning</mode>
				<activeLength unit="deg">5.542</activeLength>
			</detector>
		</diffractedBeamPath>
		<scan appendNumber="0" mode="Continuous" scanAxis="Gonio" status="Completed">
			<header>
				<startTimeStamp>2025-11-28T10:32:51-08:00</startTimeStamp>
				<endTimeStamp>2025-11-28T10:40:59-08:00</endTimeStamp>
				<author>
					<name>AutomatedUser</name>
				</author>
				<source>
					<applicationSoftware version="1.7b (136)">PANalytical Aeris Instrument Suite</applicationSoftware>
					<instrumentControlSoftware version="3.2.00000000 20240306">AERIS</instrumentControlSoftware>
					<instrumentID>950485</instrumentID>
				</source>
			</header>
			<dataPoints>
				<positions axis="2Theta" unit="deg">
					<startPosition>10.00943322</startPosition>
					<endPosition>99.99442286</endPosition>
				</positions>
				<positions axis="Omega" unit="deg">
					<startPosition>5.00471661</startPosition>
					<endPosition>49.99721143</endPosition>
				</positions>
				<commonCountingTime unit="seconds">12.495</commonCountingTime>
				<counts unit="counts">2950 2949 2996 3039 2979 3005 3036 2956 2998 2987 3019 3014 3034 3005 3075 3068 2985 3068 3070 2955 3027 3064 3048 3119 3050 3166 2934 2978 2970 2969 3041 3103 2991 3057 2976 3136 3053 3102 3075 3040 2931 3055 2989 2963 3021 2970 3053 3138 3067 3011 2957 3077 2931 3074 3099 2993 3043 3115 3066 3088 3048 3069 3073 3076 2992 3149 3014 3062 3115 3072 3157 3143 3215 3090 3217 3170 3119 3045 3047 3102 3124 3075 3109 3141 3103 3163 3122 3123 3113 3224 3210 3162 3118 3207 3241 3250 3169 3170 3113 3057 3181 3247 3280 3265 3147 3241 3168 3209 3315 3144 3169 3283 3139 3274 3326 3167 3212 3259 3355 3236 3256 3301 3305 3292 3320 3321 3256 3301 3279 3165 3326 3327 3223 3233 3263 3333 3301 3388 3227 3269 3280 3214 3263 3240 3279 3304 3279 3345 3365 3324 3364 3216 3287 3236 3308 3269 3325 3386 3301 3332 3374 3319 3284 3439 3299 3360 3415 3342 3344 3401 3298 3356 3268 3300 3287 3349 3277 3260 3378 3178 3382 3383 3304 3412 3340 3303 3368 3247 3373 3270 3358 3322 3350 3349 3273 3248 3277 3307 3395 3372 3365 3430 3344 3196 3403 3261 3396 3322 3434 3288 3273 3342 3454 3248 3320 3296 3408 3382 3380 3375 3360 3407 3381 3313 3300 3212 3309 3219 3352 3201 3268 3147 3240 3215 3239 3320 3318 3295 3236 3237 3216 3265 3283 3256 3206 3199 3244 3291 3184 3262 3347 3304 3369 3343 3381 3347 3239 3136 3403 3248 3241 3238 3207 3257 3238 3296 3218 3220 3230 3159 3229 3251 3295 3319 3274 3177 3319 3186 3222 3249 3199 3214 3246 3245 3157 3242 3196 3254 3144 3159 3221 3220 3234 3285 3276 3307 3193 3191 3351 3200 3273 3289 3238 3183 3266 3239 3236 3280 3147 3289 3232 3349 3335 3327 3311 3302 3308 3248 3341 3268 3300 3357 3289 3304 3269 3268 3264 3365 3230 3366 3356 3306 3214 3322 3281 3242 3221 3381 3340 3281 3305 3446 3359 3391 3381 3386 3424 3424 3480 3341 3388 3420 3346 3446 3387 3505 3486 3384 3488 3419 3461 3619 3400 3477 3378 3502 3441 3364 3502 3469 3483 3527 3494 3486 3568 3509 3462 3531 3601 3484 3482 3505 3468 3615 3429 3636 3649 3557 3545 3570 3480 3547 3585 3640 3578 3610 3688 3657 3588 3701 3675 3764 3632 3636 3585 3630 3682 3637 3616 3644 3661 3796 3747 3780 3685 3769 3647 3795 3802 3763 3722 3819 3892 3883 3923 3854 3776 3829 3757 3879 3849 3875 3859 3809 3909 3859 3953 4017 3982 3920 4016 3971 3979 3991 4105 4226 4050 4070 4090 4186 4093 4248 4206 4226 4308 4360 4094 4443 4459 4379 4547 4381 4431 4369 4546 4430 4528 4524 4639 4676 4675 4591 4560 4608 4643 4460 4593 4532 4595 4547 4686 4701 4587 4709 4557 4607 4662 4834 4673 4642 4553 4893 4772 4664 4874 4625 4676 4623 4528 4615 4467 4561 4535 4379 4396 4485 4460 4387 4321 4219 4071 4256 4146 4149 4209 4050 4056 4138 4058 4094 4020 4127 4007 4027 4011 4034 3940 3897 3838 3811 3838 3698 3753 3698 3737 3756 3662 3617 3599 3607 3573 3614 3439 3751 3650 3561 3615 3540 3610 3456 3529 3371 3544 3535 3447 3518 3545 3595 3523 3457 3531 3360 3467 3375 3496 3450 3487 3433 3446 3479 3514 3389 3388 3376 3418 3387 3465 3393 3461 3457 3387 3341 3356 3461 3435 3371 3457 3390 3423 3402 3406 3451 3351 3348 3404 3448 3433 3295 3318 3324 3339 3465 3362 3398 3345 3387 3254 3284 3337 3432 3368 3525 3340 3408 3331 3409 3258 3337 3373 3505 3267 3324 3330 3229 3315 3348 3338 3326 3183 3322 3272 3368 3328 3328 3246 3351 3232 3360 3178 3252 3279 3368 3289 3372 3328 3242 3311 3333 3198 3258 3391 3255 3463 3351 3236 3281 3272 3265 3367 3226 3242 3197 3262 3284 3323 3271 3319 3282 3302 3331 3239 3269 3367 3365 3274 3265 3217 3332 3282 3250 3224 3309 3371 3248 3257 3251 3296 3388 3307 3423 3333 3194 3266 3295 3264 3352 3309 3326 3259 3252 3299 3216 3389 3285 3249 3415 3319 3311 3355 3298 3327 3214 3264 3256 3243 3274 3334 3241 3269 3344 3225 3313 3181 3306 3283 3235 3211 3223 3212 3162 3240 3318 3223 3200 3385 3287 3222 3212 3265 3185 3142 3265 3344 3249 3220 3193 3260 3241 3216 3245 3279 3181 3180 3271 3226 3244 3195 3199 3240 3236 3224 3220 3259 3139 3163 3217 3234 3164 3198 3213 3285 3256 3240 3213 3265 3223 3158 3248 3157 3234 3177 3145 3240 3162 3232 3206 3202 3150 3064 3226 3161 3253 3267 3207 3176 3141 3139 3117 3173 3139 3122 3226 3203 3180 3189 3279 3176 3202 3219 3155 3187 3262 3152 3196 3138 3085 3129 3081 3158 3138 3219 3029 3165 3160 3185 3126 3179 3075 3098 3238 3116 3122 3076 3220 3061 3173 3189 3176 3071 3178 3147 3178 3207 3181 3163 3161 3166 3287 3224 3197 3213 3146 3233 3138 3146 3199 3145 3158 3107 3162 3196 3194 3120 3110 3072 3106 3088 3075 3210 3173 3139 3136 3125 3095 3262 3059 3163 3055 3140 3105 3102 3154 3102 3158 3153 3081 3214 3117 3059 3085 3120 3101 3019 3182 3196 3101 3145 3082 3037 3121 2979 3020 3023 3102 3125 3141 3029 3056 3034 3021 3068 3071 3225 3077 3097 3050 3019 2977 3087 3061 3107 3091 3146 3071 3114 3134 3097 3044 3070 2989 3177 3092 3079 3067 2972 3017 3076 3062 3094 2988 2958 3094 3045 3022 3068 3068 2993 2979 3043 3014 2933 3107 2960 2908 3054 3104 3004 2987 3166 2990 3065 3023 3053 3068 3046 3072 3080 2970 3041 3029 3028 3017 3136 3030 3030 3061 3062 3076 3083 2998 3070 3065 3037 2884 3019 3069 2897 2948 3016 3100 2942 3056 3062 3051 3084 3047 3159 2994 3097 2938 3102 3098 3020 2980 3000 3008 2998 2996 3035 2974 3002 3084 2957 3016 3037 3076 3008 2948 3116 2928 3098 2943 3049 2980 3063 3058 3012 2972 3031 2936 3106 3054 3010 3089 3097 2973 3045 3034 3035 3000 3102 3061 2997 2988 3106 2887 3063 3136 3046 3004 3076 2997 3030 2970 3029 3157 3008 2994 2988 3049 2976 2976 2999 3025 3081 2965 3091 3072 2991 3096 3014 3050 3119 3080 3105 2996 3031 3125 2974 3044 3071 3099 3068 3047 3098 2974 3065 2952 2967 3038 3175 3049 3024 3025 3106 3074 3028 3029 3059 2968 2888 3068 3041 3077 3023 3153 3046 2914 3100 2995 3020 3030 3049 3016 3082 2939 3100 3020 2997 2917 3037 3004 2989 3065 3053 3083 2964 3012 2995 2985 3031 2988 2936 2999 2999 3004 2928 2992 3141 3118 3000 3025 3053 2958 3038 2975 2992 2930 3027 2983 3050 2939 2953 2967 2982 2971 3061 2972 2945 3107 2942 2957 2993 2993 2920 2882 2951 2876 3022 2883 2892 2864 2920 2906 2925 2867 2997 2965 3013 2920 2899 2947 2934 2854 2984 2980 2849 2957 2996 2777 2902 2922 2888 2785 2905 2873 2904 2828 2771 2763 2673 2872 2798 2785 2909 2754 2929 2801 2780 2778 2728 2840 2834 2830 2875 2785 2768 2732 2866 2777 2770 2774 2829 2790 2767 2718 2771 2687 2752 2712 2854 2760 2817 2786 2732 2789 2770 2735 2681 2702 2669 2788 2776 2821 2695 2713 2689 2684 2681 2734 2664 2744 2666 2803 2673 2673 2686 2679 2712 2753 2730 2719 2748 2705 2616 2631 2683 2669 2620 2616 2697 2710 2671 2684 2653 2727 2608 2632 2612 2692 2650 2678 2611 2561 2536 2646 2547 2609 2748 2575 2607 2570 2512 2553 2644 2695 2589 2580 2536 2610 2583 2629 2535 2479 2674 2569 2544 2667 2562 2526 2568 2489 2618 2614 2494 2583 2648 2610 2519 2651 2552 2592 2630 2587 2571 2606 2642 2601 2600 2676 2614 2583 2609 2599 2623 2625 2591 2593 2575 2537 2591 2493 2733 2565 2529 2592 2612 2528 2522 2592 2571 2554 2448 2554 2609 2486 2498 2551 2598 2507 2517 2513 2676 2569 2554 2571 2570 2576 2586 2630 2472 2494 2597 2572 2565 2602 2526 2585 2534 2410 2539 2461 2449 2468 2630 2487 2522 2599 2540 2580 2490 2634 2544 2547 2487 2567 2573 2564 2559 2457 2519 2545 2562 2547 2501 2521 2459 2523 2566 2518 2501 2593 2500 2461 2645 2651 2606 2663 2592 2571 2614 2605 2515 2536 2446 2537 2516 2558 2608 2539 2583 2564 2566 2628 2590 2588 2540 2534 2597 2576 2575 2564 2602 2565 2519 2454 2602 2546 2618 2618 2515 2573 2417 2530 2525 2578 2531 2505 2488 2420 2495 2509 2634 2534 2569 2527 2566 2618 2599 2634 2541 2509 2551 2453 2500 2534 2622 2574 2580 2560 2675 2510 2676 2469 2600 2554 2552 2605 2506 2619 2548 2627 2610 2586 2535 2696 2549 2680 2546 2575 2590 2648 2640 2542 2536 2602 2579 2669 2597 2549 2592 2599 2605 2507 2572 2635 2595 2566 2557 2448 2561 2621 2511 2549 2504 2607 2597 2606 2515 2448 2550 2552 2520 2436 2640 2560 2485 2559 2449 2661 2570 2653 2516 2634 2580 2527 2510 2504 2552 2511 2474 2529 2505 2582 2596 2513 2486 2502 2564 2509 2463 2534 2440 2374 2554 2470 2484 2495 2421 2590 2517 2455 2485 2450 2535 2391 2466 2526 2491 2437 2464 2344 2377 2404 2412 2290 2432 2522 2400 2416 2446 2379 2473 2451 2512 2384 2461 2483 2506 2352 2260 2308 2460 2295 2306 2362 2309 2320 2394 2400 2310 2353 2419 2329 2306 2364 2446 2329 2345 2297 2392 2452 2435 2384 2405 2446 2307 2363 2339 2320 2297 2308 2434 2309 2392 2348 2327 2241 2323 2322 2326 2327 2434 2417 2317 2313 2322 2291 2289 2305 2307 2364 2322 2273 2282 2307 2225 2236 2385 2292 2294 2254 2301 2235 2250 2264 2353 2354 2266 2304 2261 2308 2245 2274 2316 2315 2248 2311 2241 2259 2273 2259 2260 2330 2338 2256 2234 2305 2340 2350 2394 2415 2329 2267 2258 2299 2317 2340 2314 2377 2439 2367 2387 2332 2359 2405 2417 2412 2425 2365 2397 2438 2572 2489 2403 2442 2594 2565 2610 2545 2624 2554 2563 2558 2601 2521 2558 2592 2665 2579 2599 2609 2664 2644 2628 2593 2726 2672 2578 2701 2689 2642 2676 2603 2551 2594 2675 2721 2700 2601 2690 2656 2614 2656 2684 2610 2641 2620 2615 2581 2616 2647 2593 2585 2551 2681 2569 2553 2633 2540 2581 2496 2446 2481 2504 2453 2392 2433 2406 2347 2514 2389 2424 2319 2334 2397 2305 2361 2346 2335 2308 2275 2357 2361 2358 2331 2388 2383 2372 2305 2242 2339 2317 2364 2292 2277 2382 2321 2316 2295 2331 2294 2396 2362 2404 2398 2506 2360 2357 2478 2432 2491 2510 2403 2500 2519 2505 2611 2571 2568 2611 2700 2653 2667 2817 2705 2827 2790 2751 2821 2896 2814 2921 2858 3002 2886 2881 2940 2985 2925 2851 2940 2896 2795 2851 2947 2954 2943 2879 2844 2810 2928 2974 2963 2928 2929 2840 2925 2852 2898 2827 2875 2834 2878 2803 2814 2795 2872 2672 2683 2694 2795 2677 2736 2697 2613 2523 2571 2590 2530 2524 2440 2430 2386 2424 2400 2338 2394 2337 2361 2287 2292 2190 2277 2212 2231 2243 2218 2111 2199 2106 2217 2113 2214 2163 2125 2163 2096 2114 2096 2154 2092 2097 2157 2103 2095 2187 2112 2126 2128 2031 2117 2190 2116 2091 2126 2093 2181 2118 2051 1982 2112 2116 2052 2042 2125 2119 2140 2046 2120 2062 2048 2017 2087 2047 2089 2038 2059 1998 2042 2115 1989 2104 2023 2107 2108 2082 2102 2068 2065 2174 1944 2086 2156 2039 2041 1964 2014 2094 2090 2067 2026 2130 2011 2014 2107 2083 2121 2046 2055 2098 2067 2013 2016 2133 2116 2109 2063 2101 2148 2049 2138 2001 2054 2007 2052 2075 2210 2133 2029 2051 2052 2091 2050 2153 2098 2109 2049 2109 2120 2076 2046 2082 2126 2081 2091 2140 2034 2074 2113 1963 2071 2046 2121 2056 2059 2114 2010 2095 2109 2041 2050 1928 2096 2030 2163 1971 1983 2033 2052 2061 2075 2094 2097 2041 2040 2044 2037 2024 2068 2106 2058 2050 2065 2131 2061 2092 2038 2044 2028 1982 2057 2097 1981 1998 2032 2029 2156 2058 2046 1980 2143 2064 2015 2006 2019 2040 1957 1938 1973 2088 1994 2000 2068 2011 2087 1956 2015 2087 1956 2044 2097 2003 2020 2046 1997 1979 2048 2048 2097 2110 2037 2074 2025 2031 1987 1950 2081 2085 2047 2055 1945 2086 2045 2079 2017 2077 2015 2064 1996 2086 2101 2013 2024 1988 2056 1994 2018 2055 2059 2115 2080 2071 2040 2023 2045 2057 2053 2066 2087 1995 2075 2017 2021 2139 2114 2020 2079 2008 2112 2084 2056 2044 2027 2057 2101 2043 2031 2028 1996 2103 2109 2016 1965 1994 2081 2152 2078 2037 2009 2086 2010 2119 2076 2009 2128 2115 2066 2055 2021 2043 2061 2046 1994 2029 2033 2105 2056 2075 2064 2128 2099 2051 2049 2045 2155 2053 2062 2068 2039 2079 2167 2138 2038 2097 2130 2107 2172 2011 2045 2140 2129 2205 2184 2119 2098 2151 2173 2112 2197 2202 2179 2165 2239 2180 2141 2146 2099 2197 2281 2230 2221 2323 2394 2455 2320 2368 2470 2518 2567 2612 2676 2738 2775 2841 2736 2973 2946 2873 3104 3096 3263 3237 3435 3433 3568 3603 3774 3755 3858 3905 4073 4150 4316 4399 4305 4526 4453 4533 4616 4701 4684 4745 4776 4803 4837 4868 4882 5009 5034 5067 5125 5119 5163 5105 5163 5138 5210 5226 5237 5286 5165 5122 5130 5127 5178 4971 5172 4862 5069 5050 4958 4934 4854 4794 4835 4608 4728 4583 4397 4436 4387 4327 4215 4274 4026 4032 3875 3812 3677 3618 3442 3574 3467 3437 3358 3302 3152 3233 3181 3048 3097 2950 2949 2997 2903 2867 2830 2745 2723 2692 2631 2624 2645 2583 2491 2537 2606 2447 2463 2524 2399 2506 2442 2445 2403 2425 2497 2411 2418 2404 2396 2518 2395 2305 2315 2353 2409 2310 2301 2297 2271 2197 2283 2264 2244 2204 2237 2303 2259 2099 2186 2238 2091 2136 2221 2149 2194 2163 2099 2106 2113 2135 2094 2151 2164 2142 2104 2112 2052 2051 2108 2132 2081 2084 2090 2073 2063 2098 2035 2075 2118 2103 2053 2121 2039 2060 2117 2056 2033 2145 2063 2151 2120 2031 2039 2013 2080 2019 1977 2090 2061 2009 2100 2010 2107 2070 2057 2017 1991 2066 2065 1965 2038 2033 2079 1963 2096 2097 2003 2039 2058 1939 2116 2106 1936 2072 1994 2059 1990 2016 2051 1972 2037 2086 2148 1965 2045 1949 2114 2095 2060 1978 2037 2035 2037 2014 1978 1932 1989 1978 1960 2010 1981 2080 1999 1969 1953 2016 2040 1986 1969 2012 1949 1980 1977 1974 2021 1957 1958 2006 2019 2060 1997 1964 1995 1959 2026 2051 1998 2012 1988 1963 2009 2000 1986 2066 2015 2071 1952 2047 2002 1970 1999 1951 2000 1925 1992 1923 1925 1981 2034 1971 1991 1986 1987 2034 1987 1962 2049 2054 1981 2050 2023 2020 1996 1949 1950 2013 1994 1954 2028 2084 2035 2053 2117 2034 2001 2033 2082 2086 2096 2017 2093 2038 2143 1978 2103 2035 2062 2096 2106 2079 2067 2040 2061 2016 1973 2087 2099 2085 2077 2015 2042 2033 2018 2073 2029 2056 2080 2011 2089 1991 1969 2035 2035 1996 1959 2108 1984 1999 2140 2066 1958 2041 2099 2042 2079 2041 2084 2174 2036 2094 2050 1957 1982 2034 2029 1961 1988 1966 2056 1982 2006 1980 2113 2005 1924 2046 2043 1975 2024 2012 2044 1964 1954 2117 1954 1950 2009 2094 2031 1946 1972 1983 2009 2031 2074 2003 2025 1956 2050 2006 1989 2012 2044 1942 1956 1963 1974 1967 2004 2000 2004 2020 1944 2012 1988 2003 1957 1975 1964 2034 1947 1919 2020 1863 1998 1948 1969 1987 1952 1899 1914 1963 1957 2021 2055 2013 1942 2020 1876 1984 1957 2024 1996 1991 2036 2083 1935 1965 1977 1914 1963 1865 1921 1903 1945 1907 1930 1913 1933 1920 1973 1883 1932 1921 1955 1892 1954 1911 1953 1950 1875 1937 1951 1901 1907 1922 1899 1921 1954 1896 1976 2045 1960 1889 1927 1962 1899 1879 2002 1940 1981 1947 1828 1974 1968 1921 1893 1917 1868 1939 1878 1914 1960 1936 1821 1868 1863 1916 1838 1916 2027 1873 1952 1873 2040 1901 1847 1984 1981 1956 1888 1856 1924 1944 1963 1965 1888 1881 1972 1859 1926 1933 1906 1926 1913 2016 1898 1874 1877 1913 2004 1916 1838 1974 1844 1855 1894 1896 1907 1895 1925 1999 1907 1983 1959 1909 1984 1888 1950 1888 1847 1847 1899 1950 1995 1891 1932 1967 2031 1974 1951 1866 1955 1897 1911 1909 1981 1913 2018 1927 1920 1955 1852 1951 1888 1926 1796 1903 1947 1794 1933 1976 1915 1878 1895 1976 1947 1947 1963 1923 1889 1992 1935 1894 1878 1928 1959 1907 1895 1909 1906 1928 1865 1863 1824 1848 1890 1917 1891 1882 1879 1977 1894 1965 1858 1875 1934 1888 1893 1919 1883 1925 1937 1954 1928 1919 1857 1917 1925 1903 1916 1937 1914 1885 1993 1987 1917 1874 1870 1923 1861 1914 1883 1860 1965 1918 1886 1908 1919 1904 1919 1940 1940 1931 1978 1943 1879 1956 1969 1905 1985 1899 1917 1857 1932 1897 1906 1872 1982 1928 1899 1976 1914 1989 1870 1855 1827 1849 1847 1888 1964 1791 1863 1917 1857 1896 1919 1918 1935 1891 1900 1953 1955 2015 1948 1978 1873 1928 1833 1861 1849 1901 1824 1898 1950 1836 1949 1822 1868 1913 1897 1890 2013 1871 1936 1929 2069 1908 1893 1874 1863 1857 1852 1910 1847 1873 1979 1955 2005 1864 1864 1874 1853 1956 1928 1958 1935 1931 1852 1990 1926 1854 1894 1877 1885 1890 1904 1914 1864 1850 1847 1886 1933 1865 1929 1899 1950 1937 1951 1889 1928 1863 1956 1966 1977 1970 1857 1939 1973 1921 1970 1887 1923 1867 1904 1912 1986 1921 1917 1878 1916 1925 1922 1917 1863 1892 1952 1954 1897 1908 1887 1984 1870 1945 1874 1951 1925 1908 1846 1867 1997 1931 1968 1944 2006 1895 1912 1907 1936 1894 1954 1932 1936 1845 1984 1858 1974 1866 1850 1920 1881 1945 1925 1909 1915 1986 1963 1844 1827 1885 1973 1912 1932 1838 1979 1904 1865 1941 1783 1921 1950 1939 1850 1832 1881 1956 1886 1949 1861 1957 1936 1846 1900 1973 1976 1914 1872 1877 1899 1961 1895 1869 1869 1947 1917 1862 1930 1979 1835 1892 1848 1907 1875 1846 1886 1912 1902 1968 1865 1932 1896 1914 1906 1921 1912 1868 1931 1889 1900 1937 1917 1899 1911 1941 1914 1908 1987 1875 1908 1878 1907 1929 1839 1866 1871 1868 1927 1835 1910 1837 1843 1908 1987 1851 1918 1938 1869 1865 1902 1889 1937 1868 1968 1981 1845 1937 1913 1906 1914 1930 1832 1894 1953 1798 1924 1876 1888 1907 1933 1920 1856 1935 1948 1847 1896 1881 1870 1970 1925 1904 1894 1967 1923 1881 1930 1924 1920 2008 1825 1921 1845 1887 1914 1959 1868 1976 1866 1889 1877 1907 1989 1918 1871 2000 1894 1987 1959 1942 1929 1996 2022 2040 1940 1963 2028 1985 2056 2012 2116 2067 2014 2110 2038 2040 2116 2052 2088 2032 2103 2145 2119 2130 2110 2092 2168 2119 2254 2278 2265 2234 2266 2255 2207 2264 2268 2243 2160 2286 2238 2283 2184 2336 2299 2356 2260 2220 2196 2290 2210 2264 2272 2369 2296 2264 2251 2244 2201 2211 2225 2241 2273 2146 2089 2278 2076 2243 2141 2128 2137 2109 2039 2089 2130 2077 1982 2078 1974 2113 1970 2068 2030 1976 1937 1954 2003 2032 2016 1982 1996 1913 1971 1899 1936 2022 1968 1976 1961 1984 2030 2023 1929 1921 1917 1882 2022 1937 1971 1915 1965 1947 1953 1891 2001 1990 2000 1888 1942 1951 1895 1953 2032 1961 2049 1975 1980 1915 1983 1989 2014 1939 2026 1999 1978 1954 2001 2030 2078 1890 1914 1973 1916 1944 1993 1939 1991 1919 1938 1935 1870 2047 2025 1927 1961 1906 1916 1938 1976 1879 1937 1916 1997 1981 1850 1864 1920 1934 1958 1977 1846 1917 1921 1938 1878 1957 1927 1961 1874 1945 1971 1945 1921 1951 1875 1889 1929 1902 1941 1879 1830 1918 1940 1892 1879 1843 1860 1996 1915 1902 1838 1855 1852 1884 1935 1870 1899 1887 1896 1869 1909 1851 1889 1947 1820 1859 1891 1986 1902 1935 1832 1933 1901 1838 1856 1859 1928 1891 1903 1942 1979 1887 1932 2002 1927 1976 1857 1890 1972 1871 2004 1949 1954 1848 1915 1863 1891 1859 1843 1898 1892 1953 1956 1967 1898 1936 1984 1937 1836 1935 1871 1868 1986 1948 1971 1814 1843 1925 1943 1911 1935 1905 2004 1953 1919 1931 1966 1879 1928 1900 1914 1896 1868 1937 1972 1912 1923 1785 1960 1909 2024 1922 1983 1956 1935 1921 1977 1930 1983 1946 1912 1915 1875 1834 2007 1947 1971 1944 1923 1947 1986 1927 1964 1897 1933 1870 1926 1950 1883 1897 1948 1818 1838 1928 1913 1841 1892 1878 1981 1847 1899 1958 1930 1868 1963 1916 1900 1918 1936 1954 1870 1973 1897 1929 1897 1987 1944 1925 1828 1912 1962 1924 1901 2000 1907 1944 1918 1960 1949 1868 1862 1991 1929 1864 1898 1974 2018 1915 1944 2032 1991 1929 2003 1967 2010 1959 1908 1959 2065 1874 1996 1960 2020 2063 1987 2015 2038 2146 2013 2144 2160 2088 2155 2101 2149 2194 2245 2253 2234 2342 2383 2362 2372 2459 2481 2498 2575 2566 2570 2702 2666 2649 2791 2859 2848 2880 2860 2931 3070 3068 3068 3120 3190 3268 3255 3261 3351 3317 3500 3358 3471 3358 3521 3417 3408 3391 3439 3572 3487 3512 3501 3500 3314 3486 3394 3440 3552 3479 3375 3375 3368 3395 3378 3276 3298 3312 3323 3249 3192 3109 3104 3092 3013 2945 3021 2965 2908 2875 2806 2771 2761 2705 2723 2617 2656 2611 2679 2584 2615 2588 2594 2501 2503 2567 2543 2553 2432 2386 2557 2462 2509 2431 2588 2493 2513 2478 2529 2402 2408 2563 2387 2414 2457 2493 2495 2498 2485 2407 2522 2386 2397 2392 2302 2447 2463 2430 2411 2371 2478 2418 2330 2317 2342 2449 2407 2345 2391 2297 2333 2316 2278 2315 2345 2319 2359 2266 2181 2247 2205 2114 2169 2161 2116 2083 2162 2205 2087 2074 2306 2139 2056 2084 2027 1936 2059 2053 1904 2012 1972 1945 1984 1976 2027 1917 1972 2006 1976 2091 1896 1961 1932 1920 1997 1973 1957 1925 1970 1893 1895 1961 1954 1920 1829 1948 1966 1854 1998 1894 1863 1930 1880 1852 1907 1860 1957 1938 1851 1876 1883 1914 1952 1874 1969 1894 1988 1952 1907 1883 1940 1907 1862 1844 1910 1902 1933 1979 1881 1966 1976 1903 1982 1941 1909 1955 2024 1918 2027 1989 1934 1937 1969 1914 1989 2037 1964 2036 1940 2117 1885 1964 2019 2078 2078 2027 2097 2067 2053 2099 2101 2128 2102 2137 2144 2032 2056 2069 2163 2052 2099 2086 2089 2084 2085 2051 2136 2122 2155 2057 2108 2110 2213 2107 1930 2152 2129 2178 1992 2067 2083 2065 2085 2041 2109 2068 2028 2002 2023 2084 2015 2044 2076 1920 2114 1970 2037 2002 1992 2011 2046 1899 1983 2033 1945 2018 1922 1967 1959 1975 2044 1999 1932 1998 2044 2040 1967 2031 1959 2026 2043 2001 2006 2041 2046 1990 2040 2006 2021 2044 2086 2066 2061 1960 2064 2033 2078 1977 2045 1987 2082 2010 2002 2050 2059 2069 2054 2076 1997 2059 2074 2110 1981 2068 2038 2013 2058 2042 2025 2006 1972 2008 1950 1986 2008 2024 1977 1977 1941 1939 2068 2006 1995 1964 1931 1954 1998 1967 1887 1866 1883 2018 1933 2082 1954 1953 1882 1914 1882 1851 1838 1838 1867 1813 1872 1870 1903 1869 1857 1758 1836 1934 1848 1970 1933 1905 1867 1774 1915 1905 1834 1919 1836 1827 1906 1836 2017 1806 1969 1842 1794 1852 1858 1871 1924 1827 1953 1890 1878 1863 1855 1817 1846 1841 1931 1838 1918 1886 1849 1887 1875 1949 1780 1896 1885 1822 1839 1777 1864 1822 1917 1859 1837 1902 1853 1910 1858 1900 1829 1895 1890 1874 1890 1852 1797 1866 1875 1880 1871 1825 1839 1798 1857 1935 1861 1803 1753 1865 1877 1847 1860 1879 1835 1862 1837 1929 1840 1870 1860 1925 1847 1868 1926 1839 1843 1936 1787 1917 1809 1846 1781 1831 1730 1831 1876 1846 1861 1849 1869 1881 1905 1874 1844 1875 1924 1891 1794 1829 1912 1892 1832 1850 1847 1863 1880 1869 1815 1849 1747 1763 1874 1874 1788 1867 1819 1711 1936 1819 1837 1842 1936 1911 1893 1871 1841 1788 1872 1793 1868 1891 1900 1817 1816 1926 1891 1842 1938 1835 1898 1915 1903 1956 1818 1785 1781 1804 1822 1793 1893 1861 1830 1858 1933 1861 1849 1830 1983 1887 1859 1767 1932 1883 1854 1914 1787 1804 1905 1819 1928 1912 1758 1808 1911 1856 1844 1823 1864 1914 1959 1865 1841 1826 1736 1825 1818 1825 1834 1876 1823 1891 1861 1913 1837 1815 1883 1813 1911 1912 1742 1752 1901 1844 1835 1829 1863 1810 1831 1856 1886 1777 1822 1843 1877 1879 1914 1863 1903 1954 1895 1900 1877 1869 1883 1811 1935 1837 1883 1848 1836 1855 1861 1887 1871 1772 1843 1764 1830 1890 1834 1852 1811 1880 1882 1782 1763 1844 1840 1897 1808 1805 1842 1777 1887 1858 1918 1833 1895 1869 1851 1842 1883 1894 1839 1808 1865 1844 1891 1788 1898 1940 1899 1852 1861 1793 1897 1827 1863 1900 1854 1792 1848 1908 1858 1860 1854 1847 1847 1837 1789 1860 1860 1844 1908 1861 1776 1821 1828 1850 1821 1839 1882 1847 1754 1801 1819 1791 1912 1834 1873 1849 1861 1879 1835 1805 1805 1865 1827 1757 1703 1836 1782 1857 1797 1918 1862 1849 1890 1882 1875 1804 1889 1866 1852 1853 1898 1893 1790 1787 1832 1892 1838 1843 1827 1894 1878 1796 1793 1763 1835 1858 1818 1807 1758 1816 1790 2010 1788 1785 1829 1867 1885 1810 1974 1846 1868 1839 1848 1844 1880 1751 1862 1854 1854 1870 1763 1871 1864 1824 1833 1851 1902 1882 1826 1822 1852 1906 1794 1830 1858 1869 1796 1854 1891 1859 1813 1896 1873 1787 1893 1867 1893 1896 1958 1937 1829 1853 1891 1885 1868 1892 1955 1826 1885 1938 1903 1833 1890 1935 1946 1881 1884 1809 1945 1856 1947 1873 1824 1919 1843 1978 1853 1845 1925 1909 1955 1856 1896 1835 1913 1901 1927 1957 1925 1869 1900 1885 1854 1958 1980 1973 1936 1935 1916 2008 1978 2075 1981 1946 1909 1959 1969 1967 1972 2008 1961 2046 1918 2022 2051 1986 1992 2024 2018 2007 2124 2022 2025 1990 2014 2020 2040 2093 2021 1951 2052 2058 2015 2040 2191 2090 2049 2045 2050 2032 2147 2047 2040 2027 1983 2038 2007 1943 2058 2090 2115 2001 2141 2001 2045 2043 1994 2019 2050 2027 2002 1932 2044 2013 2017 1944 2031 1972 2056 2053 1975 2073 1920 1915 1957 1920 1989 1943 1862 1900 1972 1908 1899 1923 1879 1927 1912 2004 1850 1957 1890 1930 1883 1889 1855 1853 1854 1838 1779 1855 1841 1777 1899 1893 1820 1868 1807 1867 1870 1859 1768 1817 1888 1827 1845 1894 1934 1891 1905 1850 1845 1851 1838 1826 1836 1802 1868 1845 1828 1874 1802 1941 1928 1880 1862 1818 1929 1812 1758 1883 1839 1895 1808 1909 1829 1849 1795 1827 1839 1821 1868 1850 1928 1866 1925 1814 1866 1879 1858 1909 1797 1830 1794 1821 1854 1843 1803 1868 1913 1855 1916 1859 1911 1884 1882 1927 1826 1907 1865 1949 1829 1892 1876 1865 1897 1782 1828 1852 1841 1816 1809 1943 1809 1909 1899 1823 1785 1877 1825 1955 1856 1817 1882 1902 1959 1770 1882 1923 1904 1876 1812 1945 1803 1891 1888 1942 1881 1803 1822 1888 1879 1853 1791 1886 1895 1815 1902 1875 1879 1833 1933 1866 1864 1895 1949 1907 1828 1866 1868 1903 1892 1896 1868 1887 1921 1981 1802 1868 1831 1922 1993 1987 1872 1886 1988 1969 1974 1964 1989 1969 1903 1943 1965 2001 2011 2129 2023 2130 2134 2160 2063 2143 2156 2099 2115 2193 2222 2170 2221 2159 2276 2154 2248 2221 2210 2219 2218 2220 2300 2330 2299 2227 2330 2156 2277 2290 2320 2203 2312 2314 2288 2275 2271 2282 2260 2257 2194 2140 2266 2298 2338 2293 2197 2186 2140 2200 2218 2157 2215 2103 2165 2092 2206 2085 2083 2120 2097 2148 2092 2065 2147 2114 2101 1983 2024 2024 2011 1999 2067 2028 1995 1948 2009 1958 1969 2025 1984 2013 2020 1894 1909 1957 1870 1958 1881 1932 1890 1913 1871 1899 1871 1957 1920 1944 1866 1982 1838 1855 1939 1922 1926 1973 1901 1993 1930 1894 1855 1848 1888 1894 1902 1926 1866 1895 1939 1907 1905 1984 1936 1869 1857 1837 1886 1904 1947 1932 1841 1911 1921 1949 1922 1959 1919 1923 1945 2000 1954 1952 1971 1900 1908 2001 1954 1852 1983 1965 1926 1944 1962 1971 1979 1888 1879 1993 1868 1948 1935 1949 1981 1876 1940 1945 1946 1994 1940 2013 1927 1962 1867 1891 1920 1876 1880 1948 1827 1929 1927 1963 1964 1938 1847 1889 1928 1910 1938 1955 1863 1982 1934 1940 1971 1931 1922 1922 1887 2023 1956 2019 1892 1970 1867 1935 1967 1935 1852 2016 2003 2005 1971 1882 1915 1993 2031 1978 1943 1872 1963 1975 1914 2120 1991 2006 2000 1932 1932 2032 1982 1911 1984 1918 1902 1903 1923 1914 2011 1899 1991 1963 1889 1995 1923 1901 1957 1972 1926 1872 1915 1915 1889 1885 1826 1899 1863 1988 1837 1978 1923 1872 1836 1921 1907 1958 1909 1872 1954 1903 1912 1917 1904 1927 1871 1838 1894 1856 1850 1869 1841 1884 1802 1877 1770 1920 1894 1873 1946 1887 1894 1894 1895 1873 1874 1878 1855 1921 1821 1807 1829 1870 1908 1784 1916 1806 1884 1904 1932 1897 1854 1946 1891 1814 1859 1871 1795 1837 1846 1837 1915 1826 1853 1834 1778 1877 1777 1839 1930 1864 1845 1877 1893 1912 1887 1846 1869 1805 1855 1814 1903 1919 1877 1825 1812 1813 1874 1848 1870 1892 1885 1864 1797 1786 1861 1856 1867 1784 1816 1810 1830 1848 1935 1875 1830 1807 1839 1829 1809 1790 1794 1847 1908 1821 1846 1834 1831 1865 1853 1868 1892 1831 1761 1863 1833 1783 1756 1826 1782 1898 1797 1831 1759 1842 1863 1809 1788 1910 1863 1904 1897 1855 1817 1884 1809 1803 1870 1831 1738 1873 1753 1839 1873 1884 1781 1916 1857 1806 1792 1828 1813 1843 1764 1811 1824 1736 1754 1794 1766 1836 1814 1791 1838 1819 1785 1831 1794 1797 1863 1848 1764 1833 1772 1814 1764 1875 1904 1717 1845 1820 1819 1813 1756 1809 1828 1871 1800 1808 1785 1842 1873 1816 1846 1785 1784 1791 1816 1797 1794 1820 1878 1832 1757 1896 1849 1760 1970 1790 1809 1836 1807 1867 1795 1821 1833 1805 1827 1779 1764 1799 1854 1815 1818 1831 1856 1849 1749 1807 1846 1738 1747 1822 1803 1837 1860 1767 1876 1869 1846 1878 1880 1802 1796 1734 1791 1789 1781 1895 1841 1870 1830 1876 1809 1724 1871 1812 1779 1800 1919 1838 1748 1849 1932 1819 1865 1751 1885 1793 1858 1782 1827 1840 1793 1813 1784 1843 1805 1828 1790 1749 1840 1855 1815 1821 1820 1820 1805 1852 1730 1815 1753 1721 1825 1814 1826 1838 1908 1777 1812 1844 1920 1869 1812 1852 1865 1884 1873 1806 1849 1907 1825 1872 1791 1868 1795 1869 1885 1916 1854 1906 1849 1737 1810 1885 1824 1825 1781 1871 1861 1847 1785 1901 1827 1822 1808 1836 1810 1778 1807 1836 1846 1839 1847 1727 1826 1857 1875 1789 1790 1745 1775 1783 1874 1844 1746 1782 1756 1786 1826 1824 1881 1788 1766 1803 1816 1884 1783 1749 1797 1847 1798 1791 1816 1824 1772 1811 1828 1874 1895 1889 1775 1781 1809 1798 1800 1767 1849 1842 1821 1852 1769 1846 1845 1786 1794 1796 1748 1757 1789 1800 1795 1757 1890 1797 1827 1737 1830 1890 1861 1822 1824 1789 1848 1835 1811 1804 1812 1909 1900 1856 1867 1874 1792 1895 1867 1780 1867 1852 1806 1794 1828 1820 1893 1818 1827 1870 1878 1884 1811 1870 1937 1885 1902 1843 1782 1866 1892 1831 1825 1930 1851 1842 1873 1849 1897 1921 1880 1814 1917 1888 1892 1887 1887 1855 1862 1939 1827 1854 1908 1897 1889 1828 1919 1939 1870 1823 1922 1872 1774 1827 1859 1913 1850 1843 1943 1887 1900 1899 1884 1839 1885 1922 1859 1839 1914 1902 1908 1807 1812 1828 1916 1843 1783 1863 1874 1752 1772 1714 1814 1906 1823 1892 1809 1773 1786 1897 1827 1832 1818 1850 1810 1829 1846 1792 1772 1792 1877 1829 1886 1813 1868 1877 1804 1861 1797 1771 1748 1852 1881 1834 1862 1789 1836 1807 1851 1791 1828 1784 1804 1820 1913 1853 1881 1867 1762 1819 1758 1836 1740 1766 1832 1856 1858 1828 1758 1855 1833 1856 1817 1956 1822 1799 1820 1781 1838 1958 1798 1812 1819 1873 1870 1835 1844 1853 1807 1847 1885 1804 1777 1782 1912 1821 1852 1868 1807 1774 1869 1833 1851 1796 1901 1831 1772 1919 1840 1889 1829 1798 1778 1788 1769 1830 1866 1907 1817 1793 1834 1805 1819 1851 1881 1791 1891 1842 1809 1801 1861 1780 1774 1890 1765 1917 1752 1785 1738 1763 1794 1778 1770 1865 1896 1828 1787 1929 1740 1769 1774 1775 1803 1777 1880 1856 1878 1836 1866 1762 1752 1805 1845 1777 1838 1866 1842 1747 1779 1856 1763 1735 1815 1809 1805 1793 1847 1861 1907 1838 1781 1798 1862 1835 1833 1859 1734 1851 1846 1825 1811 1817 1788 1885 1771 1836 1867 1717 1892 1781 1762 1819 1823 1902 1755 1827 1833 1790 1809 1838 1763 1899 1872 1855 1841 1891 1842 1803 1784 1861 1805 1800 1860 1760 1901 1847 1802 1784 1930 1784 1898 1899 1893 1889 1891 1879 1858 1870 1854 1863 1849 1831 1868 1927 1905 1962 1944 1864 1904 1942 1872 1966 1915 1836 1936 2034 2052 1947 2037 1937 1980 2042 1995 1918 1926 1870 2005 1955 1980 1981 1983 1970 1998 1909 1890 1914 1928 1923 1966 1934 2018 2023 2003 1978 1969 1965 1999 1983 1952 2004 1976 1996 1942 1975 1980 1967 1980 2063 1956 1976 1929 1931 1939 1992 2014 1927 1972 1983 1988 1945 1977 2009 1947 1932 1865 1994 1987 1933 1897 1951 1800 1859 1995 1974 1895 1955 1955 1880 1885 1904 1927 1955 1954 1882 1945 1880 1892 1854 1926 1881 1860 1834 1942 1837 1806 1819 1850 1785 1846 1804 1928 1857 1788 1855 1878 1835 1820 1837 1922 1870 1812 1806 1835 1849 1822 1850 1826 1795 1767 1815 1828 1836 1763 1836 1788 1824 1765 1852 1871 1918 1810 1790 1843 1880 1832 1752 1815 1862 1836 1888 1891 1776 1854 1818 1836 1832 1872 1898 1828 1779 1890 1797 1861 1811 1885 1830 1787 1827 1843 1909 1803 1804 1838 1854 1831 1860 1837 1823 1837 1860 1799 1795 1845 1892 1774 1857 1882 1835 1891 1823 1805 1795 1863 1848 1806 1904 1924 1906 1765 1775 1835 1889 1828 1844 1822 1790 1881 1860 1821 1802 1872 1762 1865 1783 1878 1837 1853 1774 1879 1854 1898 1816 1810 1749 1825 1840 1837 1814 1852 1869 1776 1833 1832 1881 1785 1818 1858 1779 1875 1783 1829 1806 1854 1879 1794 1830 1784 1751 1735 1886 1835 1838 1844 1813 1839 1788 1859 1833 1850 1861 1845 1810 1784 1829 1843 1868 1846 1861 1823 1908 1898 1834 1798 1892 1770 1876 1804 1768 1758 1825 1825 1815 1787 1773 1749 1790 1846 1804 1819 1760 1816 1777 1806 1888 1812 1790 1814 1776 1796 1881 1815 1768 1834 1852 1815 1787 1834 1843 1799 1742 1785 1837 1825 1797 1824 1875 1827 1822 1796 1743 1782 1881 1824 1871 1819 1874 1886 1896 1847 1871 1884 1845 1805 1806 1893 1834 1817 1816 1936 1819 1784 1789 1853 1785 1793 1850 1814 1776 1801 1824 1742 1819 1759 1807 1804 1799 1872 1847 1795 1836 1838 1822 1813 1928 1772 1869 1774 1835 1710 1757 1851 1821 1787 1866 1888 1731 1893 1751 1832 1820 1815 1845 1804 1821 1815 1824 1785 1771 1771 1853 1815 1828 1786 1848 1796 1831 1810 1834 1872 1797 1872 1852 1832 1779 1829 1821 1794 1744 1774 1894 1881 1840 1821 1847 1789 1812 1899 1800 1809 1838 1813 1818 1746 1887 1832 1764 1812 1786 1820 1749 1773 1824 1718 1864 1807 1879 1977 1790 1893 1850 1783 1792 1830 1903 1857 1847 1766 1835 1792 1849 1784 1845 1759 1831 1824 1779 1828 1756 1856 1852 1809 1826 1801 1806 1865 1716 1813 1793 1743 1752 1768 1737 1863 1884 1850 1833 1777 1846 1819 1838 1835 1765 1847 1869 1756 1886 1892 1822 1896 1856 1875 1832 1832 1805 1869 1793 1872 1796 1840 1806 1829 1819 1838 1881 1832 1904 1790 1793 1831 1820 1814 1803 1911 1848 1809 1803 1838 1745 1878 1777 1801 1813 1856 1839 1810 1809 1801 1831 1845 1795 1933 1882 1767 1778 1806 1861 1794 1791 1853 1762 1895 1818 1915 1754 1862 1785 1782 1794 1795 1847 1806 1796 1755 1905 1815 1812 1847 1847 1826 1771 1823 1833 1816 1807 1806 1851 1851 1837 1774 1820 1756 1849 1825 1851 1833 1801 1779 1808 1850 1828 1757 1810 1843 1824 1777 1809 1809 1795 1845 1815 1814 1913 1845 1799 1780 1833 1767 1881 1818 1821 1826 1892 1802 1814 1811 1837 1878 1872 1862 1748 1701 1834 1795 1853 1825 1742 1825 1861 1942 1883 1850 1805 1822 1837 1856 1806 1800 1758 1837 1910 1799 1841 1864 1827 1779 1818 1800 1859 1793 1879 1864 1833 1853 1827 1822 1853 1899 1900 1842 1777 1832 1769 1889 1812 1872 1872 1841 1845 1889 1824 1825 1887 1829 1859 1818 1847 1846 1847 1791 1825 1941 1846 1871 1904 1821 1769 1860 1885 1824 1749 1856 1876 1864 1850 1947 1902 1892 1816 1903 1884 1875 1874 1919 1926 1860 1871 1843 1854 1893 1848 1899 1875 1909 1903 1890 1899 1835 1829 1904 1920 1870 1954 1815 1863 1883 1870 1822 1846 1848 1841 1862 1878 1868 1948 1942 1979 1848 1740 1905 1893 1888 1875 1865 1874 1841 1873 1914 1833 1901 1947 1884 1862 1939 1910 1910 1881 1894 1880 1935 1831 1894 1885 1900 1843 1894 1883 1890 1773 1872 1877 1959 1861 1921 1848 1902 1907 1876 1927 1918 1854 1891 1934 1868 1947 1930 1861 1945 1831 1988 1935 1860 1909 1908 1977 1954 1847 1823 1863 1802 1816 1860 1888 1860 1880 1884 1887 1854 1846 1900 1807 1853 1869 1865 1832 1880 1826 1817 1890 1867 1879 1957 1853 1858 1901 1925 1866 1830 1823 1887 1883 1865 1864 1849 1875 1858 1807 1856 1805 1915 1880 1898 1897 1840 1961 1835 1852 1789 1844 1936 1868 1861 1780 1833 1888 1863 1906 1836 1856 1864 1814 1825 1885 1704 1957 1849 1934 1865 1814 1784 1852 1862 1921 1854 1805 1925 1843 1790 1896 1908 1827 1883 1882 1911 1884 1853 1904 1841 1925 1836 1834 1831 1912 1911 1848 1843 1899 1876 1919 1839 1828 1882 1900 1861 1887 1910 1926 1848 1838 1901 1802 1840 1851 1859 1852 1801 1891 1882 1867 1802 1940 1947 1857 1878 1937 1856 1859 1839 1863 1953 1862 1834 1836 1804 1899 1770 1911 1829 1853 1883 1898 1840 1857 1910 1893 1890 1892 1934 1903 1896 1893 1951 1913 1962 1884 1872 1951 1986 2015 1961 1937 1946 2027 1954 1990 2043 2070 2016 2069 1953 1970 2049 2009 2121 2062 2005 2116 2102 2112 2079 2120 2061 2148 2084 2143 2046 2099 2171 2142 2128 2076 2217 2264 2200 2162 2140 2097 2111 2078 2199 2124 2295 2180 2213 2170 2154 2213 2167 2275 2156 2189 2163 2174 2168 2083 2199 2161 2148 2238 2076 2160 2168 2097 2129 2200 2047 2081 2087 2092 2186 2102 2100 2112 2123 2090 2017 2027 2118 2115 1990 2152 2056 2055 2057 2052 2087 2182 2070 2128 2001 2007 2010 1994 2034 2124 1994 2058 2019 1991 2035 1991 1962 1952 2012 1891 2014 1973 1992 1890 1980 1952 1971 1918 1955 1940 1948 1933 1845 1971 1914 1915 1929 1943 1882 1917 1967 1850 1972 2031 1879 1864 1923 1822 1946 1961 1987 1939 1940 1967 1885 1829 1878 1961 2000 1946 1889 1905 1851 1870 1875 1908 1878 1926 1870 1938 1903 1938 1896 1994 1871 1890 1841 1904 1955 1932 1936 1903 1924 1871 1946 1911 1884 1980 1913 1881 1911 1883 1887 1918 1835 1986 1901 1905 1922 1969 1917 1997 1913 1967 1981 2052 1893 1918 1986 1972 2000 2031 1882 1939 1954 2020 1942 1956 2022 1945 2000 2009 1950 2008 1971 2022 2049 2046 2035 2010 1959 2005 1981 2009 1976 1974 2006 2003 2032 2031 1985 1976 1936 1941 1976 2037 1916 1964 2004 2083 1958 2104 1965 2031 1895 1934 1880 1963 1905 1953 1943 1941 1937 2045 1978 1913 1866 1850 1911 1893 1993 1960 1901 1963 1916 1807 1914 1876 1835 1873 1946 1848 1953 1903 1871 1848 1998 1871 1859 1943 1914 1906 1873 1897 1905 1932 1920 1830 1862 1897 1847 1859 1894 1829 1914 1871 1827 1882 1863 1907 1894 1924 1817 1838 1898 1787 1864 1794 1879 1837 1802 1786 1892 1908 1801 1877 1892 1833 1809 1857 1865 1832 1870 1824 1783 1879 1804 1768 1840 1832 1807 1837 1785 1861 1949 1793 1854 1869 1844 1912 1863 1802 1879 1861 1847 1778 1820 1862 1857 1839 1899 1785 1890 1849 1860 1800 1797 1847 1861 1786 1843 1862 1760 1901 1892 1826 1883 1831 1920 1858 1851 1803 1880 1758 1832 1845 1810 1820 1890 1926 1876 1872 1809 1886 1840 1827 1880 1894 1780 1880 1803 1885 1832 1842 1841 1809 1843 1842 1802 1886 1812 1781 1923 1857 1923 1819 1843 1821 1908 1856 1930 1912 1892 1829 1870 1845 1818 1893 1716 1822 1837 1800 1805 1887 1869 1831 1777 1843 1868 1840 1847 1806 1784 1891 1840 1879 1834 1843 1845 1873 1789 1826 1894 1898 1769 1906 1794 1774 1895 1890 1891 1808 1950 1811 1869 1894 1936 1842 1829 1829 1898 1843 1866 1895 1819 1836 1854 1824 1889 1765 1933 1798 1753 1866 1907 1807 1783 1864 1832 1827 1879 1886 1789 1814 1857 1808 1829 1836 1865 1866 1801 1806 1834 1761 1811 1905 1814 1847 1836 1818 1805 1897 1890 1909 1832 1898 1813 1790 1723 1881 1776 1856 1861 1928 1772 1845 1791 1776 1891 1855 1810 1859 1819 1806 1891 1835 1780 1889 1840 1781 1812 1919 1784 1873 1895 1870 1809 1776 1828 1899 1826 1836 1849 1816 1816 1890 1762 1842 1843 1886 1883 1884 1869 1885 1882 1797 1834 1774 1820 1798 1844 1858 1860 1883 1765 1900 1780 1885 1924 1896 1866 1792 1845 1785 1789 1911 1890 1845 1786 1853 1874 1867 1852 1785 1924 1875 1836 1892 1766 1815 1796 1889 1868 1827 1807 1887 1794 1812 1832 1868 1841 1882 1842 1917 1859 1847 1750 1898 1790 1870 1839 1791 1824 1816 1851 1812 1794 1839 1887 1881 1824 1798 1818 1835 1766 1773 1791 1764 1822 1909 1807 1795 1866 1810 1799 1796 1847 1823 1858 1917 1886 1844 1887 1816 1868 1854 1856 1845 1886 1859 1880 1953 1895 1836 1891 1808 1967 1848 1904 1902 1824 1877 1765 1907 1786 1976 1849 1849 1883 1900 1899 1834 1889 1872 1884 1938 1898 1829 1907 1860 1894 1960 1876 1871 1956 1868 1850 1866 1982 1913 1852 1828 1902 1841 1901 1848 1844 1882 1848 1810 1885 1908 1828 1857 1823 1870 1778 1813 1831 1887 1886 1874 1936 1873 1849 1939 1853 1898 1904 1891 1956 1869 1834 1861 1851 1902 1888 1792 1897 1845 1831 1853 1779 1852 1809 1935 1849 1900 1883 1903 1859 1877 1953 1908 1835 1873 1878 1868 1797 1890 1846 1848 1870 1827 1831 1800 1900 1908 1893 1778 1808 1857 1813 1903 1764 1832 1818 1912 1885 1819 1883 1837 1840 1881 1926 1844 1868 1816 1832 1756 1894 1877 1821 1806 1857 1796 1845 1835 1764 1751 1831 1851 1737 1926 1932 1810 1838 1823 1820 1820 1786 1948 1851 1892 1906 1918 1882 1813 1852 1908 1832 1830 1844 1801 1872 1826 1836 1795 1894 1855 1856 1817 1834 1789 1942 1785 1828 1867 1923 1806 1807 1780 1784 1893 1825 1930 1855 1912 1864 1876 1906 1908 1893 1859 1852 1848 1839 1816 1826 1868 1852 1899 1904 1885 1853 1906 1883 1869 1792 1976 1812 1893 1742 1844 1823 1789 1866 1997 1884 1935 1844 1860 1832 1801 1884 1811 1835 1904 1916 1815 1835 1861 1874 1912 1934 1894 1886 1831 1867 1873 1901 1883 1843 1927 1850 1849 1836 1902 1858 1915 1864 1721 1816 1844 1850 1794 1899 1890 1837 1826 1860 1845 1904 1809 1829 1860 1916 1917 1913 1860 1791 1837 1962 1854 1891 1913 1885 1933 1860 1972 1901 1925 1898 1972 1934 1952 1913 1986 1866 1930 1906 1976 1888 1863 1920 1942 1970 2050 1930 2027 1945 1921 1954 1978 1932 2025 2008 2014 2042 2033 1965 2033 2042 2038 2020 2109 2018 2083 2018 2107 2065 2009 2085 2043 2017 2029 1953 2016 2051 2081 2161 2018 2051 2082 1961 1990 2023 2059 2011 1999 2086 2086 2081 2020 2068 2014 2075 2022 2010 2045 2089 2018 2116 2028 2032 2029 2078 2059 2005 1928 2009 1994 1997 2013 2049 1950 1929 2021 2054 2018 2077 2014 2071 2040 2042 2005 2044 1937 2010 1940 2094 1979 1974 1952 1990 2056 1995 1980 1991 2062 1927 1953 1987 2009 1935 1954 1998 1959 1934 1914 2005 1988 1892 1940 1987 2028 1971 1979 1912 1970 1972 1891 1930 1966 1853 1861 1943 1896 1863 1840 1958 1939 1952 1877 1910 1893 1892 1900 1931 1944 1909 1984 1837 1852 1912 1928 1830 1926 1815 1838 1876 1823 1828 1847 1863 1879 1894 1918 1849 1799 1877 1951 1840 1927 1904 1898 1891 1850 1891 1867 1824 1908 1798 1869 1848 1867 1905 1894 1875 1878 2008 1845 1858 1909 1864 1893 1922 1870 1839 1943 1883 1844 1929 1948 1866 1858 1970 1900 2006 1944 1980 1929 1943 1908 1919 1937 1950 1939 1939 1954 1920 1913 2023 1923 1958 1933 1911 1909 1957 1930 1963 1985 1894 1904 1949 1881 1991 1932 1897 1953 1876 1885 1842 1965 1949 1958 1862 1923 1954 1987 1906 1939 1949 1929 1904 1897 1910 1936 1985 1934 1921 1884 1890 1923 1866 1871 1890 1920 1870 1899 1899 1958 1958 1929 1873 1873 1767 1898 1891 1880 1827 1834 1963 1822 1888 1885 1925 1889 1892 1835 1910 1907 1940 1921 1901 1828 1881 1906 1866 1828 1854 1838 1888 1890 1806 1864 1886 1826 1825 1903 1868 1840 1821 1874 1763 1844 1992 1808 1839 1853 1794 1884 1895 1818 1937 1798 1867 1773 1884 1785 1840 1837 1802 1861 1833 1951 1795 1798 1825 1848 1886 1886 1877 1856 1840 1744 1823 1843 1856 1806 1861 1831 1848 1717 1830 1948 1802 1875 1839 1885 1843 1846 1757 1921 1782 1853 1829 1827 1802 1818 1891 1837 1737 1852 1846 1784 1806 1878 1851 1715 1889 1828 1841 1899 1922 1789 1806 1877 1855 1875 1854 1824 1872 1821 1841 1899 1911 1866 1902 1856 1850 1953 1900 1887 1849 1843 1873 1860 1886 1865 1882 1843 1842 1827 1847 1838 1864 1856 1872 1730 1856 1891 1910 1871 1869 1764 1858 1870 1831 1803 1897 1888 1879 1919 1891 1917 1850 1865 1755 1873 1848 1784 1841 1828 1875 1809 1844 1876 1798 1803 1787 1813 1743 1875 1776 1814 1757 1851 1833 1771 1848 1799 1800 1851 1832 1861 1784 1878 1824 1952 1797 1851 1788 1895 1821 1852 1830 1930 1809 1905 1815 1833 1864 1841 1826 1935 1847 1861 1927 1859 1869 1819 1841 1802 1878 1857 1810 1858 1774 1876 1858 1892 1832 1924 1821 1836 1837 1868 1806 1769 1781 1881 1777 1844 1809 1909 1775 1887 1851 1893 1966 1917 1876 1793 1919 1888 1825 1831 1908 1849 1872 1894 1869 1837 1895 1905 1823 1793 1840 1908 1837 1797 1858 1810 1833 1833 1768 1804 1790 1873 1879 1846 1769 1817 1826 1841 1897 1840 1832 1824 1912 1972 1926 1834 1790 1932 1843 1868 1904 1808 1752 1854 1847 1815 1812 1801 1946 1821 1888 1822 1850 1856 1899 1813 1768 1822 1816 1833 1937 1836 1864 1900 1885 1837 1760 1790 1804 1959 1846 1825 1804 1864 1844 1881 1840 1869 1821 1854 1921 1903 1810 1884 1846</counts>
			</dataPoints>
		</scan>
	</xrdMeasurement>
</xrdMeasurements>
