<?xml version="1.0"?>
<xrdMeasurements xmlns="http://www.xrdml.com/XRDMeasurement/2.3" xmlns:xsi="http://www.w3.org/2001/XMLSchema-instance" xsi:schemaLocation="http://www.xrdml.com/XRDMeasurement/2.3 http://www.xrdml.com/XRDMeasurement/2.3/XRDMeasurement.xsd" status="Completed" recordIdentifier="{490F1C9A-1152-42A5-B2BA-4C8DE3FC7B88}">
	<comment>
		<entry/>
	</comment>
	<sample type="To be analyzed">
		<id>GPSS_Li1p4Mg0p8Ta0p1Nb0p1Cl4_122325_694ae824ae15af25ac372781</id>
		<name></name>
		<preparedBy></preparedBy>
	</sample>
	<xrdMeasurement measurementType="Scan" status="Completed" sampleMode="Reflection">
		<usedWavelength intended="K-Alpha 1">
			<kAlpha1 unit="Angstrom">1.5405980</kAlpha1>
			<kAlpha2 unit="Angstrom">1.5444260</kAlpha2>
			<kBeta unit="Angstrom">1.3922500</kBeta>
			<ratioKAlpha2KAlpha1>0.5000</ratioKAlpha2KAlpha1>
		</usedWavelength>
		<incidentBeamPath>
			<radius unit="mm">145.00</radius>
			<xRayTube id="1010048" name="Empyrean Cu LFF HR (9430 033 7310x)">
				<tension unit="kV">40.0</tension>
				<current unit="mA">15.0</current>
				<anodeMaterial>Cu</anodeMaterial>
				<focus type="Line">
					<length unit="mm">12.0</length>
					<width unit="mm">0.4</width>
					<takeOffAngle unit="deg">6.0</takeOffAngle>
				</focus>
			</xRayTube>
			<sollerSlit id="21010002" name="Soller slits 0.04 rad.">
				<opening unit="rad">0.0400</opening>
			</sollerSlit>
			<mask id="22031000" name="Fixed mask 13 mm">
				<width unit="mm">9.00</width>
			</mask>
			<divergenceSlit id="22120001" name="Divergence slit 1°" xsi:type="fixedDivergenceSlitType">
				<distanceToSample unit="mm">50.00</distanceToSample>
				<height unit="mm">1.52</height>
			</divergenceSlit>
		</incidentBeamPath>
		<sampleMovement xsi:type="spinningSampleMovementType">
			<spinnerRevolutionTime unit="seconds">1.0</spinnerRevolutionTime>
		</sampleMovement>
		<diffractedBeamPath>
			<radius unit="mm">145.00</radius>
			<antiScatterSlit id="22090040" name="AS slit 9 mm (PIXcel)" xsi:type="fixedAntiScatterSlitType">
				<height unit="mm">9.00</height>
			</antiScatterSlit>
			<sollerSlit id="21020003" name="Large Soller slits 0.04 rad.">
				<opening unit="rad">0.0400</opening>
			</sollerSlit>
			<filter id="20030001" name="Large beta-filter Nickel">
				<material>Ni</material>
				<thickness unit="mm">0.020</thickness>
			</filter>
			<detector id="7010019" name="PIXcel1D-Medipix3 detector" xsi:type="rtmsDetectorType">
				<phd unit="keV">
					<lowerLevel>4.02</lowerLevel>
					<upperLevel>11.27</upperLevel>
				</phd>
				<mode>Scanning</mode>
				<activeLength unit="deg">5.542</activeLength>
			</detector>
		</diffractedBeamPath>
		<scan appendNumber="0" mode="Continuous" scanAxis="Gonio" status="Completed">
			<header>
				<startTimeStamp>2025-12-25T15:19:44-08:00</startTimeStamp>
				<endTimeStamp>2025-12-25T15:27:51-08:00</endTimeStamp>
				<author>
					<name>AutomatedUser</name>
				</author>
				<source>
					<applicationSoftware version="1.7b (136)">PANalytical Aeris Instrument Suite</applicationSoftware>
					<instrumentControlSoftware version="3.2.00000000 20240306">AERIS</instrumentControlSoftware>
					<instrumentID>950485</instrumentID>
				</source>
			</header>
			<dataPoints>
				<positions axis="2Theta" unit="deg">
					<startPosition>10.00943322</startPosition>
					<endPosition>99.99442286</endPosition>
				</positions>
				<positions axis="Omega" unit="deg">
					<startPosition>5.00471661</startPosition>
					<endPosition>49.99721143</endPosition>
				</positions>
				<commonCountingTime unit="seconds">12.495</commonCountingTime>
				<counts unit="counts">3185 3218 3200 3266 3203 3283 3278 3188 3264 3259 3112 3233 3175 3310 3157 3260 3152 3178 3304 3270 3314 3207 3347 3238 3380 3292 3333 3314 3279 3237 3185 3248 3242 3347 3253 3357 3299 3322 3388 3415 3336 3224 3385 3328 3298 3259 3322 3401 3296 3298 3331 3306 3404 3298 3397 3340 3339 3234 3457 3446 3460 3321 3401 3395 3348 3309 3510 3393 3405 3426 3531 3415 3336 3405 3460 3446 3382 3343 3563 3394 3546 3461 3436 3524 3377 3401 3461 3499 3623 3560 3541 3518 3668 3549 3580 3574 3553 3485 3489 3599 3540 3487 3667 3585 3578 3489 3469 3615 3623 3640 3586 3476 3526 3592 3492 3585 3637 3672 3645 3667 3645 3565 3629 3619 3662 3668 3635 3626 3776 3633 3693 3576 3618 3698 3701 3650 3599 3679 3600 3710 3603 3545 3678 3606 3637 3632 3659 3637 3703 3590 3805 3616 3797 3674 3839 3739 3771 3892 3849 3661 3711 3630 3725 3586 3701 3646 3704 3705 3789 3678 3669 3721 3645 3678 3640 3572 3643 3608 3707 3613 3672 3643 3716 3534 3714 3600 3734 3648 3619 3790 3685 3706 3617 3733 3548 3685 3659 3693 3731 3669 3693 3640 3746 3695 3725 3652 3607 3596 3624 3673 3652 3647 3606 3577 3664 3582 3577 3631 3540 3499 3633 3510 3553 3652 3650 3483 3552 3527 3517 3594 3551 3571 3704 3506 3509 3480 3608 3559 3546 3483 3545 3431 3578 3477 3610 3354 3477 3450 3553 3494 3501 3504 3464 3475 3353 3466 3424 3466 3611 3408 3460 3490 3436 3485 3473 3600 3438 3446 3322 3270 3431 3507 3453 3554 3353 3303 3536 3359 3462 3451 3389 3505 3408 3352 3413 3352 3483 3400 3431 3459 3504 3442 3416 3413 3439 3444 3385 3418 3355 3473 3469 3464 3410 3416 3424 3431 3397 3408 3269 3501 3408 3376 3435 3444 3565 3401 3602 3604 3413 3475 3397 3463 3467 3490 3455 3458 3413 3439 3419 3413 3464 3457 3409 3505 3313 3540 3462 3480 3533 3453 3579 3570 3689 3478 3506 3564 3621 3553 3502 3497 3480 3568 3439 3499 3484 3592 3534 3350 3601 3648 3614 3571 3619 3637 3548 3679 3552 3540 3644 3615 3648 3607 3663 3594 3555 3595 3530 3614 3670 3552 3600 3750 3615 3727 3728 3712 3539 3603 3627 3789 3587 3631 3634 3760 3763 3632 3716 3625 3579 3732 3597 3701 3672 3748 3696 3786 3639 3626 3643 3720 3608 3751 3774 3622 3733 3668 3902 3741 3940 3816 3893 3840 3885 3853 4016 3846 4007 3943 3948 3949 3930 4066 4075 3987 4182 4207 4221 4206 4351 4430 4470 4484 4561 4736 4712 4961 4991 5083 4983 5149 5274 5231 5439 5533 5432 5583 5538 5608 5580 5792 5654 5897 5907 6145 6201 6277 6457 6882 7019 7448 7703 7885 8131 8492 8725 9009 9333 9224 9508 9377 9356 9027 8747 8209 7558 6873 6281 5812 5203 4866 4490 4230 4085 3989 3944 3755 3762 3697 3616 3651 3518 3472 3378 3641 3587 3466 3581 3460 3403 3507 3506 3410 3475 3376 3498 3263 3397 3363 3304 3301 3378 3318 3355 3272 3344 3416 3306 3338 3191 3263 3395 3193 3287 3212 3296 3245 3220 3287 3081 3198 3200 3161 3214 3274 3221 3273 3060 3209 3153 3265 3115 3273 3223 3287 3178 3184 3146 3135 3088 3174 3159 3228 3111 3183 3106 3078 3055 3102 3063 3156 3021 3061 3173 2998 3076 3098 3020 3172 3089 3051 3018 3034 3150 2952 3099 2946 2998 2867 3037 2936 2969 2851 2918 2930 3009 2892 2988 2862 3049 2940 3044 3017 2935 2959 2909 3037 2878 3011 3032 2891 2973 2965 2881 2937 2928 2838 2904 2913 2878 2931 2956 2918 2990 2875 2838 2945 2868 2854 2849 2872 2805 2850 2836 2883 2872 2865 2775 2828 2872 2764 2829 2774 2855 2819 2856 2921 2821 2880 2907 2913 2824 2776 2755 2828 2897 2779 2822 2745 2760 2856 2718 2743 2733 2685 2732 2769 2801 2863 2767 2734 2741 2710 2873 2760 2791 2787 2754 2714 2750 2802 2711 2658 2772 2856 2793 2806 2757 2823 2753 2712 2794 2686 2731 2689 2730 2740 2780 2691 2716 2807 2758 2686 2726 2767 2589 2660 2745 2662 2691 2709 2660 2754 2637 2697 2733 2651 2735 2648 2786 2791 2856 2592 2669 2693 2650 2670 2733 2639 2746 2716 2631 2697 2774 2621 2687 2716 2671 2650 2725 2682 2640 2641 2584 2653 2679 2649 2820 2653 2757 2667 2720 2559 2703 2645 2693 2530 2722 2662 2650 2579 2570 2670 2570 2659 2672 2635 2666 2621 2624 2617 2641 2640 2603 2626 2653 2608 2515 2567 2540 2578 2571 2556 2606 2634 2616 2562 2580 2564 2632 2652 2618 2592 2643 2653 2567 2623 2668 2599 2571 2553 2611 2553 2568 2552 2637 2635 2609 2620 2564 2488 2523 2524 2492 2476 2623 2650 2504 2627 2521 2512 2561 2572 2474 2607 2573 2508 2410 2590 2479 2435 2662 2460 2613 2527 2455 2532 2558 2483 2499 2507 2481 2561 2544 2573 2416 2515 2535 2583 2475 2460 2402 2570 2484 2431 2460 2575 2483 2534 2502 2450 2570 2476 2493 2470 2467 2491 2469 2520 2432 2406 2502 2543 2436 2488 2351 2433 2393 2383 2412 2466 2434 2445 2484 2404 2466 2407 2423 2533 2532 2445 2455 2388 2434 2337 2597 2385 2483 2378 2372 2484 2458 2452 2438 2433 2372 2343 2506 2336 2440 2312 2344 2417 2444 2481 2424 2356 2476 2306 2493 2388 2411 2488 2315 2511 2425 2428 2306 2443 2396 2391 2355 2348 2316 2378 2437 2449 2359 2362 2324 2417 2322 2351 2408 2369 2286 2446 2381 2271 2312 2319 2377 2463 2424 2430 2356 2289 2437 2325 2434 2325 2375 2307 2298 2390 2324 2409 2291 2329 2341 2303 2281 2318 2386 2368 2317 2363 2240 2268 2270 2316 2343 2311 2311 2328 2298 2339 2394 2389 2299 2289 2384 2318 2350 2252 2283 2344 2336 2361 2366 2314 2285 2351 2306 2377 2290 2252 2352 2245 2314 2335 2354 2336 2387 2300 2313 2275 2369 2288 2290 2326 2376 2284 2388 2285 2307 2316 2356 2363 2379 2332 2320 2486 2273 2265 2215 2372 2291 2227 2356 2299 2407 2313 2358 2407 2369 2272 2399 2298 2277 2361 2340 2306 2248 2294 2260 2344 2346 2264 2264 2357 2343 2309 2408 2346 2409 2367 2291 2388 2279 2409 2294 2321 2312 2306 2249 2374 2304 2352 2313 2234 2293 2280 2276 2294 2328 2361 2210 2374 2321 2297 2259 2272 2253 2235 2288 2450 2308 2290 2362 2265 2208 2282 2261 2301 2297 2356 2281 2321 2243 2261 2265 2278 2280 2238 2317 2284 2220 2212 2242 2238 2271 2265 2332 2218 2221 2191 2194 2205 2219 2274 2167 2173 2211 2338 2156 2271 2300 2209 2286 2306 2252 2170 2150 2160 2203 2231 2166 2177 2252 2280 2215 2125 2151 2167 2194 2195 2162 2106 2059 2152 2207 2139 2093 2226 2108 2092 2108 2225 2152 2149 2168 2126 2126 2095 2108 2122 2088 2155 2086 2059 2110 2114 2027 2131 1952 2055 2060 2048 2063 2116 2000 2066 2039 2049 1960 1985 2086 1972 2020 1924 1949 1978 2004 2053 1981 1958 2019 1997 1968 1978 1975 1934 1919 1967 1901 1939 1962 1986 1998 1901 1973 1906 1935 1907 1878 1899 1873 1906 1908 1973 1828 1902 1889 1916 1985 1882 1909 1860 1854 1858 1837 1946 1839 1814 1862 1857 1800 1739 1731 1768 1721 1846 1800 1715 1805 1760 1742 1795 1765 1825 1734 1734 1743 1734 1789 1744 1745 1789 1800 1764 1715 1802 1774 1707 1764 1729 1712 1714 1759 1777 1649 1691 1695 1665 1708 1606 1691 1638 1772 1767 1692 1718 1748 1699 1708 1705 1699 1679 1769 1794 1683 1674 1659 1659 1643 1748 1712 1717 1658 1712 1677 1702 1646 1686 1686 1694 1641 1714 1703 1637 1628 1767 1663 1658 1631 1672 1637 1760 1605 1631 1636 1604 1608 1650 1575 1678 1675 1619 1602 1666 1588 1596 1653 1571 1599 1564 1652 1602 1597 1587 1601 1616 1641 1613 1565 1692 1561 1587 1540 1543 1651 1639 1666 1582 1612 1658 1545 1611 1663 1562 1592 1488 1624 1646 1585 1587 1591 1684 1639 1529 1603 1583 1562 1472 1521 1583 1507 1580 1590 1553 1602 1564 1573 1599 1503 1547 1598 1574 1576 1588 1508 1616 1541 1562 1567 1571 1518 1618 1540 1634 1612 1628 1558 1594 1561 1534 1551 1538 1552 1610 1675 1611 1621 1563 1556 1539 1619 1533 1595 1583 1625 1670 1512 1558 1589 1645 1612 1594 1577 1547 1470 1554 1594 1534 1552 1624 1540 1604 1562 1554 1608 1534 1596 1566 1590 1601 1581 1583 1685 1640 1605 1567 1579 1629 1551 1556 1556 1583 1558 1624 1672 1590 1593 1605 1561 1571 1570 1584 1560 1621 1682 1528 1554 1585 1544 1513 1522 1494 1507 1579 1508 1566 1571 1615 1593 1608 1547 1605 1594 1503 1598 1567 1583 1570 1563 1633 1532 1633 1537 1565 1562 1601 1516 1562 1570 1596 1590 1559 1573 1514 1532 1637 1489 1556 1509 1612 1551 1526 1595 1545 1507 1504 1507 1521 1518 1478 1467 1499 1535 1526 1473 1513 1512 1532 1448 1497 1534 1529 1490 1448 1471 1494 1473 1462 1488 1466 1438 1410 1451 1445 1462 1478 1479 1495 1489 1481 1485 1425 1473 1443 1483 1435 1456 1417 1431 1351 1412 1370 1360 1442 1382 1421 1457 1450 1403 1354 1379 1391 1394 1369 1288 1361 1359 1322 1369 1333 1255 1358 1316 1378 1373 1374 1359 1399 1378 1342 1277 1295 1262 1382 1364 1314 1329 1329 1322 1264 1355 1297 1281 1279 1268 1309 1323 1240 1278 1330 1271 1271 1286 1270 1284 1272 1179 1271 1241 1293 1231 1293 1247 1241 1276 1229 1249 1195 1248 1326 1140 1288 1223 1224 1220 1273 1178 1224 1229 1206 1181 1223 1059 1224 1214 1168 1261 1198 1244 1195 1185 1215 1189 1217 1166 1193 1155 1214 1251 1250 1204 1241 1205 1204 1224 1238 1226 1205 1249 1270 1216 1211 1277 1244 1337 1294 1333 1256 1273 1310 1307 1323 1405 1305 1374 1421 1346 1357 1482 1405 1426 1460 1473 1413 1490 1459 1450 1522 1414 1444 1470 1414 1403 1384 1370 1354 1423 1342 1376 1346 1315 1392 1399 1402 1400 1410 1416 1399 1498 1483 1460 1468 1487 1449 1507 1467 1415 1419 1395 1281 1290 1302 1250 1255 1182 1140 1144 1246 1176 1184 1184 1117 1125 1239 1099 1142 1108 1160 1098 1105 1165 1209 1146 1160 1176 1188 1185 1167 1116 1142 1145 1208 1156 1277 1149 1229 1169 1261 1186 1231 1230 1275 1328 1332 1352 1373 1382 1396 1546 1500 1706 1734 1719 1751 1845 1889 2130 2094 2186 2233 2345 2425 2553 2721 2780 2860 2958 3189 3387 3432 3832 4045 4129 4405 4866 5129 5439 5526 5773 6037 6305 6425 6468 6609 6517 6374 6128 5980 5706 5285 4903 4698 4238 4049 3864 3663 3458 3288 3246 3035 3169 3028 3158 3152 3197 3389 3561 3622 3811 4034 4000 4080 4154 4160 4110 4078 3997 3924 3855 3878 3449 3488 3326 3237 3216 3104 3069 2977 3081 3099 3236 3141 3394 3425 3432 3681 3638 3616 3619 3558 3457 3309 3149 2960 2821 2622 2281 2125 1926 1871 1581 1493 1409 1334 1255 1169 1110 1100 1120 1071 1035 1104 1026 1075 988 1075 1013 983 958 1071 948 946 1019 933 956 1015 938 1015 1001 953 981 970 926 978 899 989 958 899 978 905 942 991 889 912 934 890 896 909 930 928 951 951 891 886 917 936 907 908 936 952 882 927 922 908 914 885 927 828 996 918 876 896 922 853 795 900 871 937 913 937 897 938 873 934 903 977 942 945 876 880 897 919 870 889 871 833 847 857 877 846 881 859 851 819 896 866 894 907 864 903 874 841 876 835 837 889 851 889 844 811 856 863 826 852 831 911 865 885 892 807 883 859 858 857 894 824 872 842 831 814 848 883 842 855 859 833 823 831 898 855 845 838 884 830 864 897 878 902 825 869 865 879 866 856 831 879 878 847 873 881 798 782 835 863 854 833 884 821 839 847 841 836 831 864 835 824 777 838 801 804 816 824 878 836 758 791 790 811 837 825 768 799 787 808 814 750 806 812 784 742 783 794 802 825 815 808 758 765 787 804 768 763 770 778 803 785 769 773 733 816 840 766 770 729 785 804 793 772 759 799 805 770 755 786 795 775 834 765 787 742 788 744 811 805 790 778 839 832 799 855 781 830 793 841 836 756 834 816 832 827 764 818 823 829 764 798 783 814 769 816 768 767 829 766 799 780 810 822 770 843 811 781 750 815 882 786 803 808 848 823 826 829 790 867 818 850 846 884 850 844 846 836 901 818 920 914 925 920 904 901 936 950 968 985 974 1004 1013 1073 1100 1110 1128 1157 1167 1288 1254 1436 1492 1531 1658 1672 1820 1899 1856 2021 2212 2252 2294 2560 2633 2749 2834 2915 3185 3363 3414 3714 3810 3947 4124 4280 4512 4691 4815 4847 5095 5179 5340 5167 5265 5032 5114 4809 4553 4474 4166 4090 3779 3646 3562 3439 3336 3188 3221 3185 3121 3212 3238 3343 3457 3616 3649 3711 3706 4089 4174 4333 4385 4533 4683 4909 4938 5223 5218 5489 5473 5537 5708 5777 5848 5727 5765 5632 5573 5439 5144 4872 4674 4289 4091 3687 3485 3125 2951 2624 2402 2203 1932 1863 1653 1503 1429 1351 1312 1186 1209 1134 1094 1035 1045 971 984 913 996 928 867 881 851 924 875 913 835 832 836 866 758 824 818 761 822 785 822 812 784 762 801 766 809 780 779 734 773 749 726 772 741 772 789 745 714 741 729 756 744 685 743 718 748 730 739 754 710 710 726 691 744 772 742 796 778 681 730 739 728 754 743 729 716 705 760 732 735 709 695 707 714 761 758 750 695 681 674 667 690 656 689 724 698 743 723 672 660 678 712 651 705 709 704 698 673 674 680 703 718 652 678 659 624 693 708 633 647 664 657 675 654 735 673 661 683 671 661 667 673 659 637 652 642 671 669 636 687 643 618 646 697 677 700 660 658 623 732 638 635 685 622 655 646 665 687 677 676 717 651 617 652 686 646 639 675 621 695 668 677 672 598 656 648 676 701 631 665 636 625 585 663 630 712 652 717 664 657 630 637 609 651 609 643 636 640 649 652 664 629 627 609 597 634 599 665 625 614 626 607 626 639 663 612 648 633 619 634 615 644 569 592 615 626 634 600 642 653 641 656 623 634 597 588 649 566 609 598 609 640 626 617 637 583 558 561 609 634 614 618 602 594 621 584 623 607 604 638 604 606 552 605 606 617 593 653 674 606 650 662 627 602 665 603 651 587 650 657 637 668 666 701 636 655 641 661 637 641 613 657 604 622 630 568 594 602 596 611 572 572 547 567 580 555 594 577 563 565 568 596 605 534 529 538 577 569 579 577 579 620 583 627 591 576 554 540 546 543 601 587 542 521 615 530 602 553 545 569 562 540 540 541 569 553 539 533 545 559 537 583 492 559 516 556 549 584 513 567 571 529 545 551 550 562 530 540 566 550 514 600 548 541 510 558 550 558 596 533 509 552 489 539 517 534 580 505 569 585 597 562 520 538 549 539 543 552 535 535 498 525 510 505 557 556 580 523 574 528 497 493 498 490 527 533 553 530 544 544 528 555 513 486 547 504 564 538 522 542 542 517 500 500 499 529 532 516 534 491 533 501 513 513 577 524 528 512 474 522 571 546 535 492 517 521 512 524 484 530 504 552 536 546 513 495 571 500 520 511 485 536 505 524 520 540 503 463 544 544 530 517 509 528 532 536 489 520 499 519 470 488 513 504 535 513 512 515 547 569 537 555 521 559 488 501 510 518 534 520 543 516 532 551 546 500 538 484 524 507 498 466 519 528 525 519 530 529 506 477 490 550 517 523 564 491 524 527 538 519 477 508 516 490 496 506 484 481 501 464 511 500 533 508 506 459 530 486 529 529 508 534 521 555 480 493 497 488 471 504 482 503 500 536 496 528 511 485 481 508 490 504 501 475 532 447 502 496 528 486 517 466 486 526 435 467 481 442 490 509 517 488 504 512 498 481 477 503 496 465 510 499 479 510 481 524 475 548 507 503 491 505 492 494 477 499 517 480 504 476 476 483 499 487 481 516 486 524 463 544 451 524 492 455 472 481 482 501 492 477 491 486 506 474 472 520 495 499 506 518 469 480 483 508 499 529 491 516 506 448 497 525 459 472 487 518 480 484 503 494 487 488 489 498 490 508 490 465 516 483 523 462 451 463 510 478 488 472 507 546 480 497 490 512 501 469 500 472 432 456 496 467 484 456 520 461 459 435 449 454 488 451 497 471 546 487 480 479 480 443 440 435 516 459 499 502 474 500 473 490 502 507 449 443 483 452 483 442 497 471 462 434 492 462 478 519 478 438 474 474 458 505 489 469 501 449 500 483 452 442 450 469 423 484 466 468 460 444 488 441 493 457 472 452 474 446 460 460 446 480 447 453 462 473 457 442 440 496 434 463 486 507 433 444 446 460 460 465 463 523 467 496 462 465 468 504 402 502 467 468 449 485 423 433 446 512 474 481 448 440 448 424 441 465 481 463 496 462 459 461 483 466 435 489 433 480 463 482 474 507 488 487 472 490 493 506 525 489 496 473 485 515 492 491 474 511 464 459 455 503 450 483 446 460 463 527 465 493 483 504 495 459 489 463 468 516 482 512 453 466 503 508 469 544 505 509 496 536 559 528 546 527 552 586 620 612 647 639 618 665 631 654 661 698 683 712 740 769 721 797 805 804 858 838 876 867 856 886 902 837 867 787 782 858 757 772 715 739 740 705 629 630 699 629 648 616 623 601 576 541 533 523 545 511 571 535 531 511 527 531 535 534 535 514 572 538 560 576 541 575 573 620 623 589 611 621 633 634 630 663 648 710 711 749 738 696 805 795 825 815 897 896 882 924 935 913 918 927 928 934 876 855 895 823 810 872 785 696 767 729 716 735 693 661 638 629 611 549 586 504 507 478 492 530 505 475 487 481 456 461 433 445 482 457 433 481 449 442 461 490 460 478 451 467 448 432 422 459 454 432 455 425 458 439 441 481 466 456 443 449 442 501 453 430 398 446 474 434 456 424 394 414 446 433 463 458 466 455 444 417 411 442 471 481 446 444 466 449 464 430 455 455 435 408 448 443 401 418 437 435 453 405 466 428 422 404 404 450 415 440 444 447 457 436 476 454 458 431 472 439 437 409 424 423 416 463 433 414 407 437 433 426 427 446 429 420 420 422 425 451 449 463 436 435 459 454 442 477 468 459 466 520 471 423 421 463 452 456 490 455 442 422 439 445 466 428 430 485 427 469 458 463 428 436 442 426 453 464 418 426 444 439 478 438 427 434 433 457 418 452 431 458 447 466 398 452 491 446 504 458 506 409 466 476 467 439 478 475 494 404 480 421 468 465 486 487 458 459 457 464 455 436 442 410 452 456 480 506 477 503 489 454 506 444 470 473 459 511 457 508 480 524 496 499 481 494 473 522 494 534 509 454 493 469 483 523 490 504 538 507 509 525 522 491 556 535 540 547 528 536 507 505 528 601 527 582 544 553 567 570 582 620 659 645 677 663 681 729 765 781 846 900 938 977 1103 1159 1123 1164 1330 1348 1427 1550 1651 1847 1854 2040 2165 2228 2370 2578 2547 2765 2811 2946 3117 3132 3276 3297 3374 3322 3426 3336 3238 3140 3075 2841 2838 2604 2481 2385 2352 2202 2077 1882 1885 1765 1646 1555 1447 1363 1311 1231 1187 1092 1131 1140 1187 1198 1225 1238 1266 1310 1348 1315 1357 1389 1489 1629 1611 1784 1842 1917 1977 2108 2252 2434 2565 2612 2726 2664 2880 2988 3070 3173 3232 3252 3344 3356 3355 3447 3401 3498 3356 3346 3203 3178 3018 2931 2853 2771 2723 2752 2819 2756 2783 2718 2587 2570 2467 2400 2417 2377 2285 2261 2216 2105 1965 1967 1902 1772 1693 1615 1566 1544 1430 1346 1329 1198 1120 1072 1010 919 936 842 810 738 752 754 706 713 668 640 605 583 597 591 595 574 538 594 541 546 534 591 538 524 567 510 512 466 533 524 476 479 494 512 508 539 525 470 495 495 469 468 485 478 481 523 441 497 464 464 457 456 444 485 477 494 432 496 479 440 432 477 454 462 460 442 501 441 445 426 440 441 452 426 462 433 425 465 443 456 464 446 426 435 429 400 456 444 423 455 426 479 470 439 450 457 487 496 454 468 500 474 483 567 491 550 523 525 522 529 528 530 542 535 540 539 600 554 570 570 505 551 593 584 571 572 558 602 514 504 505 554 476 509 532 504 493 477 466 478 452 467 446 450 498 465 487 481 467 488 436 450 450 431 477 505 538 496 523 490 531 545 524 553 517 503 555 567 563 580 584 607 597 647 657 641 674 643 648 650 681 665 667 634 630 640 596 621 576 599 574 569 557 547 538 505 501 494 446 495 464 512 430 462 454 449 430 387 407 408 392 434 450 435 444 402 380 429 429 430 403 428 402 413 359 408 371 447 385 404 408 400 416 424 423 406 391 390 400 414 430 379 397 415 383 398 413 376 380 379 386 404 410 394 383 380 360 420 424 410 408 351 384 410 384 383 375 388 416 398 359 385 384 362 421 373 415 386 379 385 394 405 321 375 377 373 383 378 366 371 393 356 374 398 399 391 382 385 392 378 359 400 382 384 386 380 373 375 386 390 393 387 367 391 404 391 345 368 376 392 389 390 378 403 402 373 407 357 406 384 377 358 370 368 338 381 362 385 401 389 389 410 406 388 378 347 382 405 379 374 395 396 395 339 365 427 371 382 377 375 347 408 383 401 378 386 391 353 356 361 361 373 359 360 399 427 389 374 353 375 387 388 360 380 365 393 382 350 375 341 400 368 365 402 392 356 376 372 352 383 364 348 414 354 402 355 374 382 378 375 415 354 391 382 379 394 379 369 396 401 368 396 379 386 373 391 375 351 336 359 384 359 371 380 345 404 388 371 344 375 388 381 421 390 383 356 391 350 383 383 387 344 387 356 349 368 375 365 377 377 394 393 354 390 377 381 338 364 367 412 388 360 350 376 384 345 385 394 364 365 356 385 349 399 354 353 397 377 362 386 356 349 335 326 351 351 362 381 375 336 384 337 363 335 336 382 378 387 376 337 372 359 359 354 373 364 350 352 359 361 363 353 399 357 361 310 363 363 386 358 377 387 343 364 381 368 394 334 369 365 339 356 356 328 341 369 368 377 392 362 383 360 376 370 382 369 384 360 387 359 359 344 389 377 334 362 370 357 330 368 342 405 355 376 371 391 375 351 346 352 341 370 331 359 336 354 360 354 330 368 345 357 306 350 347 322 339 400 356 384 328 362 338 347 336 370 352 324 372 350 382 394 361 351 373 343 405 363 328 388 343 374 353 365 335 362 342 385 350 387 340 380 336 375 374 399 337 361 373 344 375 327 377 370 337 308 347 372 339 376 344 362 356 361 341 353 347 356 377 380 335 367 367 354 361 352 343 360 361 361 358 340 351 338 390 378 371 407 357 382 381 345 387 382 390 379 382 361 397 364 431 396 419 409 386 389 398 396 387 391 378 354 395 404 407 405 369 385 380 369 444 413 414 448 445 458 456 428 463 465 462 508 526 495 573 572 614 532 583 566 592 675 704 746 748 724 812 809 868 874 919 962 989 987 1027 1013 1115 1149 1219 1191 1228 1216 1085 1149 1184 1119 1087 1096 1033 1033 1000 1009 955 964 871 886 861 820 739 806 796 658 687 665 645 629 601 609 513 513 540 521 513 534 524 486 460 453 520 505 500 509 538 512 510 534 540 561 574 550 606 643 598 676 699 710 722 790 787 817 909 859 942 982 1013 1085 1107 1100 1129 1191 1200 1185 1151 1132 1126 1137 1199 1161 1134 1174 1056 1139 1060 1084 1041 976 998 977 947 877 858 842 794 854 810 757 663 721 626 674 689 646 685 618 631 575 607 625 563 522 562 523 539 509 524 465 464 460 495 472 455 431 458 423 422 391 436 422 409 380 364 405 386 389 382 378 376 389 335 370 356 376 355 377 373 356 377 346 339 369 348 346 369 341 329 320 318 356 339 320 361 335 387 335 326 372 349 302 357 351 345 359 344 343 362 360 335 337 349 329 347 344 331 332 370 327 326 360 365 340 336 322 313 349 361 311 363 345 375 329 362 336 344 341 326 345 334 365 363 333 317 355 339 364 352 342 356 335 373 331 336 379 345 364 358 364 359 378 365 386 376 360 367 417 425 377 416 406 427 406 449 439 459 507 484 456 528 534 527 558 661 667 632 680 674 730 755 829 830 830 897 945 1013 963 970 1054 1076 1019 1038 1037 995 1103 1039 975 965 942 832 828 877 819 822 805 770 672 693 644 690 630 675 572 591 501 575 497 479 521 481 425 478 433 447 444 419 456 432 429 391 449 403 403 442 409 394 437 425 458 446 510 525 490 525 527 611 570 620 624 597 650 719 680 791 766 808 827 849 842 881 901 974 941 915 947 981 954 917 929 906 883 869 814 795 763 790 768 708 756 706 697 638 643 631 640 636 609 595 571 561 534 565 566 573 518 551 509 505 537 541 540 559 615 569 646 641 700 723 784 771 778 767 797 824 850 841 854 804 778 760 751 690 686 625 618 643 649 560 651 598 574 586 565 586 511 525 469 441 463 457 410 404 383 436 382 374 373 396 374 368 371 371 369 355 383 352 339 308 316 336 372 348 412 380 400 384 368 376 381 370 377 397 354 388 370 406 396 415 416 441 473 446 444 456 431 439 474 448 466 421 433 436 407 438 416 426 440 440 386 435 406 429 369 385 389 373 372 368 361 331 343 367 380 302 318 361 327 326 355 367 306 309 348 285 320 313 324 303 307 269 329 326 313 293 333 337 319 347 351 307 344 305 312 306 310 318 305 313 317 306 337 289 332 314 300 297 319 317 304 329 363 352 333 310 354 321 333 345 310 323 364 350 351 376 329 338 368 357 407 338 389 410 333 398 395 394 403 429 402 448 450 432 495 450 522 509 524 505 513 517 491 535 510 545 497 537 523 502 506 498 495 508 481 519 425 475 456 462 446 416 424 450 426 425 389 389 363 363 379 382 362 335 313 373 333 321 301 338 307 272 303 291 290 303 295 314 315 260 299 289 303 274 309 289 309 301 277 306 324 323 293 293 284 284 300 280 285 278 316 274 301 261 290 238 280 262 282 312 280 284 296 273 239 290 261 264 305 272 297 285 285 264 274 261 249 286 269 285 278 287 287 278 273 267 244 263 275 288 284 285 301 262 258 278 306 240 277 233 307 281 246 295 284 276 248 276 288 310 284 324 306 260 284 269 286 268 301 259 272 284 276 286 271 256 283 250 292 261 230 271 270 273 275 240 246 263 244 270 275 233 262 271 276 250 289 264 305 271 307 282 287 249 239 264 275 248 283 268 285 305 259 282 283 267 296 273 302 265 260 256 232 262 245 257 266 233 286 235 269 279 269 294 266 283 290 243 244 269 238 225 259 297 277 272 266 278 240 273 280 301 280 276 272 265 285 279 258 263 285 280 269 256 246 275 267 235 265 241 259 270 258 258 273 262 232 250 268 270 245 264 266 273 265 290 248 257 240 286 269 270 246 251 276 276 245 248 263 243 242 268 236 260 211 265 295 265 261 217 270 262 272 270 235 270 235 262 242 264 263 232 292 230 244 261 271 250 261 231 238 264 269 257 261 266 271 273 256 250 237 262 257 277 243 295 227 240 233 235 237 263 281 246 265 271 247 263 266 275 241 248 238 296 260 236 276 236 258 279 242 249 248 258 248 311 236 282 243 232 276 289 267 306 229 281 273 249 258 259 275 256 278 275 267 294 305 271 278 286 280 257 290 301 312 289 313 277 303 297 319 287 333 287 363 299 343 337 344 332 359 317 335 299 324 345 338 318 294 299 345 321 307 295 311 296 309 308 306 315 325 293 299 278 286 240 291 260 297 242 241 274 296 266 273 259 283 261 288 264 222 262 264 282 287 240 288 240 200 278 274 246 226 257 269 244 272 243 260 283 243 258 272 260 233 261 245 238 258 257 269 270 277 279 268 268 268 296 269 286 309 290 294 268 277 282 317 261 311 318 290 300 317 290 299 302 309 309 284 316 310 283 327 283 298 290 285 308 279 309 306 285 251 300 258 292 272 272 286 268 285 260 277 256 246 245 243 257 236 274 258 278 248 229 249 269 270 261 232 235 245 212 239 271 214 242 282 234 259 229 236 239 247 226 268 274 234 276 265 249 242 259 235 260 240 259 265 237 273 246 242 286 259 239 264 242 242 248 236 251 280 246 260 233 248 240 263 258 283 224 269 265 222 228 230 274 220 268 233 264 243 232 259 249 227 273 231 261 235 238 263 229 269 248 249 288 221 272 242 227 247 283 236 261 235 283 257 283 270 224 262 211 243 216 233 288 247 260 288 266 236 259 269 226 224 260 267 248 247 247 267 234 262 223 268 240 250 229 290 237 292 272 273 259 260 265 265 257 283 261 280 301 263 313 290 304 275 299 305 301 335 325 327 329 352 358 347 348 318 324 428 363 417 417 431 421 426 409 455 407 429 469 467 413 482 439 463 471 488 438 456 428 417 425 439 409 382 379 397 386 348 383 367 371 349 340 376 350 368 340 337 332 323 350 309 323 296 288 293 267 269 321 284 311 325 297 285 290 243 257 275 270 290 272 277 281 250 273 279 265 287 277 247 280 270 283 313 274 280 328 265 288 286 302 285 304 289 295 296 343 317 306 336 332 338 361 403 372 377 384 349 353 370 367 449 401 458 439 411 416 401 413 453 504 513 455 449 494 501 506 472 540 494 493 493 459 462 467 475 445 435 410 439 396 416 422 392 390 379 405 385 367 349 356 353 421 334 389 340 332 335 301 265 298 307 265 277 288 271 280 282 286 267 276 277 258 300 264 280 238 248 299 234 243 273 266 298 263 279 277 270 283 236 269 280 263 286 280 291 274 305 231 238 240 310 263 257 273 286 275 266 240 270 272 265 269 262 279 271 236 240 247 241 212 266 268 261 275 238 244 262 258 263 268 241 262 223 241 229 226 275 237 223 233 233 277 224 260 240 243 219 237 242 237 238 231 233 237 258 235 211 260 236 249 263 230 248 241 237 242 232 263 240 244 240 234 226 262 246 228 238 220 227 270 250 228 262 256 209 214 235 217 225 202 244 213 273 260 228 259 250 237 232 275 242 226 244 249 244 233 235 223 244 247 239 262 232 233 245 227 239 240 223 229 211 221 213 242 256 216 265 235 238 223 245 250 247 240 223 233 229 240 231 235 251 236 243 212 223 260 248 243 236 228 271 272 227 229 223 229 223 213 241 245 259 257 212 236 221 216 248 256 271 271 249 218 250 221 225 218 229 210 242 242 291 220 216 223 225 237 232 256 219 259 223 237 212 227 220 259 242 241 242 224 204 214 219 242 243 250 239 215 246 258 238 205 228 277 233 238 231 206 204 210 244 195 237 237 241 217 250 230 210 235 245 247 235 211 249 214 211 238 237 289 225 260 236 210 209 207 243 204 257 225 256 216 229 250 207 229 224 231 262 219 233 223 263 210 221 227 232 211 220 229 219 223 213 228 248 211 216 265 219 225 241 241 241 209 251 241 229 233 229 231 232 229 205 213 235 216 235 230 227 265 256 246 225 221 245 221 245 219 236 219 237 241 240 248 233 206 245 237 244 231 234 201 244 235 261 221 246 248 229 230 259 203 228 226 216 279 266 232 233 231 214 210 230 237 239 267 249 235 229 230 215 226 233 206 207 227 249 221 227 236 244 277 239 228 206 260 222 246 235 231 232 250 237 237 262 247 269 257 218 210 248 237 236 258 233 261 207 270 222 248 239 239 242 209 247 237 231 233 232 239 229 216 272 225 271 227 275 227 265 229 243 285 217 230 221 239 249 247 258 250 239 226 262 230 235 272 238 266 244 245 238 257 264 260 228 238 262 215 245 221 271 270 279 266 287 272 249 288 281 240 259 283 281 291 249 271 273 272 281 277 268 257 250 277 345 287 303 312 297 307 302 269 313 277 324 331 301 278 278 317 307 333 303 318 281 296 268 311 266 327 306 332 303 273 299 318 281 315 366 305 307 303 295 294 336 333 291 360 343 314 332 348 319 378 327 367 337 348 370 386 406 439 416 424 450 461 458 474 462 428 448 475 450 500 482 464 498 459 430 445 469 433 430 402 438 398 414 379 400 385 448 388 352 374 405 397 374 374 381 359 372 397 345 369 388 349 364 348 320 343 312 316 316 283 341 334 344 330 309 288 275 286 317 314 310 305 308 321 274 332 274 280 267 303 293 302 316 304 281 288 286 285 281 321 304 325 301 299 318 306 310 340 308 322 354 343 380 386 357 384 392 421 430 379 429 438 464 507 478 497 496 486 495 532 509 489 497 558 554 549 586 589 592 580 607 580 524 633 555 564 541 557 520 522 502 528 495 479 445 476 451 459 522 462 461 504 450 442 430 421 426 407 432 427 390 394 383 347 380 371 355 358 375 341 364 336 351 383 382 359 364 345 344 323 340 318 373 333 349 335 318 306 304 350 323 339 297 326 320 314 333 318 347 353 317 361 323 291 327 322 330 361 349 323 364 327 328 322 304 347 353 334 340 352 373 378 335 395 395 401 397 409 430 464 457 451 488 460 531 548 553 576 627 613 624 621 682 667 709 746 713 727 755 717 784 752 755 743 779 754 747 693 729 673 700 694 673 630 679 639 621 629 583 590 610 546 568 559 590 544 612 520 526 498 474 465 466 446 429 414 430 411 406 367 408 363 362 400 387 360 367 375 347 317 340 317 357 312 324 332 339 366 336 349 363 338 365 325 371 322 345 334 366 343 328 343 350 323 405 341 387 375 357 368 398 388 378 429 402 452 422 450 474 461 495 542 529 524 556 561 630 611 669 673 639 741 785 772 788 808 839 835 880 863 867 844 843 859 833 849 832 877 806 850 765 735 751 771 777 790 761 747 809 731 810 786 765 803 748 724 714 773 717 745 675 750 710 717 671 709 717 708 686 681 674 674 687 726 643 640 627 612 598 600 568 573 580 536 530 557 504 534 531 488 534 505 499 518 564 478 453 479 460 442 470 439 437 436 404 405 367 398 380 362 359 342 347 357 352 351 363 342 313 312 315 317 318 297 338 303 309 280 299 292 291 269 273 315 278 262 291 293 286 270 247 276 278 275 270 245 264 266 279 242 295 270 265 297 285 262 274 242 257 268 249 244 275 273 241 274 256 241 296 263 229 281 257 266 263 274 270 270 263 272 263 231 277 203 286 235 267 263 287 266 282 220 260 269 230 242 238 281 256 232 233 244 257 246 227 266 286 264 272 239 293 298 268 281 271 241 251 264 259 249 289 319 247 268 312 275 250 262 291 275 275 290 270 301 300 284 289 291 272 276 302 306 295 279 278 286 282 272 274 285 310 262 270 281 274 268 280 273 324 264 300 274 289 245 283 293 283 285 248 247 244 274 280 265 260 283 243 234 258 274 257 264 272 239 268 265 262 271 239 235 267 238 262 239 233 248 228 234 241 242 233 260 249 238 235 230 259 244 227 198 239 213 224 261 259 230 258 276 258 260 223 215 259 239 238 229 238 243 262 246 213 242 245 234 224 261 240 227 242 251 261 202 219 223 248 248 222 234 234 213 289 217 232 247 246 219 217 236 228 220 229 244 228 220 235 245 225 214 229 220 232 214 245 238 239 205 220 243 213 250 221 236 243 263 218 229 268 248 236 258 229 229 220 214 248 229 226 246 209 200 209 233 224 230 192 204 239 216 267 200 220 264 262 225 269 241 248 225 239 235 228 221 221 222 262 277 233 211 205 233 230 230 201 236 227 231 240 211 228 222 227 246 231 250 245 206 216 226 267 232 246 237 236 226 210 245 239 266 259 247 239 248 237 239 228 234 223 210 216 211 246 220 231 225 257 250 229 271 232 225 233 246 277 257 225 247 224 228 194 260 226 261 226 234 263 242 241 227 248 250 270 250 247 221 236 249 259 247 240 229 293 225 247 262 256 279 236 240 251 236 226 245 223 244 226 247 231 225 232 285 241 232 226 268 241 271 247 219 267 268 277 278 269 272 270 278 275 264 270 281 291 272 279 277 306 266 296 300 279 249 238 281 273 273 310 275 267 288 256 272 302 314 277 243 297 280 269 287 299 292 277 267 266 281 267 285 277 247 243 257 243 247 275 282 247 265 280 256 237 235 218 229 212 243 261 239 241 209 270 231 249 240 215 284 211 264 244 199 233 238 227 211 266 218 257 217 245 202 235 242 217 291 232 258 228 224 250 239 233 262 206 239 262 241 238 238 246 266 259 280 243 249 240 238 245 231 215 257 234 275 264 259 233 246 264 250 237 294 244 262 247 257 242 277 275 282 285 281 289 256 278 296 273 242 285 267 256 289 265 296 298 309 302 249 265 277 275 271 285 289 271 271 258 273 266 268 276 282 276 241 278 244 285 272 277 231 250 261 276 273 249 238 250 244 244 282 238 226 239 258 248 245 263 276 275 229 210 235 266 279 236 233 214 240 228 234 259 213 243 224 237 233 249 272 260 242 271 265 234 279 238 250 224 223 248 240 259 246 292 278 222 285 211 259 245 260 282 236 232 257 262 268 245 243 259 248 263 243 280 269 271 259 239 239 260 269 297 275 281 298 297 292 280 282 290 289 271 309 293 269 301 304 289 319 305 305 323 326 358 333 357 357 394 393 351 416 408 432 442 424 462 475 482 479 510 529 566 593 552 559 600 566 544 583 645 620 589 590 635 606 601 601 569 547 574 574 551 553 495 520 527 483 520 538 501 488 434 532 484 462 477 447 418 495 445 463 413 429 449 390 421 366 376 388 383 362 367 373 306 340 348 289 301 330 290 328 321 301 302 320 305 289 295 298 289 289 320 320 319 307 280 274 272 289 280 279 302 271 291 305 264 259 266 293 289 263 299 318 277 282 317 302 305 313 302 315 287 312 286 324 292 288 292 335 333 332 333 363 374 346 361 362 383 389 395 410 428 409 446 465 452 501 484 530 557 548 568 583 619 624 619 644 669 682 709 673 685 676 785 735 682 722 753 679 682 694 752 675 697 692 651 690 715 660 655 587 608 603 645 612 669 598 594 528 542 568 565 613 545 559 543 512 592 524 516 529 493 496 452 473 435 459 442 449 398 427 416 375 346 406 395 440 392 334 379 375 383 384 387 380 381 382 384 377 403 421 429 424 431 411 415 386 398 387 410 380 426 409 395 402 372 375 409 386 356 351 352 372 348 342 320 356 354 327 335 327 303 333 340 298 315 311 347 293 337 283 319 274 316 293 295 305 281 244 312 300 281 246 270 273 292 259 289 257 268 234 247 259 291 257 272 257 278 266 262 234 250 246 274 240 246 258 231 283 263 249 260 264 235 245 293 248 282 247 275 283 276 291 243 260 237 276 246 287 264 241 292 243 299 242 239 246 274 226 236 232 264 260 226 221 240 229 238 256 258 259 263 272 242 272 266 222 269 208 247 271 262 272 260 243 239 257 247 233 226 225 222 247 218 225 231 247 260 236 214 224 265 228 226 231 248 242 246 211 241 231 261 244 260 266 218 269 236 236 228 262 226 200 244 243 226 231 223 245 239 244 272 245 262 241 222 212 218 242 231 219 239 224 231 250 269 212 217 194 233 222 276 239 262 234 239 217 224 226 239 264 223 225 181 219 231 258 230 230 242 246 237 220 233 218 224 203 215 241 217 258 215 201 231 234 234 222 224 203 208 244 203 231 213 216 233 248 247 238 200 242 208 221 241 246 233 200 227 240 244 215 249 239 256 220 243 268 221 240 233 233 209 232 221 230 248 231 222 233 239 211 219 222 241 211 215 217 225 229 244 237 248 238 247 226 250 220 247 221 218 226 211 232 235 210 262 241 226 230 214 242 221 247 231 234 211 227 228 223 243 198 227 221 263 222 224 232 270 261 247 218 207 235 241 212 233 232 259 228 208 234 237 196 221 239 211 246 230 225 256 230 236 229 259 244 249 201 211 226 215 230 238 242 247 203 227 247 239 225 224 224 219 226 243 223 233 239 223 230 219 235 256 228 247 262 271 243 243 243 215 225 274 229 239 266 273 237 241 231 218 244 229 267 260 257 267 272 265 224 264 250 262 237 265 287 266 304 271 295 304 293 296 276 314 293 296 300 299 292 318 299 300 308 307 328 357 316 368 327 320 339 308 346 323 347</counts>
			</dataPoints>
		</scan>
	</xrdMeasurement>
</xrdMeasurements>
