<?xml version="1.0"?>
<xrdMeasurements xmlns="http://www.xrdml.com/XRDMeasurement/2.3" xmlns:xsi="http://www.w3.org/2001/XMLSchema-instance" xsi:schemaLocation="http://www.xrdml.com/XRDMeasurement/2.3 http://www.xrdml.com/XRDMeasurement/2.3/XRDMeasurement.xsd" status="Completed" recordIdentifier="{41CC8B98-A6A9-4ABA-95E7-89D070E2A6E2}">
	<comment>
		<entry/>
	</comment>
	<sample type="To be analyzed">
		<id>GPSS_Li1p5Fe0p5V0p5Cl4_110125_69065e22e3432ed06b655fa1</id>
		<name></name>
		<preparedBy></preparedBy>
	</sample>
	<xrdMeasurement measurementType="Scan" status="Completed" sampleMode="Reflection">
		<usedWavelength intended="K-Alpha 1">
			<kAlpha1 unit="Angstrom">1.5405980</kAlpha1>
			<kAlpha2 unit="Angstrom">1.5444260</kAlpha2>
			<kBeta unit="Angstrom">1.3922500</kBeta>
			<ratioKAlpha2KAlpha1>0.5000</ratioKAlpha2KAlpha1>
		</usedWavelength>
		<incidentBeamPath>
			<radius unit="mm">145.00</radius>
			<xRayTube id="1010048" name="Empyrean Cu LFF HR (9430 033 7310x)">
				<tension unit="kV">40.0</tension>
				<current unit="mA">15.0</current>
				<anodeMaterial>Cu</anodeMaterial>
				<focus type="Line">
					<length unit="mm">12.0</length>
					<width unit="mm">0.4</width>
					<takeOffAngle unit="deg">6.0</takeOffAngle>
				</focus>
			</xRayTube>
			<sollerSlit id="21010002" name="Soller slits 0.04 rad.">
				<opening unit="rad">0.0400</opening>
			</sollerSlit>
			<mask id="22031000" name="Fixed mask 13 mm">
				<width unit="mm">9.00</width>
			</mask>
			<divergenceSlit id="22120001" name="Divergence slit 1°" xsi:type="fixedDivergenceSlitType">
				<distanceToSample unit="mm">50.00</distanceToSample>
				<height unit="mm">1.52</height>
			</divergenceSlit>
		</incidentBeamPath>
		<sampleMovement xsi:type="spinningSampleMovementType">
			<spinnerRevolutionTime unit="seconds">1.0</spinnerRevolutionTime>
		</sampleMovement>
		<diffractedBeamPath>
			<radius unit="mm">145.00</radius>
			<antiScatterSlit id="22090040" name="AS slit 9 mm (PIXcel)" xsi:type="fixedAntiScatterSlitType">
				<height unit="mm">9.00</height>
			</antiScatterSlit>
			<sollerSlit id="21020003" name="Large Soller slits 0.04 rad.">
				<opening unit="rad">0.0400</opening>
			</sollerSlit>
			<filter id="20030001" name="Large beta-filter Nickel">
				<material>Ni</material>
				<thickness unit="mm">0.020</thickness>
			</filter>
			<detector id="7010019" name="PIXcel1D-Medipix3 detector" xsi:type="rtmsDetectorType">
				<phd unit="keV">
					<lowerLevel>4.02</lowerLevel>
					<upperLevel>11.27</upperLevel>
				</phd>
				<mode>Scanning</mode>
				<activeLength unit="deg">5.542</activeLength>
			</detector>
		</diffractedBeamPath>
		<scan appendNumber="0" mode="Continuous" scanAxis="Gonio" status="Completed">
			<header>
				<startTimeStamp>2025-11-03T14:17:48-08:00</startTimeStamp>
				<endTimeStamp>2025-11-03T14:25:55-08:00</endTimeStamp>
				<author>
					<name>AutomatedUser</name>
				</author>
				<source>
					<applicationSoftware version="1.7b (136)">PANalytical Aeris Instrument Suite</applicationSoftware>
					<instrumentControlSoftware version="3.2.00000000 20240306">AERIS</instrumentControlSoftware>
					<instrumentID>950485</instrumentID>
				</source>
			</header>
			<dataPoints>
				<positions axis="2Theta" unit="deg">
					<startPosition>10.00943322</startPosition>
					<endPosition>99.99442286</endPosition>
				</positions>
				<positions axis="Omega" unit="deg">
					<startPosition>5.00471661</startPosition>
					<endPosition>49.99721143</endPosition>
				</positions>
				<commonCountingTime unit="seconds">12.495</commonCountingTime>
				<counts unit="counts">2682 2594 2692 2695 2682 2625 2694 2734 2708 2621 2650 2679 2741 2730 2679 2713 2559 2662 2629 2629 2694 2692 2647 2638 2624 2732 2634 2665 2677 2671 2676 2678 2750 2743 2664 2692 2696 2677 2615 2586 2647 2733 2780 2738 2728 2734 2688 2704 2700 2728 2739 2816 2740 2846 2625 2725 2731 2728 2757 2848 2742 2800 2805 2852 2844 2844 2696 2732 2696 2841 2790 2712 2730 2810 2758 2766 2789 2860 2755 2719 2674 2747 2802 2775 2700 2746 2732 2876 2782 2919 2897 2778 2792 2807 2748 2855 2821 2800 2782 2764 2833 2895 2772 2834 2705 2858 2780 2787 2829 2862 2690 2798 2796 2849 2754 2739 2729 2843 2677 2777 2758 2770 2677 2811 2699 2836 2773 2837 2840 2764 2830 2742 2809 2668 2749 2813 2671 2731 2722 2735 2672 2819 2816 2755 2738 2690 2675 2758 2769 2702 2767 2751 2736 2701 2749 2773 2726 2775 2695 2755 2746 2613 2610 2708 2664 2698 2753 2631 2702 2600 2682 2776 2714 2717 2630 2658 2710 2731 2748 2702 2701 2720 2699 2671 2658 2743 2679 2653 2639 2799 2542 2640 2584 2715 2780 2655 2674 2649 2602 2700 2645 2693 2655 2687 2711 2627 2730 2756 2761 2656 2578 2586 2639 2664 2638 2791 2693 2701 2600 2634 2687 2663 2692 2582 2584 2560 2566 2645 2704 2599 2657 2632 2637 2562 2545 2601 2627 2667 2602 2617 2650 2616 2686 2632 2648 2675 2678 2682 2654 2663 2680 2667 2617 2443 2575 2683 2703 2695 2711 2685 2715 2707 2654 2766 2634 2711 2701 2685 2626 2584 2698 2675 2682 2584 2627 2700 2687 2632 2668 2670 2718 2620 2665 2656 2629 2666 2584 2695 2740 2618 2661 2641 2713 2632 2697 2677 2648 2715 2654 2685 2685 2774 2690 2720 2726 2784 2786 2758 2777 2743 2711 2630 2715 2655 2784 2747 2771 2736 2830 2799 2728 2862 2865 2771 2837 2834 2828 2696 2781 2705 2863 2849 2851 2820 2957 2903 2905 2825 2859 2838 2795 2851 2895 2910 2903 2889 2839 3050 2905 2932 2850 2938 2935 2855 2934 2936 3030 2934 2966 3018 3055 3069 2993 3070 3022 3053 2915 3017 3032 3091 2877 3057 3084 3046 3123 3053 3127 3105 3066 3100 3082 3053 3122 3047 3032 3145 3218 3197 3097 3198 3222 3126 3183 3216 3141 3096 3131 3057 3331 3219 3281 3216 3175 3274 3243 3278 3301 3305 3279 3253 3303 3240 3414 3225 3247 3351 3274 3309 3356 3402 3333 3360 3503 3499 3469 3576 3489 3406 3462 3527 3533 3563 3563 3579 3604 3657 3644 3806 3695 3783 3633 3770 3901 3775 4041 3972 4004 3995 4106 4218 4223 4261 4147 4376 4213 4352 4382 4498 4548 4588 4690 4654 4807 4767 4963 4903 5030 5229 5103 5136 5215 5301 5193 5447 5494 5588 5748 5704 5755 5928 6018 6012 6190 6364 6509 6527 6323 6408 6631 6600 6306 6534 6631 6586 6671 6530 6733 6642 6583 6225 6380 6144 5952 5966 5893 5883 5732 5827 5850 5824 5870 6004 5765 5805 5891 5750 5906 5702 5496 5281 5151 4988 4944 4510 4241 4238 4091 3842 3660 3573 3468 3486 3431 3301 3351 3304 3311 3244 3214 3272 3202 3209 3184 3193 3219 3091 3227 3282 3185 3182 3150 3115 3071 3030 3166 3091 3010 3220 3150 3047 3203 3064 3090 3100 3071 3070 3025 3023 2960 3046 3013 3037 3040 3023 2964 3081 2939 3004 2979 2973 3073 2995 2981 3010 3038 3047 2940 3109 2994 2933 2910 2868 3046 2951 3023 3095 3007 2985 3034 2851 3099 2951 2947 2950 3034 2853 3003 2998 2985 2989 2908 2903 3059 2871 2941 3020 2979 2861 2928 2929 2871 2828 2953 2958 2994 2899 2962 2959 2927 2861 2932 2923 2887 2919 2873 2914 2968 2912 2873 2957 2891 2951 3050 2931 3056 3029 3002 2996 2906 3029 3054 2972 2944 2823 2993 2956 2942 2993 2859 2971 3046 3044 2983 2968 2971 2991 3041 2921 2998 2921 3000 3082 2912 3102 3026 3015 3020 2966 3034 3114 2963 3093 3080 3062 3024 3035 3083 3083 2978 3026 3086 3086 3122 3041 3063 3074 3033 3109 3016 3001 3046 2998 2961 3057 3017 2910 2852 3017 2886 2983 2921 2884 2875 2866 2948 2788 2881 2887 2816 2827 2864 2873 2762 2804 2825 2840 2906 2784 2879 2872 2759 2825 2819 2915 2814 3005 2845 2818 2744 2851 2826 2890 2913 2745 2897 2780 2839 2859 2785 2731 2810 2842 2857 2791 2817 2855 2797 2738 2898 2724 2831 2743 2799 2773 2879 2733 2924 2761 2845 2750 2896 2725 2741 2783 2724 2657 2765 2888 2892 2801 2816 2749 2694 2770 2804 2780 2742 2694 2861 2778 2595 2938 2843 2728 2785 2808 2717 2765 2665 2807 2828 2776 2792 2811 2829 2782 2803 2833 2723 2814 2775 2803 2715 2788 2724 2687 2739 2809 2679 2765 2762 2701 2735 2682 2705 2700 2675 2704 2742 2757 2822 2756 2714 2691 2702 2712 2791 2794 2672 2659 2656 2801 2684 2751 2572 2724 2734 2705 2662 2751 2683 2779 2715 2654 2796 2668 2865 2715 2774 2620 2577 2642 2717 2682 2643 2649 2596 2673 2662 2707 2681 2648 2710 2664 2642 2593 2653 2554 2622 2586 2729 2627 2629 2525 2574 2723 2691 2661 2650 2641 2668 2703 2708 2596 2640 2636 2577 2600 2574 2616 2575 2564 2618 2604 2559 2539 2619 2543 2583 2670 2609 2527 2584 2684 2573 2618 2682 2681 2609 2537 2562 2631 2648 2558 2656 2582 2572 2607 2671 2556 2671 2477 2548 2562 2511 2554 2559 2480 2556 2615 2530 2568 2554 2527 2524 2517 2500 2536 2511 2551 2542 2523 2565 2480 2570 2474 2578 2530 2570 2505 2590 2503 2625 2640 2442 2515 2518 2578 2490 2524 2596 2458 2578 2484 2671 2469 2491 2585 2494 2522 2477 2447 2570 2475 2569 2571 2543 2513 2492 2534 2611 2590 2541 2479 2409 2486 2578 2498 2484 2450 2439 2474 2508 2598 2605 2527 2520 2597 2574 2473 2508 2589 2425 2507 2474 2468 2469 2467 2465 2495 2461 2503 2439 2527 2458 2573 2412 2511 2565 2483 2611 2475 2478 2519 2510 2434 2513 2480 2510 2495 2528 2428 2521 2580 2458 2639 2423 2568 2479 2380 2556 2524 2549 2480 2482 2560 2512 2506 2573 2488 2566 2511 2506 2474 2488 2568 2499 2552 2509 2561 2499 2539 2506 2457 2460 2480 2564 2394 2606 2451 2520 2553 2413 2516 2476 2381 2488 2546 2479 2524 2514 2445 2579 2371 2433 2525 2582 2585 2503 2482 2579 2509 2486 2425 2548 2483 2497 2483 2540 2564 2451 2445 2531 2456 2535 2508 2462 2525 2492 2509 2471 2487 2482 2492 2517 2525 2472 2503 2575 2443 2487 2472 2441 2468 2509 2520 2344 2483 2407 2432 2431 2531 2539 2467 2438 2371 2398 2409 2517 2421 2406 2391 2387 2408 2522 2349 2482 2388 2399 2444 2447 2401 2412 2496 2405 2391 2486 2389 2353 2392 2380 2345 2381 2416 2370 2401 2412 2365 2311 2383 2342 2347 2324 2360 2451 2364 2422 2342 2319 2321 2419 2311 2400 2303 2257 2262 2295 2293 2436 2316 2313 2276 2241 2316 2277 2299 2329 2334 2339 2263 2292 2229 2246 2256 2274 2221 2190 2279 2205 2262 2235 2146 2217 2227 2232 2207 2240 2263 2176 2174 2219 2181 2220 2212 2186 2146 2194 2235 2135 2194 2089 2189 2132 2171 2084 2136 2129 2179 2161 2062 2126 2083 2101 2135 2162 2139 2122 2077 2119 2115 2143 2078 2074 2189 2190 2104 2041 2156 2098 2140 2090 2098 2106 2110 2088 1994 2008 2080 2164 2042 2034 2056 1968 2107 2088 2044 2014 2080 2122 1983 2071 1980 2031 2028 2032 1984 2025 2025 2027 1997 1957 1963 2013 2057 1957 2043 2027 2059 1973 2025 1984 1930 1967 1994 2012 1981 1966 2034 2075 1912 2042 1995 1980 1983 1940 2099 1986 1974 2001 1983 1984 1991 2037 1978 2029 1979 2002 1943 2049 2031 2029 2093 2103 1997 2053 1975 2018 2080 2156 2035 2021 2063 2090 2022 2111 2005 2076 2109 2042 2080 2160 2027 2102 2060 2098 2087 2062 2004 2062 2096 2106 2073 2097 2051 2064 2018 2058 2132 1998 1961 2038 2069 2122 2057 2115 2113 2064 2108 2019 2030 2065 1985 1972 1959 1915 1979 1998 1936 1964 1934 1868 1982 1941 1986 1949 1947 1977 1950 1924 1959 1929 2009 1955 1860 1886 1833 1947 1963 1946 1880 1953 1918 1935 1996 1915 1908 1954 1970 1948 1949 1949 1894 1998 1896 1902 1978 1899 1953 1911 1977 1942 2025 1943 1965 2013 1951 1963 2054 1984 2043 1978 1893 1962 1955 1930 1924 1969 1959 2083 1963 1900 1938 1967 1952 1969 2047 1909 1927 2015 1919 2047 1995 1962 1866 1952 1966 1911 2013 1967 1957 1964 2067 1979 2036 1950 1981 1854 1918 1982 2003 1989 1947 1934 1970 2020 1923 2007 1961 1928 1951 1917 1978 1927 1994 2040 1972 1887 1986 1982 1956 2036 1992 1945 2030 1968 2008 2004 2007 1973 1989 1970 1977 1983 2048 1903 1991 1953 1960 1909 1962 1938 1964 1953 1993 1986 1937 1901 1935 1940 1902 1912 1954 1901 1922 1907 1970 1927 1913 1914 1855 1895 1907 1863 1897 1892 1952 1888 1887 1915 1864 1779 1920 1950 1933 1967 1886 1878 1846 1808 1878 1869 1919 1811 1899 1809 1783 1799 1857 1762 1912 1861 1849 1887 1853 1895 1819 1750 1806 1836 1822 1756 1810 1800 1843 1909 1859 1755 1769 1836 1766 1874 1824 1737 1813 1910 1713 1830 1787 1744 1681 1760 1815 1770 1730 1800 1784 1752 1851 1848 1741 1798 1755 1749 1733 1682 1736 1759 1737 1670 1764 1733 1758 1769 1697 1675 1777 1626 1756 1713 1665 1668 1708 1703 1707 1631 1682 1682 1660 1642 1660 1683 1701 1775 1692 1725 1669 1680 1620 1680 1653 1648 1681 1674 1677 1717 1637 1599 1641 1621 1603 1669 1631 1709 1587 1650 1679 1621 1697 1661 1646 1719 1614 1606 1575 1678 1629 1711 1581 1640 1592 1651 1614 1675 1637 1673 1627 1610 1633 1536 1615 1652 1652 1656 1643 1642 1666 1656 1682 1673 1635 1611 1622 1702 1694 1684 1693 1796 1720 1760 1752 1697 1796 1710 1784 1830 1796 1694 1824 1654 1754 1782 1771 1825 1866 1934 1874 1866 1835 1932 1909 1828 1942 1890 1932 1944 1925 1990 2010 1885 1920 1987 1963 1936 1898 2006 1923 1952 2014 1964 1992 1959 1960 1942 1998 1944 1986 2010 1996 1885 1965 1976 1961 1866 1957 1845 1866 1872 1985 1937 1885 1878 1862 1890 1835 1848 1802 1850 1828 1760 1794 1845 1682 1747 1803 1744 1737 1770 1749 1801 1740 1696 1689 1673 1647 1674 1672 1639 1678 1681 1562 1680 1714 1586 1593 1529 1594 1615 1621 1678 1577 1649 1658 1616 1636 1548 1619 1667 1760 1655 1792 1736 1725 1693 1770 1815 1778 1891 1746 1888 1858 1942 1910 1917 2002 2011 2021 2087 2149 2145 2264 2284 2305 2271 2318 2433 2457 2556 2538 2648 2614 2664 2836 2890 2989 3073 3143 3114 3236 3122 3238 3114 3101 3064 3113 3125 3014 3107 3002 3080 3184 3136 3233 3167 3299 3218 3341 3172 3232 3139 3303 3148 3130 2993 3063 2898 2827 2732 2605 2421 2323 2292 2248 2077 2093 2109 2011 1979 1979 1904 1879 1882 1835 1812 1819 1867 1795 1895 1750 1842 1827 1857 1907 1904 1805 1839 1859 1852 1835 1861 1796 1859 1779 1825 1760 1750 1804 1803 1735 1738 1748 1731 1636 1601 1622 1684 1589 1572 1612 1543 1523 1536 1531 1585 1482 1443 1476 1480 1416 1413 1424 1468 1462 1405 1397 1462 1361 1460 1357 1402 1390 1346 1427 1407 1485 1342 1405 1377 1447 1454 1406 1449 1409 1401 1437 1315 1381 1323 1492 1437 1419 1383 1408 1383 1370 1335 1385 1380 1418 1397 1444 1396 1419 1327 1388 1352 1345 1416 1380 1363 1381 1451 1392 1315 1413 1421 1273 1348 1390 1367 1337 1384 1420 1396 1341 1382 1418 1367 1389 1384 1368 1372 1351 1403 1382 1412 1397 1355 1384 1364 1330 1300 1373 1399 1346 1357 1381 1294 1386 1386 1401 1374 1321 1379 1343 1389 1321 1340 1390 1375 1371 1376 1364 1308 1341 1369 1395 1397 1342 1372 1376 1326 1305 1387 1369 1375 1351 1418 1349 1381 1346 1359 1383 1361 1367 1383 1323 1296 1393 1358 1355 1364 1436 1415 1381 1356 1312 1431 1377 1409 1409 1388 1380 1349 1428 1382 1419 1376 1397 1355 1425 1369 1394 1333 1434 1397 1384 1414 1447 1408 1361 1437 1407 1414 1420 1392 1267 1364 1381 1361 1397 1373 1386 1414 1368 1437 1368 1453 1412 1459 1393 1392 1469 1475 1415 1451 1486 1498 1485 1472 1492 1531 1513 1524 1548 1539 1547 1489 1541 1474 1542 1628 1542 1564 1552 1589 1679 1540 1617 1602 1629 1559 1651 1648 1685 1620 1716 1684 1621 1618 1687 1753 1637 1663 1661 1747 1709 1665 1636 1743 1653 1639 1601 1653 1725 1587 1650 1601 1564 1621 1612 1611 1642 1594 1597 1608 1551 1530 1559 1532 1607 1527 1558 1525 1555 1579 1543 1483 1494 1531 1493 1556 1558 1453 1478 1464 1551 1572 1470 1513 1510 1442 1552 1568 1483 1542 1485 1456 1485 1467 1450 1470 1526 1596 1486 1530 1521 1484 1541 1619 1565 1647 1573 1691 1628 1583 1587 1639 1628 1666 1643 1696 1700 1823 1834 1784 1839 1971 1923 2042 2005 2011 2032 2169 2230 2234 2326 2425 2535 2429 2601 2598 2806 2760 2920 3008 2953 3186 3285 3452 3521 3647 3844 3848 3937 4044 4216 4175 4224 4469 4483 4658 4853 4769 5018 4910 4814 4904 4831 4883 4721 4799 4685 4826 4508 4576 4615 4610 4667 4747 4664 4909 4860 5146 5038 5132 4995 4987 4897 5002 4787 4906 4785 4636 4482 4585 4386 4224 4049 4079 3894 3857 3732 3790 3659 3580 3605 3515 3650 3436 3338 3307 3398 3281 3121 3217 2985 2940 2983 2911 2828 2809 2770 2610 2451 2530 2521 2581 2358 2360 2344 2382 2406 2246 2261 2190 2181 2072 2175 1967 2119 2088 1983 1983 1917 1871 1775 1720 1656 1697 1685 1637 1556 1588 1587 1512 1533 1474 1520 1490 1505 1487 1505 1429 1422 1383 1418 1462 1394 1400 1422 1407 1325 1357 1411 1435 1331 1374 1365 1420 1342 1355 1370 1346 1349 1345 1364 1319 1344 1387 1381 1370 1348 1292 1368 1336 1334 1270 1390 1313 1358 1324 1377 1290 1306 1272 1343 1307 1346 1315 1258 1246 1374 1327 1239 1317 1329 1350 1256 1308 1241 1320 1255 1306 1349 1280 1250 1341 1338 1277 1309 1335 1307 1348 1288 1265 1301 1343 1321 1270 1227 1266 1314 1353 1288 1290 1402 1223 1246 1260 1267 1275 1286 1297 1281 1263 1281 1305 1354 1316 1247 1280 1293 1227 1215 1245 1278 1230 1229 1218 1298 1242 1263 1229 1264 1274 1284 1163 1346 1254 1238 1275 1271 1245 1210 1247 1265 1238 1230 1257 1171 1267 1200 1269 1328 1321 1223 1324 1227 1227 1218 1221 1277 1242 1263 1258 1187 1208 1283 1268 1270 1185 1243 1165 1186 1199 1224 1232 1277 1226 1254 1200 1195 1252 1256 1233 1242 1233 1244 1300 1274 1237 1298 1315 1211 1263 1255 1301 1270 1240 1244 1247 1281 1304 1260 1241 1264 1303 1260 1259 1299 1334 1284 1303 1243 1277 1261 1318 1317 1288 1281 1328 1272 1302 1305 1280 1306 1270 1338 1287 1273 1243 1327 1290 1260 1353 1297 1297 1355 1354 1282 1265 1323 1283 1299 1304 1303 1294 1241 1310 1292 1313 1228 1271 1263 1255 1287 1295 1249 1336 1317 1253 1251 1246 1250 1247 1249 1283 1336 1300 1291 1291 1281 1300 1249 1275 1266 1263 1245 1266 1287 1315 1213 1266 1176 1256 1289 1180 1252 1254 1308 1205 1188 1298 1282 1207 1312 1264 1259 1192 1169 1270 1228 1267 1288 1293 1254 1261 1291 1212 1258 1280 1231 1246 1266 1322 1272 1265 1233 1273 1226 1265 1289 1274 1233 1262 1277 1257 1256 1239 1258 1245 1266 1292 1286 1267 1285 1281 1310 1268 1343 1307 1292 1282 1326 1350 1361 1276 1273 1269 1239 1248 1286 1274 1273 1273 1346 1293 1200 1260 1281 1297 1291 1221 1257 1243 1219 1249 1170 1183 1173 1255 1225 1209 1263 1124 1233 1181 1170 1192 1120 1232 1152 1222 1225 1233 1162 1148 1198 1175 1242 1181 1225 1168 1203 1234 1215 1141 1225 1177 1160 1214 1218 1125 1173 1168 1143 1222 1245 1218 1241 1179 1228 1176 1195 1211 1231 1187 1229 1178 1191 1151 1148 1141 1190 1249 1245 1187 1205 1137 1198 1186 1226 1153 1157 1138 1193 1210 1243 1152 1193 1195 1192 1207 1191 1176 1157 1209 1207 1250 1185 1204 1199 1238 1161 1169 1198 1176 1199 1153 1122 1143 1201 1170 1176 1200 1223 1219 1190 1232 1183 1183 1158 1162 1169 1194 1191 1202 1218 1172 1188 1277 1152 1109 1210 1198 1149 1159 1143 1196 1194 1194 1149 1212 1147 1184 1115 1175 1224 1228 1142 1200 1142 1184 1128 1188 1166 1237 1185 1198 1224 1207 1155 1184 1160 1174 1176 1171 1207 1144 1215 1148 1185 1212 1190 1165 1184 1150 1223 1265 1163 1154 1235 1156 1146 1203 1204 1160 1098 1198 1264 1190 1156 1171 1227 1180 1184 1172 1200 1149 1179 1129 1250 1184 1203 1248 1235 1178 1181 1234 1151 1234 1224 1189 1215 1165 1217 1179 1263 1139 1190 1155 1155 1162 1210 1148 1246 1183 1249 1245 1227 1243 1215 1181 1255 1216 1192 1165 1152 1188 1175 1217 1227 1224 1223 1228 1194 1168 1199 1237 1207 1210 1181 1160 1136 1212 1170 1141 1229 1158 1256 1172 1179 1217 1187 1243 1205 1170 1158 1162 1175 1200 1218 1246 1221 1208 1212 1169 1197 1272 1212 1220 1254 1181 1201 1220 1233 1208 1224 1182 1227 1192 1219 1195 1210 1203 1180 1234 1271 1205 1240 1267 1247 1207 1332 1270 1267 1248 1269 1247 1257 1240 1219 1254 1234 1306 1300 1256 1258 1256 1309 1284 1264 1275 1278 1332 1314 1364 1384 1326 1341 1336 1344 1329 1408 1388 1374 1384 1380 1310 1342 1343 1369 1305 1345 1329 1401 1325 1278 1389 1382 1333 1373 1292 1318 1317 1295 1281 1299 1274 1285 1324 1270 1330 1319 1267 1228 1177 1254 1266 1262 1305 1241 1247 1250 1226 1270 1203 1245 1233 1260 1201 1321 1165 1221 1226 1191 1262 1279 1200 1163 1166 1197 1211 1183 1178 1186 1193 1175 1228 1275 1213 1221 1285 1204 1129 1250 1187 1195 1190 1177 1164 1094 1207 1186 1161 1147 1236 1216 1177 1287 1157 1230 1215 1144 1195 1189 1164 1204 1234 1264 1193 1155 1251 1194 1176 1162 1175 1169 1199 1144 1160 1181 1152 1194 1152 1129 1153 1214 1223 1154 1146 1170 1149 1196 1257 1190 1144 1145 1178 1209 1190 1208 1160 1137 1227 1196 1223 1176 1180 1186 1125 1139 1131 1186 1144 1118 1145 1229 1188 1164 1142 1146 1157 1114 1212 1131 1123 1171 1172 1175 1188 1164 1177 1255 1211 1232 1141 1159 1204 1156 1179 1188 1151 1147 1145 1157 1222 1172 1211 1243 1144 1262 1162 1196 1175 1205 1168 1168 1171 1147 1168 1251 1197 1138 1181 1222 1194 1170 1155 1192 1145 1208 1169 1288 1162 1167 1155 1193 1206 1248 1259 1237 1242 1249 1252 1321 1331 1286 1278 1345 1266 1362 1352 1307 1321 1351 1325 1398 1392 1429 1423 1400 1422 1443 1457 1472 1471 1421 1433 1423 1479 1455 1421 1473 1412 1426 1496 1452 1456 1489 1433 1412 1495 1454 1389 1426 1432 1382 1359 1423 1461 1404 1400 1405 1386 1368 1398 1374 1464 1350 1420 1386 1377 1336 1415 1376 1370 1416 1365 1406 1355 1406 1379 1326 1359 1379 1378 1297 1398 1339 1361 1341 1356 1376 1346 1366 1365 1363 1341 1327 1331 1344 1250 1425 1320 1362 1299 1281 1337 1346 1307 1330 1346 1381 1353 1367 1320 1256 1360 1270 1323 1332 1373 1231 1337 1334 1280 1274 1325 1319 1325 1326 1293 1290 1288 1271 1334 1270 1273 1242 1283 1218 1294 1272 1278 1325 1294 1274 1204 1278 1244 1253 1212 1214 1150 1203 1191 1270 1177 1219 1185 1160 1228 1182 1201 1127 1191 1091 1187 1166 1139 1091 1198 1107 1209 1203 1198 1140 1222 1129 1155 1135 1133 1173 1156 1178 1154 1114 1103 1101 1175 1113 1182 1123 1109 1151 1144 1208 1174 1210 1083 1167 1136 1132 1093 1117 1121 1137 1138 1126 1123 1187 1210 1151 1135 1165 1159 1088 1142 1106 1125 1185 1143 1195 1180 1137 1103 1138 1101 1134 1104 1144 1211 1158 1124 1110 1110 1141 1190 1233 1126 1130 1102 1119 1153 1180 1112 1171 1128 1206 1212 1157 1192 1150 1192 1148 1175 1083 1111 1179 1113 1163 1155 1171 1207 1152 1110 1134 1097 1089 1119 1145 1158 1194 1192 1128 1144 1129 1163 1243 1158 1176 1142 1188 1135 1112 1168 1146 1167 1136 1205 1088 1122 1091 1227 1140 1151 1166 1149 1103 1120 1152 1077 1175 1174 1164 1144 1186 1181 1131 1163 1167 1148 1185 1119 1237 1125 1183 1127 1156 1166 1184 1153 1096 1145 1179 1174 1205 1200 1167 1141 1140 1151 1125 1120 1156 1119 1171 1238 1160 1109 1177 1213 1185 1168 1105 1152 1146 1157 1174 1149 1130 1135 1175 1176 1178 1208 1162 1169 1180 1175 1126 1209 1177 1170 1084 1230 1074 1169 1128 1152 1216 1227 1228 1143 1168 1133 1150 1157 1188 1227 1204 1195 1214 1257 1188 1213 1149 1177 1317 1278 1244 1306 1319 1271 1331 1289 1303 1248 1387 1313 1337 1364 1396 1418 1488 1477 1468 1473 1563 1548 1550 1557 1679 1674 1716 1724 1697 1757 1718 1819 1891 1832 1875 1901 1940 1977 2068 2063 2010 2041 2102 2091 2132 2119 2081 2159 2119 2087 2229 2281 2229 2238 2294 2295 2260 2373 2206 2329 2295 2456 2300 2408 2504 2497 2543 2592 2687 2528 2694 2745 2639 2668 2857 2803 2858 2703 2774 2635 2690 2667 2614 2601 2491 2472 2509 2417 2419 2357 2312 2172 2094 2095 2069 1967 1934 1963 1923 1996 1791 1889 1849 1815 1770 1797 1758 1729 1677 1707 1705 1769 1642 1750 1712 1644 1672 1690 1726 1656 1629 1644 1674 1674 1671 1603 1601 1661 1642 1583 1615 1673 1666 1654 1618 1633 1577 1715 1678 1668 1721 1723 1713 1670 1705 1689 1662 1621 1713 1699 1747 1643 1669 1661 1662 1624 1550 1585 1609 1529 1599 1544 1504 1466 1490 1416 1390 1423 1414 1471 1363 1371 1335 1351 1277 1320 1335 1220 1279 1308 1283 1211 1302 1307 1197 1201 1194 1234 1192 1244 1201 1174 1199 1248 1184 1182 1264 1213 1170 1255 1150 1211 1136 1243 1245 1201 1193 1161 1162 1142 1160 1232 1256 1191 1174 1195 1157 1239 1138 1191 1118 1209 1209 1200 1185 1152 1186 1216 1202 1170 1192 1227 1241 1239 1215 1180 1238 1234 1220 1211 1223 1238 1287 1267 1349 1269 1293 1332 1319 1297 1406 1370 1375 1307 1346 1443 1346 1482 1416 1486 1509 1453 1545 1510 1522 1539 1516 1514 1485 1483 1512 1548 1618 1594 1559 1576 1485 1585 1490 1555 1481 1418 1516 1430 1506 1489 1442 1480 1496 1476 1457 1376 1439 1475 1415 1382 1334 1399 1385 1267 1352 1352 1346 1342 1324 1342 1367 1291 1302 1272 1249 1253 1339 1320 1266 1261 1301 1296 1219 1254 1223 1303 1264 1266 1285 1284 1246 1280 1305 1243 1215 1290 1256 1301 1268 1260 1136 1195 1248 1235 1281 1212 1257 1212 1140 1202 1280 1282 1277 1224 1218 1225 1256 1228 1311 1276 1226 1223 1234 1226 1269 1226 1305 1236 1160 1231 1192 1268 1190 1208 1190 1238 1251 1198 1218 1268 1220 1207 1204 1219 1169 1201 1208 1251 1243 1199 1204 1238 1147 1199 1195 1222 1218 1202 1181 1193 1202 1207 1161 1223 1211 1161 1088 1164 1191 1147 1141 1116 1135 1151 1161 1157 1140 1156 1118 1164 1183 1176 1170 1138 1096 1164 1088 1189 1143 1115 1133 1077 1042 1142 1103 1160 1080 1122 1141 1098 1089 1129 1121 1152 1143 1178 1141 1071 1099 1159 1081 1105 1092 1140 1098 1103 1079 1056 1108 1166 1107 1104 1199 1087 1074 1175 1128 1183 1132 1090 1071 1141 1112 1141 1093 1127 1135 1126 1176 1113 1123 1195 1138 1200 1128 1116 1144 1173 1181 1206 1152 1185 1136 1134 1238 1190 1183 1206 1236 1221 1269 1163 1188 1266 1236 1178 1222 1150 1164 1176 1206 1216 1158 1157 1172 1188 1166 1121 1127 1174 1109 1168 1195 1088 1179 1177 1111 1157 1107 1128 1107 1135 1143 1169 1130 1124 1183 1176 1081 1094 1139 1146 1127 1134 1098 1088 1081 1166 1083 1127 1157 1106 1144 1165 1123 1135 1081 1165 1127 1074 1133 1183 1164 1146 1121 1106 1095 1070 1087 1097 1089 1131 1096 1130 1124 1105 1136 1138 1149 1194 1169 1088 1117 1093 1084 1153 1187 1230 1165 1098 1136 1158 1124 1183 1118 1173 1139 1154 1112 1164 1130 1137 1186 1085 1151 1157 1108 1154 1162 1132 1130 1158 1126 1230 1151 1163 1146 1188 1207 1206 1106 1129 1113 1175 1102 1056 1187 1160 1118 1158 1081 1135 1084 1184 1166 1172 1152 1131 1150 1199 1157 1118 1193 1105 1176 1168 1156 1144 1172 1142 1132 1051 1111 1163 1147 1156 1137 1155 1146 1122 1076 1153 1069 1063 1099 1143 1139 1101 1113 1101 1052 1108 1115 1128 1133 1104 1142 1141 1061 1177 1096 1114 1129 1087 1149 1095 1166 1135 1139 1187 1148 1149 1077 1104 1084 1153 1109 1089 1084 1151 1135 1123 1099 1085 1126 1118 1122 1152 1122 1085 1122 1085 1102 1116 1082 1133 1105 1100 1083 1144 1123 1151 1082 1123 1140 1087 1106 1117 1075 1089 1123 1151 1163 1100 1072 1147 1146 1068 1133 1110 1151 1160 1056 1064 1126 1042 1084 1103 1100 1104 1057 1122 1068 1122 1105 1100 1070 1114 1139 1094 1051 1097 1080 1056 1069 1031 1054 1106 1104 1094 1057 1120 1155 1062 1078 1087 1096 1014 1053 1119 1017 1098 1078 1064 1088 1084 1109 1127 1066 1129 1134 1025 1098 1098 1095 1100 1076 1066 1103 1135 1062 1038 1061 1042 1050 1070 1142 1128 1122 1158 1090 1105 1157 1089 1167 1070 1190 1121 1077 1056 1064 1105 1171 1134 1081 1086 1133 1172 1075 1116 1061 1066 1094 1119 1146 1175 1102 1102 1123 1097 1037 1102 1100 1125 1090 1150 1133 1073 1115 1093 1186 1133 1137 1067 1132 1111 1064 1158 1163 1132 1078 1149 1143 1145 1073 1097 1137 1131 1144 1138 1141 1097 1127 1223 1116 1210 1145 1200 1127 1150 1211 1105 1129 1188 1172 1203 1125 1112 1191 1052 1187 1157 1233 1258 1134 1219 1196 1210 1200 1205 1227 1264 1219 1185 1151 1194 1251 1218 1252 1273 1224 1305 1221 1241 1179 1275 1325 1237 1251 1273 1313 1266 1332 1341 1308 1323 1282 1354 1319 1342 1348 1332 1378 1447 1399 1442 1432 1464 1458 1426 1536 1474 1505 1505 1582 1515 1542 1563 1594 1519 1533 1527 1508 1501 1488 1463 1528 1434 1465 1389 1427 1414 1353 1391 1328 1320 1315 1317 1324 1346 1383 1305 1314 1300 1197 1202 1280 1197 1226 1207 1170 1238 1181 1227 1179 1207 1162 1167 1159 1145 1185 1275 1220 1193 1200 1131 1208 1138 1251 1145 1070 1158 1115 1097 1111 1139 1117 1134 1158 1141 1115 1124 1159 1100 1112 1152 1125 1177 1136 1079 1157 1125 1121 1150 1169 1127 1125 1140 1085 1146 1096 1060 1086 1169 1138 1078 1085 1078 1068 1107 1078 1149 1100 1130 1179 1143 1141 1151 1115 1125 1091 1118 1076 1121 1143 1182 1101 1110 1135 1075 1084 1054 1082 1057 1065 1090 1035 1071 1102 1158 1073 1110 1059 1114 1185 1112 1085 1103 1081 1054 1069 1087 1154 1121 1098 1057 1118 1084 1099 1120 1087 1145 1118 1172 1141 1072 1058 1158 1075 1153 1082 1103 1146 1140 1123 1054 1086 1109 1051 1128 1135 1089 1120 1049 1048 1096 1159 1120 1091 1131 1170 1152 1110 1103 1097 1179 1068 1121 1025 1117 1119 1123 1134 1065 1151 1194 1189 1211 1126 1128 1213 1206 1142 1213 1225 1221 1184 1307 1225 1253 1298 1267 1247 1280 1261 1333 1298 1311 1281 1325 1365 1293 1325 1322 1362 1424 1393 1448 1361 1389 1474 1398 1452 1431 1447 1431 1377 1409 1410 1374 1361 1315 1353 1323 1380 1363 1371 1374 1387 1362 1425 1382 1350 1359 1440 1478 1388 1434 1428 1386 1415 1389 1441 1457 1538 1475 1523 1513 1464 1452 1541 1577 1580 1574 1585 1604 1599 1679 1646 1617 1645 1690 1633 1629 1615 1612 1620 1619 1663 1605 1632 1582 1693 1582 1555 1563 1527 1469 1486 1439 1504 1410 1344 1376 1348 1407 1299 1408 1354 1385 1316 1358 1315 1300 1322 1179 1188 1284 1239 1258 1197 1222 1188 1228 1126 1215 1226 1244 1138 1207 1200 1242 1149 1236 1216 1205 1168 1258 1148 1222 1256 1195 1234 1244 1210 1209 1282 1271 1278 1273 1275 1314 1356 1394 1339 1294 1362 1332 1381 1343 1372 1367 1452 1365 1459 1378 1341 1358 1359 1391 1409 1363 1485 1439 1405 1457 1440 1364 1427 1411 1507 1349 1368 1344 1370 1392 1386 1407 1373 1390 1394 1285 1327 1344 1273 1411 1307 1293 1258 1260 1277 1347 1285 1253 1224 1219 1314 1220 1253 1201 1187 1238 1281 1195 1251 1237 1153 1193 1187 1243 1233 1181 1149 1175 1178 1207 1275 1137 1268 1158 1128 1145 1217 1225 1142 1118 1158 1142 1186 1189 1148 1137 1153 1148 1177 1188 1154 1214 1183 1204 1211 1147 1185 1135 1178 1167 1163 1212 1273 1165 1162 1212 1247 1235 1250 1196 1174 1177 1206 1206 1213 1197 1191 1263 1185 1271 1222 1238 1207 1278 1158 1193 1241 1229 1216 1242 1209 1193 1200 1214 1219 1191 1195 1161 1169 1132 1173 1143 1179 1126 1145 1213 1171 1165 1191 1162 1138 1203 1132 1138 1224 1087 1159 1138 1116 1148 1125 1142 1160 1155 1110 1136 1123 1141 1078 1159 1186 1159 1124 1157 1149 1170 1099 1143 1074 1087 1155 1144 1172 1104 1167 1115 1205 1166 1140 1160 1112 1146 1141 1103 1142 1123 1136 1132 1084 1091 1122 1073 1104 1119 1146 1188 1085 1161 1125 1175 1064 1112 1145 1085 1086 1117 1144 1146 1153 1114 1145 1112 1080 1089 1023 1140 1066 1179 1087 1151 1156 1090 1129 1128 1105 1090 1108 1062 1070 1100 1101 1047 1025 1126 1082 1066 1173 1102 1080 1032 1108 1098 1086 1123 1084 1065 1086 1072 1114 1055 1134 1051 1009 1063 1080 1094 1085 1045 1091 1094 985 1067 1059 1029 1100 1086 1059 1050 1078 1123 1082 1095 1032 1088 1034 1071 1038 1096 1133 1049 1046 1058 1055 1012 1028 1077 1018 1017 1031 1080 1077 1000 1084 1074 994 1011 1097 1038 1074 1098 1117 1114 1094 1048 995 1010 1073 1087 1035 1092 1047 1078 1116 1086 1079 1079 1069 1053 1050 1082 1110 1069 1090 1100 1029 1084 1053 1086 1099 1017 1113 1067 1104 1046 1027 1142 1065 1085 1034 1073 1014 1056 1096 1010 1113 1100 1046 1082 1082 1076 1108 1057 1086 1104 1071 1021 1048 1086 1061 1077 1100 1089 1078 1046 1039 1084 1045 1061 1056 1029 1052 1053 1068 977 1062 1088 1108 1074 1019 999 1036 981 992 1090 1055 1123 1047 1135 1086 1061 1112 1057 1093 1047 1055 1081 1054 1059 1021 1060 1114 996 1042 1077 1063 1059 1068 1050 1031 1117 1083 1072 1139 1068 1002 1094 1046 1127 1108 1040 1060 1059 1047 1045 1065 1103 1055 1066 1120 1090 1034 1129 1110 1111 1018 1079 1085 1063 1146 1090 1139 1095 1061 1090 1070 1115 1065 1168 1160 1085 1047 1044 1122 1004 1126 1060 1100 1124 1030 1045 1071 1101 1094 1102 1092 1036 998 1091 1067 1061 1040 1096 1094 1080 1057 1113 1063 1018 1058 1100 1057 1061 1117 1035 1109 1069 1043 1038 1057 1076 1064 1042 1084 1042 1071 1007 1118 1048 1039 1012 1077 1033 1075 1079 1037 1098 1097 1077 1096 1099 1082 1058 1065 1051 1072 1063 1053 1104 1054 1072 1058 1052 1071 1031 1117 1037 1105 1106 1080 1100 1096 1069 1060 1111 1031 1077 1095 1091 1073 1075 1031 1076 1108 1041 1145 1099 1144 1025 1087 1059 1029 1071 1084 1108 1070 1072 1069 1084 1100 1014 1115 1083 1097 1082 1152 1120 1120 1069 1099 1146 1122 1092 1080 1090 1077 1092 1077 1099 1057 1070 1136 1060 1062 1138 1090 1108 1111 1150 1063 1113 1079 1108 1085 1078 1137 1044 1084 1060 1061 1077 1124 1075 1068 1112 1059 1134 1095 1058 1130 1127 1148 1114 1132 1124 1109 1107 1119 1185 1115 1108 1172 1131 1185 1139 1076 1114 1070 1108 1117 1118 1143 1100 1146 1120 1157 1137 1092 1163 1132 1082 1157 1115 1124 1101 1140 1139 1117 1080 1130 1078 1115 1105 1135 1084 1099 1056 1101 1120 1061 1074 1057 1127 1070 1027 1086 1084 1026 1064 1100 1087 1076 1119 1067 1074 1054 1080 1084 1047 1004 1057 1067 1115 1050 1096 1039 1038 1087 1076 1041 1109 1093 1094 1064 1091 1097 1033 1031 1134 1083 1038 1048 1095 1055 1032 1065 1049 1086 1094 1116 1063 1093 1039 1000 1043 1060 1046 1105 1080 1058 1119 1038 1003 1040 1127 1061 1085 1094 1086 1042 1110 1076 1047 1135 1055 1090 1103 1020 1046 1034 996 1061 1089 1093 1009 1131 1029 1084 1041 1022 1110 1099 1144 1032 1018 992 1091 1041 1098 1036 1087 1036 1105 1077 1050 1031 1052 1071 1056 1070 1037 1008 1063 1022 1082 1048 1046 1060 1020 1141 1023 1083 1118 1117 1085 1063 1104 1054 1053 1048 1037 1006 1027 1083 1103 1075 1129 1052 1079 1081 1014 1082 1158 1023 981 1063 1085 1061 1057 998 1080 1041 1088 1025 1117 1102 1072 1115 1104 1111 1099 1056 1066 1092 1057 1018 1081 1044 1059 1106 1093 1095 1072 1010 1057 1040 1078 1100 1026 1026 1078 1162 1059 1050 1046 1041 1107 1070 1092 1068 1078 1111 1122 1135 1147 1057 1131 1143 1057 1108 1120 1154 1103 1162 1180 1135 1139 1124 1097 1164 1161 1147 1176 1160 1229 1190 1146 1123 1142 1162 1143 1188 1203 1118 1121 1154 1132 1173 1210 1051 1136 1201 1143 1136 1164 1180 1105 1143 1200 1141 1152 1144 1149 1107 1128 1142 1121 1165 1141 1188 1107 1225 1221 1197 1198 1161 1274 1136 1178 1245 1224 1213 1221 1210 1249 1277 1262 1187 1185 1279 1190 1153 1251 1285 1248 1217 1207 1221 1163 1172 1208 1199 1147 1197 1247 1196 1193 1226 1201 1137 1188 1231 1143 1201 1135 1169 1123 1192 1184 1144 1155 1139 1091 1127 1255 1165 1119 1172 1087 1111 1147 1201 1139 1130 1118 1120 1119 1137 1128 1110 1158 1174 1154 1112 1177 1085 1149 1080 1151 1148 1151 1116 1183 1097 1088 1077 1105 1026 1157 1061 1111 1115 1092 1093 1111 1147 1080 1101 1136 1152 1079 1120 1069 1188 1083 990 1143 1071 1052 1066 1069 1070 1083 1095 1100 1112 1063 1054 1046 1107 1072 1091 1024 1117 1092 1127 1058 1033 1091 1083 1105 1081 1078 1083 1032 1123 1075 1130 1072 1047 1082 1067 1109 1137 1101 1078 1088 1154 1108 1079 1044 1046 1080 1083 1106 1081 1117 1082 1058 1041 1056 1112 1082 1091 1090 1053 1041 1080 1113 1079 1110 1035 1051 1087 1078 1058 1042 1036 1075 1057 1069 1077 1082 1044 1052 1031 1078 1111 1024 1041 1071 1042 1051 1021 1037 1067 1007 1098 1005 1047 1059 1057 1021 1052 1038 1054 1039 1092 1061 1079 1033 1057 1081 1021 1072 1077 1031 1044 1069 1028 1046 1083 1092 1115 1079 998 1064 1032 1062 1067 1077 1043 1050 1050 1087 1115 1053 1066 1062 1081 1092 1095 1042 1018 1015 1102 1051 1023 1004 1026 1113 1089 1087 1033 1093 1077 1092 1079 1050 1063 1111 1069 1082 1031 1089 1051 1021 1077 1073 1056 1051 1014 1107 1091 1110 1079 1080 1028 1074 1129 1097 1088 1167 1029 1087 1085 1041 1060 1070 1062 1053 1059 1124 1048 1120 1018 1063 1079 1082 1071 1095 1112 1065 961 1078 1026 1042 1132 1078 1101 1089 1082 1103 1081 1058 1073 1079 1076 1066 1069 1102 1075 1062 1014 1047 1051 1043 1050 1097 1044 1059 1094 1059 1043 1043 1055 1062 1089 1108 1077 1024 1014 1077 1081 1020 1050 1033 1049 1025 1029 1087 1097 1069 1026 955 997 1062 1056 1060 1051 1073 1033 1072 1030 1032 1038 1088 1014 1046 1036 1021 1099 1018 1068 1069 994 1034 1026 1047 1030 1065 1044 1051 990 1070 1064 1044 1052 1145 1120 1033 1052 1000 1056 1040 1042 1060 1057 1106 1061 1031 1033 1039 1054 988 1038 1045 1089 1117 1076 1015 1037 1118 1071 1036 1094 1010 1021 1066 1036 1087 1045 1083 1097 1083 1000 1055 1064 1099 1090 1026 1032 1095 1080 1029 1011 1096 1081 1051 1057 1047 1050 1062 1033 1024 1084 1088 1060 1065 1066 1104 1111 1062 1079 1036 1063 1024 1028 1064 1054 1040 1078 1094 1058 1046 1033 1008 999 1061 1090 1050 1083 1012 1084 1122 1059 1075 1084 1079 1064 1059 1055 1054 1017 1046 1067 974 1077 1042 1112 1102 1069 1123 1066 1122 1077 1021 1035 1050 1043 1062 1043 1050 1036 1108 1044 1066 1018 1063 1004 1023 1072 1045 1092 1088 1086 1036 1096 1107 1059 1027 1107 1083 1010 1100 1020 1069 1114 1093 1090 1054 1032 1034 1052 1043 1065 1026 1057 1047 1021 1056 1038 1055 1117 1080 1082 998 1080 1024 1090 1088 1139 1056 1043 1086 1128 1074 1026 1105 1069 1075 1076 1103 1102 1080 1069 1045 1046 1022 1117 1059 1054 1073 1097 1057 1061 1077 1116 1096 1065 1080 1087 1095 1115 1065 1014 1039 1047 1047 1100 1064 1061 1084 1033 1071 1016 1081 1107 1089 1053 1103 1064 1044 1084 1119 1071 1049 1120 1111 1137 1082 1114 1101 1127 1088 1054 1137 1066 1103 1108 1138 1110 1056 1083 1173 1123 1081 1125 1109 1110 1104 1098 1095 1081 1164 1063 1111 1059 1055 1072 1107 1136 1095 1078 1109 1066 1044 1035 1131 1097 1089 1124 1090 1161 1063 1103 1123 1146 1130 1105 1110 1108 1098 1095 1110 1071 1094 1026 1146 1086 1155 1126 1173 1123 1137 1164 1097 1112 1134 1102 1096 1156 1085 1156 1133 1119 1179 1186 1131 1125 1095 1087 1143 1071 1169 1120 1201 1120 1123 1121 1093 1117 1147 1114 1137 1084 1139 1126 1130 1086 1072 1057 1099 1139 1094 1115 1140 1130 1172 1173 1121 1152 1154 1151 1139 1102 1221 1079 1165 1120 1149 1169 1154 1139 1196 1188 1192 1214 1206 1182 1160 1188 1221 1245 1229 1244 1209 1173 1156 1127 1127 1163 1087 1166 1143 1161 1159 1144 1158 1134 1151 1143 1121 1112 1195 1223 1132 1137 1124 1168 1127 1107 1088 1146 1089 1115 1139 1146 1124 1116 1154 1124 1112 1116 1117 1103 1072 1101 1143 1106 1128 1085 1131 1071 1102 1057 1106 1134 1118 1157 1134 1084 1119 1164 1101 1105 1117 1084 1130 1129 1144 1107 1140 1156 1157 1136 1062 1149 1138 1131 1099 1101 1127 1129 1148 1121 1061 1139 1152 1149 1143 1071 1177 1134 1118 1124 1170 1123 1104 1163 1116 1140 1189 1165 1168 1113 1158 1070 1060 1145 1094 1137 1107 1067 1073 1132 1137 1118 1116 1098 1116 1141 1081 1129 1070 1131 1139 1100 1162 1138 1150 1148 1120 1153 1188 1159 1113 1138 1145 1167 1105 1118 1108 1116 1131 1094 1146 1094 1143 1131 1158 1214 1157 1106 1140 1179 1184 1147 1206 1221 1225 1239 1176 1226 1183 1210 1228 1263 1175 1269 1280 1252 1270 1263 1187 1226 1188 1221 1249 1194 1269 1194 1197 1223 1253 1231 1184 1310 1293 1212 1238 1231 1250 1298 1255 1236 1262 1215 1303 1225 1216 1219 1306 1259 1250 1184 1223 1255 1218 1272 1203 1319 1262 1283 1244 1258 1258 1267 1258 1272 1256 1266 1282 1296 1283 1262 1310 1339 1255 1311 1304 1348 1388 1360 1306 1366 1380 1348 1328 1329 1394 1413 1456 1377 1301 1392 1309 1324 1332 1300 1287 1327 1364 1324 1290 1341 1330 1273 1302 1228 1309 1294 1275 1260 1308 1301 1286 1286 1291 1279 1293 1324 1278 1308 1227 1278 1353 1321 1269 1250 1277 1313 1270 1323 1279 1295 1250 1274 1230 1303 1253 1279 1267 1224 1251 1291 1206 1204 1238 1189 1237 1210 1205 1223 1221 1137 1208 1243 1189 1201 1214 1282 1193 1145 1203 1178 1240 1198 1224 1143 1202 1106 1165 1207 1197 1125 1186 1118 1139 1209 1138 1183 1099 1214 1187 1207 1138 1162 1206 1197 1168 1162 1164 1168 1197 1135 1115 1191 1185 1212 1174 1219 1192 1185 1228 1181 1200 1172 1166 1194 1165 1228 1217 1125 1172 1211 1241 1232 1262 1203 1189 1192 1226 1197 1227 1214 1150 1193 1298 1197 1267 1181 1249 1272 1160 1211 1216 1206 1252 1188 1172 1227 1193 1192 1202 1243 1216 1250 1230 1151 1174 1244 1155 1174 1167 1197 1176 1148 1133 1163 1203 1196 1136 1121 1135 1225 1111 1170 1121 1164 1125 1143 1155 1137 1151 1136 1184 1108 1126 1153 1126 1111 1181 1141 1101 1138 1135 1107 1120 1155 1179 1076 1106 1115 1080 1173 1107 1113 1160 1109 1105 1137 1119 1138 1183 1143 1108 1149 1074 1165 1141 1163 1203 1173 1198 1204 1133 1150 1139 1127 1150 1149 1161 1075 1132 1197 1164 1188 1139 1159 1197 1179 1191 1218 1094 1157 1163 1187 1198 1150 1166 1160 1174 1180 1124 1155 1150 1137 1192 1111 1215 1167 1162 1174 1191 1180 1170 1172 1196 1166 1202 1145 1221 1136 1158 1149 1170 1125 1135 1166 1188 1165 1162 1125 1160 1171 1138 1150 1131 1189 1065 1110 1120 1148 1108 1108 1083 1175 1103 1078 1123 1097 1126 1142 1136 1106 1103 1119 1099 1114 1133 1160 1069 1043 1092 1077 1137 1090 1120 1115 1042 1097 1102 1140 1164 1078 1057 1126 1025 1142 1060 1039 1140 1116 1106 1134 1061 1056 1111 1139 1064 1102 1025 1060 1044 1069 1112 1097 1071 1114 1032 1087 1081 1104 1106 1110 1075 1047 1081 1084 1094 1039 1125 1120 1073 1080 1097 1055 1057 1018 1130 1064 1120 1099 1062 1046 1041 1063 1077 1094 1096 1066 1113 1084 1106 1061 1079 1080 1081 1098 1113 1065 1099 1126 1101 1073 1045 1109 1094 1049 1072 1034 1112 1101 1113 1079 1081 1049 1040 1133 1067 1110 1039 1046 1057 1061 1094 1092 1081 1063 1063 1070 1006 1050 1079 1081 1064 1062 1069 1054 1044 1046 1093 1050 1112 1066 1148 1109 1084 1093 1077 1045 1036 1079 1037 1061 1080 1040 1079 1068 1078 1030 1075 1032 1045 1044 1099 1085 1112 1100 1124 1090 1108 1109 1085 1089 1114 1138 1025 1101 1116 1056 1092 1135 1115 1033 1101 1115 1056 1022 1068 1070 1062 1066 1033 1048 1114 1059 1084 1076 1061 1058 1063 1054 1038 1080 1016 1059 1078 1077 1094 1054 1044 1089 1062 1101 1059 1067 1117 1049 1105 1076 1113 1065 1081 1125 1128 1070 1088 1030 1114 1025 1030 1083 1107 1079 1079 1124 1134 1010 1139 1069 1098 1096 1103 1084 1078 1082 1054 1096 1153 1068 1060 1156 1143 1050 1175 1093 1119 1149 1114 1119 1135 1073 1158 1131 1068 1126 1096 1113 1027 1151 1094 1116 1106 1092 1112 1121 1073 1121 1083 1105 1154 1113 1116 1064 1094 1108 1149 1088 1126 1060 1109 1111 1072 1104 1159 1137 1109 1108 1111 1116 1070 1150 1083 1128 1085 1140 1122 1144 1085 1070 1095 1126 1109 1109 1098 1077 1082 1133 1141 1104 1099 1080 1198 1068 1108 1112 1071 1156 1098 1076 1091 1083 1093 1081 1171 1045 1033 1070 1117 1083 1119 1101 1047 1080 1132 1167 1115 1110 1071 1124 1149 1132 1168 1086 1150 1083 1101 1084 1140 1107 1090 1131 1054 1087 1177 1112 1105 1109 1130 1057 1077 1092 1142 1047 1081 1088 1145 1123 1103 1116 1091 1119 1083 1128 1143 1086 1118 1079 1070 1083 1057 1119 1110 1134 1079 1040 1071 1155 1068 1092 1068 1125 1063 1098 1132 1113 1067 1098 1096 1059 1102 1156 1043 1073 1077 1123 1098 1093 1099 1068 1106 1094 1096 1088 1039 1151 1120 1110 1042 1141 1135 1113 1102 1036 1125 1040 1138 1089 1076 1136 1118 1133 1090 1088 1081 1097 1114 1074 1136 1074 1074 1182 1122 1154 1075 1165 1058 1100 1075 1068 1169 1129 1103 1152 1037 1092 1095 1120 1069 1117 1137 1120 1168 1054 1110 1114 1072 1060 1151 1078 1124 1104 1066 1116 1113 1065 1147 1182 1112 1099 1088 1105 1106 1099 1142 1092 1074 1142 1155 1103 1078 1112 1193 1072 1132 1142 1154 1083 1066 1117 1088 1110 1144 1112 1112 1121 1150 1090 1181 1104 1141 1099 1162 1128 1165 1103 1084 1101 1062 1091 1049 1092 1129 1068 1108 1141 1172 1175 1153 1130 1140 1162 1147 1093 1156 1116 1101 1096 1115 1169 1125 1190 1154 1164 1149 1234 1175 1120 1169 1212 1174 1199 1202 1137 1204 1241 1210 1237 1145 1239 1188 1177 1216 1174 1161 1213 1174 1203 1231 1219 1196 1169 1172 1231 1143 1184 1214 1237 1193 1211 1220 1210 1113 1176 1128 1208 1224 1175 1218 1160 1191 1120 1268 1139 1182 1205 1136 1158 1112 1196 1157 1202 1174 1145 1162 1181 1224 1209 1202 1212 1160 1264 1224 1199 1177 1136 1249 1201 1179 1233 1162 1222 1121 1273 1241 1248 1231 1256 1291 1237 1268 1273 1279 1248 1280 1254 1277 1356 1325 1286 1256 1257 1267 1243 1204 1310 1293 1266 1251 1249 1298 1286 1198 1227 1248 1309 1252 1178 1257 1233 1219 1250 1258 1212 1248 1199 1188 1182 1257 1192 1213 1253 1219 1257 1249 1247 1210 1243 1192 1269 1189 1299 1195 1188 1218 1219 1204 1221 1255 1172 1260 1280 1243 1134 1152 1223 1183 1148 1180 1225 1189 1226 1208 1244 1232 1188 1192 1165 1212 1185 1194 1169 1164 1165 1133 1192 1133 1158 1133 1178 1166 1118 1154 1159 1129 1232 1116 1148 1131 1163 1147 1146 1132 1137 1179 1109 1104 1137 1175 1111 1135 1104 1145 1101 1138 1130 1180 1145 1125 1106 1160 1086 1124 1146 1175 1162 1098 1107 1114 1070 1167 1101 1157 1107 1115 1149 1163 1176 1140 1142 1074 1112 1143 1169 1128 1071 1166 1087 1176 1148 1150 1186 1162 1109 1107 1186 1169 1148 1140 1123 1123 1142 1224 1173 1198 1081 1164 1137 1210 1101 1203 1144 1188 1195 1232 1081 1216 1161 1128 1176 1154 1202 1205 1140 1197 1184 1244 1119 1214 1164 1109 1202 1151 1204 1166 1133 1183 1154 1212 1193 1172 1188 1174 1199 1222 1130 1159 1203 1147 1171 1101 1189 1132 1192 1128 1193 1116 1157 1102 1177 1120 1156 1183 1072 1157 1092 1131 1047 1088 1102 1156 1063 1106 1087 1138 1118 1171 1166 1138 1139 1119 1104 1111 1123 1118 1121 1078 1104 1127 1133 1143 1143 1142 1111 1118 1148 1110 1133 1170 1073 1153 1075 1081 1120 1072 1067 1105 1148 1121 1084 1081 1101 1079 1177 1067 1027 1115 1062 1123 1115 1116 1125 1090 1117 1142 1092 1127 1081 1070 1093 1080 1068 1095 1130 1072 1073 1054 1108 1074 1116 1115 1149 1066 1145 1127 1058 1076 1113 1117 1085 1113 1164 1138 1112 1103 1088 1067 1115 1080 1138 1087 1115 1151 1149 1031 1090 1087 1112 1124 1135 1075 1129 1042 1128 1094 1075 1086 1167 1021 1094 1096 1058 1043 1076 1052 1115 1121 1130 1051 1119 1038 1146 1093 1085 1079 1073 1060 1106 1110 1068 1043 1087 1112 1042 1043 1064 1033 1143 1081 1106 1116 1096 1090 1141 1104 1153 1095 1086 1043 1089 1075 1053 1147 1119 1137 1053 1071 1100 1123 1026 1082 1104 1106 1129 1129 1096 1068 1068 1081 1107 1041 1036 1145 1031 1117 1111 1117 1151 1107 1099 1137 1098 1094 1163 1142 1079 1109 1071 1088 1076 1072 1091 1102 1055 1122 1095 1010 1023 1020 1080 1105 1094 1079 1106 1132 1024 1178 1103 1102 1139 1155 1055 1080 1047 1110 1147 1078 1128 1059 1112 1131 1162 1049 1075 1127 1080 1128 1108 1130 1146 1112 1102 1101 1106 1214 1050 1112 1067 1132 1084 1141 1088 1095 1108 1152 1086 1139 1163 1078 1123 1106 1157 1048 1129 1117 1142 1086 1145 1157 1131 1198 1112 1072 1084 1042 1122 1076 1102 1084 1196 1101 1124 1040 1122 1079 1081 1088 1075 1092 1106</counts>
			</dataPoints>
		</scan>
	</xrdMeasurement>
</xrdMeasurements>
