<?xml version="1.0"?>
<xrdMeasurements xmlns="http://www.xrdml.com/XRDMeasurement/2.3" xmlns:xsi="http://www.w3.org/2001/XMLSchema-instance" xsi:schemaLocation="http://www.xrdml.com/XRDMeasurement/2.3 http://www.xrdml.com/XRDMeasurement/2.3/XRDMeasurement.xsd" status="Completed" recordIdentifier="{65DCF8E0-6E73-472C-A422-39E60AF021F7}">
	<comment>
		<entry/>
	</comment>
	<sample type="To be analyzed">
		<id>GPSS_Li1p6Fe0p9Y0p2Cl4_112625_69278cb0f4e53d1f7239ae4e</id>
		<name></name>
		<preparedBy></preparedBy>
	</sample>
	<xrdMeasurement measurementType="Scan" status="Completed" sampleMode="Reflection">
		<usedWavelength intended="K-Alpha 1">
			<kAlpha1 unit="Angstrom">1.5405980</kAlpha1>
			<kAlpha2 unit="Angstrom">1.5444260</kAlpha2>
			<kBeta unit="Angstrom">1.3922500</kBeta>
			<ratioKAlpha2KAlpha1>0.5000</ratioKAlpha2KAlpha1>
		</usedWavelength>
		<incidentBeamPath>
			<radius unit="mm">145.00</radius>
			<xRayTube id="1010048" name="Empyrean Cu LFF HR (9430 033 7310x)">
				<tension unit="kV">40.0</tension>
				<current unit="mA">15.0</current>
				<anodeMaterial>Cu</anodeMaterial>
				<focus type="Line">
					<length unit="mm">12.0</length>
					<width unit="mm">0.4</width>
					<takeOffAngle unit="deg">6.0</takeOffAngle>
				</focus>
			</xRayTube>
			<sollerSlit id="21010002" name="Soller slits 0.04 rad.">
				<opening unit="rad">0.0400</opening>
			</sollerSlit>
			<mask id="22031000" name="Fixed mask 13 mm">
				<width unit="mm">9.00</width>
			</mask>
			<divergenceSlit id="22120001" name="Divergence slit 1°" xsi:type="fixedDivergenceSlitType">
				<distanceToSample unit="mm">50.00</distanceToSample>
				<height unit="mm">1.52</height>
			</divergenceSlit>
		</incidentBeamPath>
		<sampleMovement xsi:type="spinningSampleMovementType">
			<spinnerRevolutionTime unit="seconds">1.0</spinnerRevolutionTime>
		</sampleMovement>
		<diffractedBeamPath>
			<radius unit="mm">145.00</radius>
			<antiScatterSlit id="22090040" name="AS slit 9 mm (PIXcel)" xsi:type="fixedAntiScatterSlitType">
				<height unit="mm">9.00</height>
			</antiScatterSlit>
			<sollerSlit id="21020003" name="Large Soller slits 0.04 rad.">
				<opening unit="rad">0.0400</opening>
			</sollerSlit>
			<filter id="20030001" name="Large beta-filter Nickel">
				<material>Ni</material>
				<thickness unit="mm">0.020</thickness>
			</filter>
			<detector id="7010019" name="PIXcel1D-Medipix3 detector" xsi:type="rtmsDetectorType">
				<phd unit="keV">
					<lowerLevel>4.02</lowerLevel>
					<upperLevel>11.27</upperLevel>
				</phd>
				<mode>Scanning</mode>
				<activeLength unit="deg">5.542</activeLength>
			</detector>
		</diffractedBeamPath>
		<scan appendNumber="0" mode="Continuous" scanAxis="Gonio" status="Completed">
			<header>
				<startTimeStamp>2025-12-06T12:08:48-08:00</startTimeStamp>
				<endTimeStamp>2025-12-06T12:16:56-08:00</endTimeStamp>
				<author>
					<name>AutomatedUser</name>
				</author>
				<source>
					<applicationSoftware version="1.7b (136)">PANalytical Aeris Instrument Suite</applicationSoftware>
					<instrumentControlSoftware version="3.2.00000000 20240306">AERIS</instrumentControlSoftware>
					<instrumentID>950485</instrumentID>
				</source>
			</header>
			<dataPoints>
				<positions axis="2Theta" unit="deg">
					<startPosition>10.00943322</startPosition>
					<endPosition>99.99442286</endPosition>
				</positions>
				<positions axis="Omega" unit="deg">
					<startPosition>5.00471661</startPosition>
					<endPosition>49.99721143</endPosition>
				</positions>
				<commonCountingTime unit="seconds">12.495</commonCountingTime>
				<counts unit="counts">3033 3031 2987 3059 3101 3006 3080 2944 3051 2993 2986 3036 2942 3025 3001 3008 2972 2992 2906 2962 3002 3038 3062 2981 3014 3070 3034 2999 2996 3134 3050 3006 3021 3037 3073 3031 3033 3002 3044 2946 3089 3148 3005 2955 3031 2980 3056 3179 3013 3044 3107 3041 3106 3011 3063 3112 3043 2966 3026 3000 2987 3087 3151 3096 2986 3099 3080 3017 3088 3167 3158 3067 3117 2912 3194 3074 3128 3049 3073 3128 3116 3045 3040 3234 3155 3041 3066 3104 3126 3222 3150 3119 3079 3102 3146 3193 3085 3209 3037 3114 3075 3202 3131 3175 3194 3115 3084 3195 3171 3189 3174 3143 3169 3214 3012 3158 3185 3214 3119 3237 3160 3135 3213 3191 3086 3134 3227 3084 3251 3316 3146 3259 3230 3219 3219 3241 3126 3299 3262 3110 3228 3148 3235 3231 3236 3246 3213 3132 3227 3283 3334 3199 3114 3269 3079 3282 3262 3163 3195 3183 3234 3227 3233 3254 3173 3217 3142 3152 3217 3136 3156 3144 3195 3294 3143 3271 3193 3285 3131 3183 3207 3128 3244 3193 3177 3171 3217 3196 3158 3104 3166 3185 3197 3259 3230 3127 3124 3248 3257 3113 3194 3142 3143 3157 3232 3167 3174 3234 3312 3268 3180 3154 3229 3215 3181 3166 3197 3098 3211 3087 3166 3155 3170 3167 2991 3236 3215 3137 3116 3246 3125 3010 3093 3168 3101 3107 3083 3122 3214 3099 3153 3168 3052 3127 3115 3032 3140 2982 3106 3078 3060 3051 2988 3195 3078 3110 3080 2996 3052 3078 2989 3018 3075 3076 3091 3099 3101 3034 2962 3075 3143 3018 3131 3102 3119 3022 3033 3193 3010 3067 3109 3070 3095 3097 3052 2929 3128 3103 3098 3051 3006 3089 3102 3063 3092 2968 3039 3014 3025 2979 2958 3090 3172 3006 3063 3094 3070 3001 3156 2986 3051 3177 3131 2989 3106 3112 3141 3034 3028 3152 3141 3071 3083 3091 3074 3240 3073 3140 3105 3078 3162 3064 3071 3055 3202 3106 3107 3070 3175 3154 3165 3098 3179 3137 3308 3226 3187 3246 3159 3161 3154 3034 3066 3229 3163 3259 3196 3414 3184 3123 3200 3219 3307 3229 3199 3289 3160 3333 3262 3342 3287 3226 3353 3294 3145 3419 3260 3324 3321 3279 3416 3365 3260 3348 3375 3364 3365 3430 3351 3414 3351 3345 3375 3422 3355 3470 3320 3418 3389 3448 3418 3344 3434 3454 3465 3507 3498 3490 3515 3584 3447 3513 3498 3462 3520 3618 3508 3563 3650 3543 3575 3710 3555 3594 3589 3673 3649 3693 3635 3681 3682 3628 3586 3660 3728 3798 3800 3750 3764 3821 3780 3781 3829 3862 3889 3831 3951 3918 3903 3941 3897 3906 3840 3767 3776 3801 3819 3908 3939 3820 3834 3774 3789 3801 3799 3913 3897 3966 3977 3965 3915 3916 3944 4020 3981 3963 3961 3963 3989 3995 3886 3962 3869 3878 3948 3895 3790 3868 3701 3814 3840 3624 3840 3727 3615 3686 3606 3664 3435 3397 3512 3470 3606 3573 3428 3483 3374 3459 3458 3438 3433 3381 3370 3422 3319 3425 3397 3444 3423 3481 3381 3231 3386 3304 3318 3297 3355 3385 3371 3353 3304 3260 3336 3326 3324 3377 3311 3267 3217 3106 3208 3241 3345 3297 3274 3239 3157 3151 3257 3324 3102 3157 3227 3181 3200 3255 3110 3287 3167 3199 3102 3118 3185 3211 3227 3179 3122 3058 3175 3116 3030 3091 3125 3177 3241 3134 3094 3063 3074 3258 3028 3228 3125 3127 3023 3069 3110 3043 2981 3061 3022 2993 3034 2989 2986 3021 2986 2957 3038 3031 3003 2968 2997 3013 3055 2977 2982 2951 3000 2987 2979 3017 2906 3053 2989 3001 2934 2930 3054 2980 2967 2982 2957 2989 2940 2841 2962 2905 3092 2891 2910 2917 2989 2963 2924 2967 3029 2954 2979 2895 2972 2971 2875 2972 2985 3037 2995 2883 2987 2950 3003 2942 2950 2924 3017 2920 3025 2887 3120 2878 3079 3001 3016 2922 2978 2950 2948 2955 2971 3012 3008 3007 2829 2952 2876 2910 3022 2914 2936 2872 2881 2978 2910 2944 2938 2861 2853 2909 2930 2859 2875 2892 2955 2866 2954 2823 2943 2869 2850 2858 2864 2931 2901 2914 2814 2886 2848 2776 2903 2958 2882 2885 2954 2841 2827 2910 2905 2868 2950 2875 2812 2865 2811 2880 2815 2774 2922 2719 2888 2855 2961 2927 2858 2812 2860 2696 2768 2927 2838 2836 2788 2765 2817 2895 2739 2697 2786 2760 2671 2805 2737 2716 2834 2790 2756 2770 2806 2735 2714 2807 2720 2769 2828 2720 2737 2787 2791 2861 2774 2792 2766 2721 2814 2802 2861 2744 2800 2847 2819 2800 2718 2654 2834 2766 2778 2720 2770 2634 2757 2606 2687 2797 2725 2748 2715 2705 2732 2690 2674 2722 2711 2679 2788 2768 2747 2723 2754 2784 2673 2660 2584 2641 2667 2659 2738 2728 2695 2750 2744 2728 2797 2823 2741 2740 2793 2776 2667 2731 2696 2725 2791 2686 2772 2629 2656 2662 2676 2768 2661 2705 2624 2656 2761 2636 2699 2733 2787 2639 2643 2684 2595 2678 2709 2743 2612 2620 2606 2723 2651 2687 2616 2693 2670 2595 2599 2690 2641 2710 2572 2610 2675 2610 2745 2709 2627 2565 2665 2610 2629 2651 2626 2708 2654 2591 2591 2601 2659 2616 2699 2578 2593 2622 2620 2628 2584 2698 2599 2550 2676 2640 2709 2613 2587 2598 2547 2580 2635 2622 2556 2697 2508 2477 2624 2677 2577 2667 2580 2596 2617 2466 2619 2570 2612 2589 2598 2565 2633 2549 2566 2551 2706 2513 2495 2516 2500 2482 2614 2478 2522 2526 2582 2579 2546 2591 2632 2564 2538 2459 2554 2576 2511 2570 2517 2540 2570 2378 2528 2531 2543 2485 2519 2501 2507 2504 2440 2585 2489 2458 2609 2552 2498 2528 2472 2482 2466 2415 2491 2454 2445 2574 2511 2504 2549 2518 2494 2633 2618 2394 2442 2485 2444 2605 2524 2464 2505 2484 2502 2377 2442 2496 2521 2507 2507 2433 2553 2505 2465 2478 2534 2560 2337 2459 2539 2492 2543 2421 2558 2564 2565 2507 2514 2504 2554 2522 2464 2477 2515 2561 2457 2469 2445 2547 2573 2464 2565 2471 2641 2491 2454 2551 2461 2472 2534 2531 2587 2500 2580 2579 2502 2497 2418 2497 2608 2462 2537 2443 2581 2526 2519 2533 2606 2409 2640 2543 2576 2559 2554 2521 2486 2452 2560 2417 2514 2473 2505 2500 2593 2674 2498 2606 2524 2500 2489 2531 2511 2540 2570 2513 2530 2480 2555 2555 2483 2489 2537 2529 2496 2525 2582 2535 2504 2534 2475 2495 2499 2533 2512 2518 2490 2565 2452 2573 2532 2590 2507 2505 2502 2461 2423 2512 2500 2499 2522 2543 2522 2583 2464 2446 2455 2463 2503 2372 2507 2355 2570 2560 2563 2461 2586 2407 2438 2467 2429 2515 2387 2411 2532 2428 2520 2452 2434 2430 2406 2406 2372 2404 2439 2480 2511 2392 2509 2362 2500 2400 2393 2474 2436 2411 2475 2336 2430 2399 2337 2445 2435 2411 2463 2384 2272 2331 2341 2353 2294 2246 2384 2365 2336 2342 2348 2348 2199 2285 2255 2319 2342 2282 2378 2289 2350 2303 2315 2266 2337 2231 2282 2294 2420 2232 2236 2313 2226 2275 2276 2255 2261 2274 2122 2281 2185 2204 2250 2292 2215 2260 2262 2154 2170 2232 2328 2166 2285 2218 2229 2266 2245 2163 2180 2219 2202 2111 2180 2177 2257 2167 2145 2142 2215 2175 2182 2127 2222 2279 2202 2059 2200 2186 2084 2100 2127 2119 2108 2072 2157 2094 2133 2188 2132 2072 2157 2043 2101 2088 2066 2060 1980 2089 2032 2078 2101 2061 2010 2091 2046 2050 2049 1985 2023 2037 2025 1937 2008 2080 2005 2009 1971 2089 2044 1964 2026 1992 2039 1987 2050 2016 1841 2021 1951 2001 1973 2070 1971 1983 2014 1921 2084 1966 2076 2070 2022 2022 2017 2006 1927 2017 1964 1919 2026 1865 2035 1979 1865 1956 1987 1978 2047 1952 1926 1867 2035 1830 1941 1979 1908 1972 1890 1930 1924 1865 1865 1917 1941 1914 1953 1920 1903 1914 1910 1919 1854 1866 1939 1835 1971 1886 1837 1925 1922 1927 1913 1918 1880 1830 1894 1948 1842 2006 1881 1896 1891 1902 1891 1957 1996 1949 1902 1847 1901 1967 1910 1965 1863 1970 1848 1931 1926 1904 1989 1865 1934 1928 1890 1933 1920 1801 1975 1869 1884 1799 1916 1877 1881 1939 1817 1869 1930 1924 1847 1951 1853 1890 1865 1927 1972 1974 1844 1885 1825 1999 1829 1941 1969 1896 1905 1930 1875 1884 1955 1933 1905 1858 1960 1999 2027 1921 1951 1886 1891 1910 1944 1960 1971 1903 1912 1892 1877 1884 1873 1952 1909 1872 1842 1879 1972 1838 1834 1848 1866 1934 1907 1863 1972 1891 1877 1915 1949 1888 1843 1876 1972 1923 1852 1944 1993 1911 1930 1873 1917 1868 1954 1934 1941 1956 1854 1916 1893 1930 1867 1966 1916 1905 1971 1918 1906 1964 1863 1951 1941 1919 2007 1928 1939 1893 1860 1823 2008 1917 2010 1951 1989 1915 1987 1945 1994 1903 1890 1907 1838 1937 1942 1885 1965 1942 1890 1895 1950 1914 1866 1892 1947 1859 1896 1858 1883 1858 1893 1914 1902 1896 1841 1898 1907 1929 1818 1883 1823 1824 1848 1815 1806 1946 1868 1921 1902 1880 1913 1852 1814 1908 1800 1876 1875 1815 1863 1772 1877 1814 1900 1815 1915 1827 1836 1872 1822 1816 1735 1787 1842 1807 1777 1814 1826 1782 1902 1801 1791 1793 1674 1665 1776 1801 1775 1788 1733 1719 1733 1737 1712 1813 1702 1745 1724 1747 1625 1672 1730 1749 1695 1793 1706 1702 1700 1673 1691 1698 1742 1672 1693 1690 1694 1723 1604 1710 1694 1727 1754 1630 1667 1719 1699 1654 1757 1647 1661 1672 1656 1660 1688 1632 1707 1602 1648 1514 1589 1665 1698 1626 1676 1661 1722 1688 1609 1693 1701 1583 1706 1691 1741 1634 1608 1664 1613 1660 1610 1664 1678 1638 1667 1662 1701 1642 1758 1674 1757 1684 1791 1706 1689 1674 1620 1713 1709 1686 1777 1684 1744 1740 1671 1721 1742 1762 1776 1785 1756 1785 1776 1794 1827 1823 1776 1801 1806 1789 1837 1884 1720 1812 1803 1833 1776 1770 1802 1797 1736 1789 1758 1779 1799 1744 1774 1796 1843 1748 1722 1760 1776 1735 1820 1726 1766 1731 1774 1802 1785 1692 1723 1703 1743 1726 1723 1731 1713 1727 1697 1670 1625 1665 1663 1686 1629 1741 1625 1656 1581 1645 1536 1625 1555 1552 1543 1579 1583 1483 1524 1565 1548 1609 1484 1558 1546 1457 1517 1495 1542 1479 1511 1548 1522 1561 1508 1632 1522 1524 1606 1542 1624 1601 1632 1543 1616 1619 1568 1699 1607 1651 1629 1667 1634 1592 1690 1683 1650 1639 1696 1677 1680 1643 1687 1664 1703 1690 1782 1759 1802 1737 1794 1795 1727 1782 1744 1807 1833 1918 1830 1828 1864 1945 1855 1832 1817 1846 1887 1900 1865 1898 1861 1834 1825 1790 1849 1780 1704 1840 1803 1774 1804 1761 1828 1755 1656 1769 1745 1732 1786 1706 1702 1681 1704 1721 1677 1649 1647 1632 1536 1621 1596 1588 1620 1552 1553 1519 1527 1429 1495 1491 1512 1449 1438 1431 1489 1374 1383 1386 1385 1399 1444 1391 1343 1345 1336 1419 1372 1375 1415 1345 1351 1349 1413 1388 1378 1353 1384 1399 1403 1365 1374 1331 1369 1344 1409 1335 1337 1340 1393 1370 1315 1326 1381 1314 1291 1311 1347 1387 1462 1321 1404 1375 1374 1332 1322 1350 1365 1400 1431 1377 1382 1471 1434 1418 1463 1414 1454 1466 1507 1445 1562 1547 1496 1565 1466 1575 1563 1616 1590 1589 1560 1555 1571 1625 1581 1627 1599 1672 1555 1608 1607 1633 1566 1536 1591 1579 1518 1535 1484 1515 1505 1524 1447 1459 1489 1460 1448 1501 1445 1497 1461 1438 1498 1433 1488 1476 1428 1473 1491 1515 1429 1471 1507 1505 1463 1458 1486 1485 1468 1503 1415 1468 1502 1459 1469 1456 1422 1389 1412 1392 1334 1367 1399 1399 1377 1384 1284 1290 1387 1342 1300 1282 1302 1265 1272 1411 1311 1276 1254 1296 1279 1261 1309 1305 1347 1288 1252 1233 1308 1356 1300 1332 1281 1308 1329 1366 1269 1349 1307 1231 1262 1313 1324 1346 1298 1353 1295 1271 1339 1314 1344 1259 1300 1248 1358 1269 1282 1278 1315 1341 1299 1305 1334 1282 1341 1299 1293 1446 1272 1314 1237 1289 1307 1283 1265 1295 1263 1300 1195 1220 1352 1259 1234 1342 1326 1311 1298 1273 1269 1261 1271 1229 1232 1238 1260 1276 1263 1272 1299 1259 1266 1202 1270 1289 1293 1197 1294 1255 1263 1346 1216 1273 1246 1277 1274 1245 1254 1237 1238 1221 1233 1241 1249 1311 1310 1284 1248 1232 1323 1290 1299 1251 1334 1225 1275 1246 1249 1291 1268 1315 1281 1291 1304 1350 1246 1260 1310 1326 1286 1283 1343 1307 1268 1232 1312 1338 1319 1305 1319 1320 1233 1348 1238 1313 1356 1282 1288 1350 1333 1320 1328 1280 1299 1367 1356 1350 1310 1339 1345 1304 1358 1270 1311 1331 1320 1316 1323 1341 1408 1453 1327 1333 1361 1371 1299 1338 1350 1405 1381 1408 1407 1424 1438 1521 1491 1572 1585 1495 1556 1497 1567 1652 1604 1678 1733 1931 1898 2020 1999 2243 2193 2331 2221 2576 2398 2677 2545 2697 2628 2738 2734 2832 2775 2766 2851 2782 2778 2858 2803 2754 2830 2781 2896 2923 2846 2908 2880 2835 3049 3140 3396 3509 3561 3585 3504 3570 3470 3565 3317 3447 3314 3288 3212 3214 3192 2999 2914 2808 2869 2682 2753 2592 2708 2417 2636 2517 2566 2524 2534 2334 2405 2246 2273 2193 2174 2115 2181 2088 2029 1960 1993 1779 1843 1847 1758 1694 1686 1711 1653 1703 1611 1605 1665 1523 1655 1621 1525 1527 1586 1535 1541 1535 1554 1462 1501 1505 1420 1441 1384 1453 1406 1411 1451 1426 1442 1464 1418 1397 1401 1397 1429 1393 1361 1367 1405 1425 1337 1367 1388 1423 1417 1397 1396 1327 1369 1323 1335 1300 1383 1302 1287 1374 1244 1365 1356 1315 1309 1281 1285 1264 1297 1220 1248 1300 1303 1306 1272 1252 1302 1256 1240 1253 1311 1331 1255 1258 1326 1276 1251 1262 1227 1273 1230 1260 1198 1256 1226 1275 1266 1309 1293 1200 1173 1276 1286 1215 1216 1242 1243 1240 1318 1250 1229 1242 1315 1286 1265 1211 1336 1259 1231 1213 1207 1199 1251 1211 1216 1234 1236 1163 1212 1227 1244 1287 1317 1160 1224 1230 1197 1217 1253 1246 1179 1275 1274 1233 1315 1255 1221 1223 1205 1163 1209 1240 1239 1246 1285 1221 1212 1225 1260 1221 1167 1279 1246 1237 1248 1180 1209 1270 1234 1245 1198 1189 1243 1220 1259 1266 1157 1224 1141 1225 1160 1221 1121 1192 1227 1234 1192 1210 1202 1161 1251 1132 1194 1219 1240 1207 1195 1214 1214 1212 1239 1199 1136 1153 1168 1126 1195 1130 1199 1197 1223 1210 1169 1179 1172 1216 1164 1126 1135 1162 1198 1123 1214 1209 1192 1207 1202 1193 1228 1144 1132 1258 1183 1202 1188 1228 1202 1192 1153 1224 1164 1211 1264 1185 1191 1242 1168 1232 1198 1160 1177 1234 1234 1213 1169 1291 1241 1197 1182 1201 1252 1136 1192 1225 1165 1263 1184 1221 1201 1215 1206 1151 1179 1251 1185 1241 1253 1233 1209 1158 1224 1182 1222 1147 1156 1182 1198 1109 1189 1150 1232 1145 1142 1162 1230 1083 1089 1177 1154 1168 1232 1162 1189 1229 1222 1177 1156 1195 1190 1127 1167 1180 1197 1218 1126 1185 1190 1194 1166 1210 1200 1167 1256 1165 1142 1179 1232 1221 1132 1169 1132 1198 1236 1139 1093 1104 1115 1141 1155 1194 1166 1226 1220 1142 1140 1100 1153 1132 1123 1144 1139 1196 1163 1113 1197 1204 1141 1162 1124 1088 1117 1094 1171 1133 1122 1151 1182 1165 1150 1159 1177 1168 1149 1138 1196 1170 1083 1211 1138 1098 1172 1122 1177 1184 1141 1093 1176 1099 1182 1090 1161 1123 1090 1123 1139 1078 1135 1180 1089 1101 1107 1127 1122 1184 1159 1147 1136 1144 1145 1081 1199 1177 1156 1176 1111 1104 1087 1163 1165 1166 1119 1118 1106 1158 1121 1172 1121 1137 1115 1036 1119 1089 1096 1171 1158 1194 1178 1091 1165 1105 1124 1079 1168 1199 1156 1130 1109 1152 1080 1138 1163 1162 1112 1182 1153 1165 1157 1147 1120 1107 1052 1128 1136 1119 1181 1147 1105 1167 1076 1115 1197 1127 1072 1197 1069 1207 1125 1130 1120 1121 1044 1167 1108 1139 1136 1119 1135 1102 1121 1105 1177 1115 1154 1230 1163 1078 1182 1200 1099 1080 1184 1196 1206 1175 1156 1159 1199 1196 1263 1172 1160 1202 1146 1222 1224 1217 1286 1302 1264 1271 1277 1293 1229 1303 1291 1300 1263 1362 1287 1320 1316 1335 1310 1308 1257 1296 1329 1257 1340 1312 1297 1312 1267 1293 1280 1314 1221 1233 1175 1256 1256 1192 1247 1244 1247 1156 1264 1222 1241 1178 1254 1200 1232 1172 1191 1227 1295 1172 1194 1147 1282 1186 1182 1185 1166 1207 1231 1211 1146 1147 1174 1154 1122 1150 1106 1178 1180 1069 1143 1120 1098 1196 1151 1125 1117 1142 1161 1149 1091 1106 1147 1125 1046 1185 1150 1116 1149 1161 1151 1145 1156 1227 1154 1187 1177 1115 1148 1191 1145 1132 1169 1135 1080 1144 1134 1157 1140 1146 1104 1079 1057 1107 1128 1174 1129 1053 1100 1107 1134 1137 1089 1154 1174 1169 1132 1102 1112 1203 1143 1188 1140 1116 1069 1159 1094 1143 1114 1079 1125 1131 1073 1103 1145 1112 1091 1091 1166 1077 1133 1065 1061 1206 1132 1190 1078 1058 1060 1118 1105 1209 1101 1198 1199 1129 1171 1165 1128 1143 1128 1120 1138 1112 1193 1128 1217 1118 1151 1139 1131 1183 1140 1144 1188 1102 1080 1158 1088 1162 1199 1145 1098 1130 1189 1155 1218 1203 1129 1167 1157 1130 1119 1214 1150 1138 1113 1077 1085 1111 1105 1152 1141 1048 1192 1099 1191 1159 1206 1121 1168 1194 1216 1122 1210 1176 1130 1223 1137 1126 1205 1148 1111 1136 1147 1147 1171 1121 1152 1185 1082 1147 1157 1143 1158 1179 1134 1148 1199 1198 1088 1172 1127 1110 1111 1142 1134 1117 1118 1117 1139 1114 1105 1100 1129 1112 1151 1082 1169 1142 1145 1139 1140 1103 1164 1090 1109 1103 1129 1158 1153 1177 1172 1145 1088 1144 1089 1125 1042 1162 1140 1091 1107 1117 1070 1103 1147 1154 1110 1085 1104 1112 1165 1055 1147 1066 1167 1146 1129 1126 1141 1113 1113 1117 1102 1165 1110 1041 1143 1029 1166 1144 1181 1086 1144 1081 1133 1092 1088 1080 1106 1099 1066 1106 1125 1148 1079 1122 1131 1115 1170 1157 1111 1106 1122 1155 1142 1094 1074 1067 1139 1105 1129 1135 1131 1097 1053 1144 1116 1138 1121 1157 1100 1115 1179 1114 1122 1117 1122 1085 1168 1079 1120 1098 1174 1082 1103 1071 1141 1149 1095 1079 1134 1129 1166 1089 1074 1127 1103 1138 1155 1134 1030 1134 1157 1148 1128 1190 1170 1144 1092 1242 1168 1227 1185 1169 1173 1170 1187 1253 1267 1263 1217 1288 1228 1325 1285 1269 1281 1287 1268 1276 1353 1347 1383 1248 1338 1303 1385 1338 1343 1316 1330 1377 1338 1310 1264 1353 1303 1372 1312 1271 1283 1317 1307 1289 1226 1247 1244 1280 1282 1224 1264 1264 1237 1204 1238 1216 1230 1199 1179 1255 1256 1200 1183 1229 1160 1172 1180 1165 1165 1193 1212 1181 1164 1171 1166 1191 1252 1187 1189 1112 1155 1129 1149 1136 1200 1138 1090 1174 1112 1244 1133 1133 1158 1146 1131 1160 1109 1098 1075 1138 1155 1071 1128 1136 1159 1084 1134 1109 1089 1146 1096 1108 1085 1096 1098 1120 1211 1166 1095 1112 1118 1128 1146 1126 1156 1106 1130 1151 1078 1163 1111 1157 1131 1127 1193 1176 1113 1146 1111 1112 1123 1112 1135 1096 1123 1135 1127 1093 1098 1089 1122 1115 1141 1110 1127 1167 1140 1166 1122 1097 1111 1158 1138 1087 1091 1172 1138 1136 1103 1076 1102 1090 1005 1071 1143 1129 1103 1124 1111 1071 1135 1096 1098 1095 1137 1130 1034 1154 1100 1112 1068 1062 1165 1132 1113 1091 1078 1138 1158 1156 1079 1098 1087 1076 1038 1072 1122 1084 1076 1141 1167 1113 1137 1112 1121 1148 1181 1091 1120 1077 1103 1109 1143 1071 1096 1043 1067 1116 1078 1017 1044 1111 1111 1146 1057 1153 1041 1092 1057 1084 1072 1182 1062 1113 1106 1082 1068 1032 1104 1105 1104 1107 1148 1166 1054 1121 1125 1088 1091 1059 1108 1086 1112 1159 1128 1135 1087 1128 1089 1099 1112 1168 1102 1184 1112 1142 1096 1133 1045 1098 1135 1048 1071 1123 1170 1088 1113 1065 1105 1121 1139 1081 1172 1079 1065 1123 1072 1147 1049 1124 1153 1149 1105 1099 1157 1136 1121 1163 1122 1072 1162 1136 1254 1179 1211 1163 1129 1173 1209 1108 1145 1185 1132 1195 1100 1106 1302 1237 1176 1195 1147 1181 1225 1235 1275 1237 1262 1279 1314 1258 1226 1263 1220 1309 1225 1208 1309 1194 1214 1287 1156 1196 1240 1255 1256 1162 1230 1167 1171 1238 1134 1185 1200 1229 1231 1179 1157 1145 1195 1211 1187 1180 1243 1228 1231 1248 1254 1250 1213 1237 1220 1240 1246 1258 1279 1251 1286 1277 1312 1310 1376 1283 1375 1354 1426 1382 1507 1468 1570 1533 1525 1618 1710 1659 1638 1704 1714 1800 1790 1818 1822 1881 1872 1859 1983 1928 2015 1958 2102 2013 2059 2005 1978 1977 2057 2052 2003 1921 1969 1886 1842 1831 1863 1800 1745 1780 1731 1776 1708 1763 1575 1666 1579 1645 1625 1572 1566 1627 1673 1634 1609 1585 1653 1573 1582 1541 1527 1478 1478 1468 1430 1500 1438 1405 1426 1383 1361 1412 1333 1351 1362 1344 1371 1279 1284 1316 1320 1264 1337 1261 1311 1261 1317 1354 1278 1334 1266 1289 1235 1277 1260 1245 1216 1205 1149 1221 1261 1192 1195 1233 1204 1222 1224 1211 1174 1205 1190 1223 1210 1153 1196 1190 1145 1188 1173 1193 1215 1177 1184 1193 1169 1187 1164 1161 1181 1121 1119 1142 1124 1311 1133 1162 1181 1198 1161 1136 1139 1087 1124 1084 1110 1160 1147 1135 1160 1114 1140 1112 1085 1167 1149 1133 1169 1117 1133 1090 1075 1150 1085 1124 1051 1089 1141 1086 1097 1078 1099 1164 1118 1142 1103 1113 1088 1079 1128 1090 1151 1091 1085 1113 1157 1098 1091 1123 1053 1077 1051 1076 1071 1094 1077 1125 971 1168 1191 1138 1065 1105 1066 1129 1166 1150 1176 1139 1127 1109 1108 1037 1064 1117 1182 1124 1131 1159 1113 1158 1136 1137 1156 1059 1139 1186 1081 1163 1166 1130 1141 1204 1167 1198 1162 1138 1177 1158 1204 1243 1207 1238 1189 1176 1222 1208 1213 1233 1203 1203 1182 1200 1196 1264 1168 1251 1202 1221 1294 1210 1164 1184 1184 1262 1172 1180 1174 1224 1178 1189 1145 1241 1154 1124 1115 1133 1186 1129 1162 1163 1148 1196 1195 1154 1208 1126 1169 1117 1114 1070 1103 1140 1123 1185 1105 1190 1080 1110 1111 1114 1095 1085 1105 1152 1126 1145 1095 1174 1130 1084 1105 1113 1135 1250 1139 1146 1108 1125 1177 1137 1056 1165 1098 1153 1119 1147 1098 1026 1189 1127 1124 1159 1140 1128 1133 1103 1110 1115 1176 1107 1135 1097 1135 1095 1152 1087 1088 1096 1120 1122 1169 1088 1137 1163 1180 1091 1131 1084 1162 1168 1106 1181 1144 1103 1085 1101 1092 1156 1107 1108 1114 1095 1191 1139 1140 1080 1163 1111 1118 1135 1145 1093 1122 1153 1142 1147 1214 1146 1155 1134 1093 1086 1110 1127 1138 1173 1126 1144 1190 1157 1113 1105 1150 1027 1060 1080 1116 1091 1141 1035 1079 1156 1086 1082 1101 1090 1077 1141 1092 1120 1072 1124 1033 1064 1126 1077 1079 1087 1089 1037 1014 1087 1089 1096 1088 1107 1057 1082 1035 1011 1034 1050 1053 1169 1048 1138 1085 1067 1054 1059 1063 1136 1100 1116 1060 1086 1067 1101 1000 1028 1043 1129 1097 1058 1095 1086 1040 1078 1042 1030 1072 1050 1029 1065 1098 1068 1045 1100 1049 1117 1056 1087 1058 1033 1058 1020 1061 1023 1099 1087 1050 1056 1098 1082 1081 1066 1101 1082 1063 1074 1110 1077 1053 1071 1120 1023 1077 1018 1076 1045 1120 1089 1070 1055 1039 1048 1092 1031 1064 1080 1061 1016 1042 1048 1057 1089 1065 1042 1080 1082 1081 1045 1082 1015 1069 1119 1050 1053 1019 1023 1040 1044 1103 1052 1057 1065 1149 1095 1066 1033 1102 1110 1034 1012 1038 1022 986 1060 1039 1060 1050 1089 1027 1051 1100 1073 1075 1029 1045 1097 1044 1033 1093 1064 1060 1082 1097 1048 1052 1083 1053 1092 1039 1042 1081 1003 1165 1014 1063 1055 1086 1046 1106 1081 999 1065 1026 1149 1035 1086 1020 992 1078 1025 1076 1034 1075 1028 1060 1143 1101 1036 1000 1016 1080 1097 1017 1020 1053 1074 1070 1022 1090 1072 1012 1071 1032 1069 1046 1053 1053 1029 1090 1025 1041 994 1003 1062 1030 1058 1056 1012 1057 1053 1063 1029 1067 1056 1001 999 1038 1076 1060 1121 1061 1065 1084 1042 1092 1047 1003 1073 1109 1098 1004 1062 1050 1031 1084 1024 1103 1119 1106 993 1036 1049 1125 1033 1067 1037 1100 1133 1102 1074 1111 1056 1090 1057 1097 1170 1027 1042 1094 1054 1033 1023 1028 992 1028 1067 1021 1073 1069 1065 1021 1064 1096 1076 1087 1016 1081 1052 1079 1089 1064 1077 1033 1041 1001 1073 1046 1072 1049 1084 1012 1030 1048 1046 1046 1050 1094 1017 1054 1050 1034 1052 1074 1043 1105 1019 1041 1019 1098 1047 1051 1117 1034 1088 1026 1100 1013 999 1054 1041 1043 1133 1014 1160 1055 1070 1066 1050 1024 1056 1090 1053 1031 1015 1126 1024 1033 1082 987 1044 1103 1048 1050 1073 1050 1063 1037 1062 1028 1036 1043 1082 1070 1115 1077 1022 1076 1055 1032 1093 1065 1005 1118 1044 1144 1060 1070 1096 1187 1030 1079 1099 1108 1142 1142 1133 1115 1118 1156 1119 1116 1170 1106 1191 1045 1151 1104 1117 1067 1031 1059 1105 1123 1086 1035 1098 1158 1046 1080 1077 1047 1052 1091 1133 1056 1090 1091 1038 1043 1070 1043 1092 1118 1044 1142 1107 1060 1063 1068 1150 1060 1076 1077 1070 1134 1091 1096 1119 1048 1046 1069 1080 1114 1089 1162 1101 1114 1136 1191 1184 1178 1147 1114 1134 1099 1176 1173 1186 1149 1179 1174 1196 1223 1193 1187 1221 1239 1118 1179 1200 1241 1209 1250 1162 1180 1128 1193 1131 1196 1182 1183 1174 1131 1108 1103 1154 1167 1110 1191 1116 1187 1128 1088 1129 1141 1126 1181 1148 1107 1117 1146 1116 1144 1125 1156 1117 1139 1096 1090 1092 1078 1095 1084 1078 1108 1094 1149 1090 1150 1048 1128 1088 1101 1093 1143 1112 1104 1137 1071 1084 1039 1115 1080 1120 1053 1114 1132 1116 1139 1103 1108 1109 1102 1121 1094 1107 1116 1146 1072 1102 1099 1096 1141 1109 1058 1144 1081 1169 1142 1080 1088 1060 1084 1077 1066 1066 1138 1048 1116 1106 1063 1057 1097 1085 1076 1112 1096 1099 1083 1093 1101 1070 1058 1106 1116 1077 1056 1071 1073 1103 986 1028 1069 1053 1011 1073 1023 1029 1119 1113 1103 1042 1095 1064 1015 1069 1055 1095 1110 1089 1040 1042 1021 1072 1067 1090 1102 1064 1080 1015 1096 1062 1056 994 1089 1009 1059 1078 1037 1087 1110 1018 1083 1071 1047 1068 1065 1085 1087 1021 1090 1051 1039 1113 1063 1063 1118 1077 1082 1092 1089 1045 1006 1086 1021 1093 1050 1070 1050 1128 1062 1102 1049 1073 1101 1068 1056 1070 1083 1118 1065 1007 1064 1112 1069 1056 1112 1064 1080 1096 1093 1063 1058 1095 1090 1160 1064 1088 1051 1070 1094 1069 1161 1078 1072 1178 1176 1191 1175 1182 1139 1191 1144 1095 1056 1106 1227 1214 1194 1271 1216 1260 1279 1257 1181 1348 1259 1308 1381 1333 1274 1312 1351 1349 1358 1336 1345 1400 1337 1281 1375 1304 1330 1331 1262 1292 1334 1310 1315 1337 1355 1244 1293 1311 1208 1219 1222 1183 1240 1176 1184 1217 1164 1187 1143 1224 1275 1164 1170 1178 1151 1137 1156 1157 1106 1133 1123 1125 1100 1110 1120 1098 1178 1096 1099 1180 1124 1053 1060 1080 1120 1136 1095 1099 1102 1111 1104 1151 1055 1105 1137 1120 1131 1055 1002 1158 1119 1125 1122 1136 1049 1072 1073 1074 1127 1105 1072 1087 1089 1051 1128 1125 1064 1056 1051 1072 1075 1118 1073 1111 1041 1106 1096 1114 1110 1126 1100 1082 1055 1149 1099 1056 1065 1136 1090 1076 1088 1065 1135 1086 1120 1063 1123 1057 1079 1075 1070 1109 1097 1033 1008 1042 1118 1061 1043 1114 1121 1051 1081 1102 1087 1118 1067 1114 1097 1051 1040 1048 1089 1121 1165 1090 1119 1096 1144 1079 1105 1096 1102 1101 1112 1101 1089 1106 1132 1128 1086 1124 1143 1153 1087 1122 1069 1092 1077 1070 1105 1145 1090 1085 1101 1088 1121 1074 1130 1110 1087 1106 1114 1109 1116 1135 1116 1122 1111 1136 1160 1109 1152 1153 1126 1094 1089 1200 1241 1178 1220 1056 1118 1166 1187 1111 1102 1139 1071 1190 1114 1123 1109 1173 1153 1122 1121 1172 1154 1116 1091 1132 1118 1100 1136 1060 1065 1099 1156 1120 1123 1067 1062 1104 1062 1105 1068 1043 1068 1063 1064 1079 1088 997 1075 1030 1107 1077 1082 1032 1097 1069 1080 1026 1097 1103 998 1019 1074 1078 1066 1047 1092 1081 1065 1073 1024 1062 1038 1096 1044 1055 1046 1059 1085 1049 1066 1080 1053 1055 1082 998 1048 1072 1028 1089 1061 1083 1069 1052 1092 1046 1018 1100 1053 1079 1037 1095 1075 998 1062 1021 1083 1052 1017 1096 1110 1104 1082 1064 1069 1055 1093 1074 1105 1056 1090 1116 1051 1086 1053 1136 1064 1070 1135 1094 1063 1070 1082 1045 1128 1123 1119 1114 1082 1086 1025 1087 1128 1024 1098 1121 1165 1113 1104 1056 1027 1091 1056 1095 1094 1126 1092 1077 1158 1109 1044 1058 1134 1101 1050 1081 1089 1044 1061 1086 1100 1071 1008 1046 1169 1026 1054 1090 1192 1064 1026 1096 1055 1036 1030 1027 1034 1032 1043 1097 1066 1033 1017 1043 1083 1086 1027 981 1028 993 1012 1060 1046 1015 1096 1048 1007 1038 1065 1078 990 1037 1081 1031 1090 1076 1125 1060 1055 1063 1070 1051 1050 1032 1055 1028 1088 1030 1080 1073 1069 1077 1007 1041 1066 1011 988 1035 1037 1077 1045 1012 1060 1088 1081 992 1046 1112 1022 1076 1056 990 1017 1070 1026 1019 1025 1066 1054 1052 1082 998 1010 1038 1060 1091 1033 1062 1131 1075 1014 1096 1032 1039 1028 1049 1059 1011 1036 1108 1070 1115 1056 1080 1063 1042 1026 1065 1121 1042 1056 1013 1087 1028 1097 1034 1124 1033 1057 1082 1048 1035 1031 1059 1069 1043 1034 1070 1031 999 1080 1027 1058 1029 1069 1053 1061 1067 1055 1092 1030 1055 1088 1032 1019 981 1098 1055 1076 1044 1098 1054 1048 1103 1017 1056 1069 1085 1111 1034 1072 1013 1061 1006 1047 1085 1049 1047 1120 1041 1058 1060 1036 1059 1107 1064 1052 1025 1058 1051 1049 1095 1023 1095 1102 1064 1063 1048 1084 1030 1056 1078 1043 1086 1072 1038 1069 1058 1097 1075 1027 1087 1052 1039 1068 1058 1002 1005 1003 1020 1051 1058 1057 1043 1090 1054 1062 1075 1045 1026 1099 1001 1060 1126 1036 1072 1047 1081 1056 1017 1075 1057 1082 994 1053 1063 1039 1056 1095 1043 981 995 1065 1048 1041 1095 1009 1075 1051 1031 1121 1108 1044 1094 1062 1042 1094 1075 1074 1053 1011 1018 1066 994 1048 987 1039 1085 1067 1062 1040 1041 1071 1097 1042 1040 1020 1033 1048 1089 1154 1072 1049 1074 980 1024 1028 1061 1072 1100 1039 1031 1126 1112 1074 1135 1023 1102 1114 1035 1069 1150 1030 1132 1068 1039 1103 1129 1057 1104 1108 1086 1103 1082 1065 1154 1091 1049 1038 1103 1110 1066 1116 1110 1030 1118 1077 1064 1082 1092 1126 1085 1101 1042 1069 1061 1072 1087 1144 1096 1115 1050 1084 1065 1082 1116 1098 1082 1124 1053 1058 1105 1111 1118 1084 1107 1126 1079 1005 1126 1043 1091 1047 1147 1099 1108 1061 1075 1025 1021 1094 1068 1073 1020 1079 1054 1101 1008 1121 1040 1084 1055 984 1076 1083 1043 1121 1069 1065 1054 996 1019 1108 1010 1011 1073 1044 1110 1070 1054 1061 1044 1094 1121 1076 1055 1033 1113 1052 1119 1126 1094 1076 1061 1082 1011 1024 1052 1053 1037 1009 1034 1098 1039 1031 1078 1050 1053 1041 1051 1089 1066 1027 1083 1062 1054 1083 1033 1051 1048 1099 1061 1043 1033 1059 1023 1054 1086 1034 1118 1066 1064 1113 1056 1095 1092 1048 1095 1054 1101 1074 1035 1065 1066 1077 1045 1087 1070 1067 1110 1020 1059 1148 1036 1105 1069 1026 1050 1043 1032 1051 1086 1106 1067 1088 1075 1149 1066 1046 1129 1047 1066 1112 1168 1058 1058 1100 993 1081 1089 1028 1012 1059 1129 1043 1045 1019 1088 1078 1075 1051 1039 1083 1011 1077 1037 1132 1066 1038 1093 1067 999 1093 1004 1082 1042 1077 1049 1051 1106 1022 974 1094 1072 1077 1059 1085 1046 1075 1103 1071 1095 1089 1118 1065 1055 1132 1061 1101 1042 1032 999 1095 1067 1032 1065 1072 1061 1060 1142 1031 1082 1074 1063 1052 1070 1092 1069 978 1089 1059 1078 1159 1108 1081 1048 983 1095 1080 1139 1060 1140 1080 1040 1064 1075 1102 1090 1055 1062 1078 1125 1041 1145 1132 1036 1109 1116 1029 1110 1123 1122 1164 1183 1116 1068 1098 1121 1154 1077 1081 1127 1157 1143 1079 1169 1073 1208 1164 1135 1162 1233 1215 1231 1134 1159 1172 1184 1209 1272 1223 1223 1172 1188 1233 1237 1220 1182 1164 1216 1191 1202 1207 1177 1211 1228 1150 1163 1198 1177 1189 1146 1208 1184 1080 1154 1162 1151 1153 1153 1096 1126 1096 1092 1236 1173 1140 1121 1140 1105 1130 1108 1074 1147 1192 1046 1073 1154 1118 1123 1071 1117 1100 1117 1107 1081 1134 1166 1128 1097 1158 1144 1110 1089 1114 1078 1127 1066 1071 1104 1089 1078 1086 1038 1063 1191 1131 1067 1078 1012 1039 1050 1030 1075 1135 1053 1051 1059 1120 1104 1125 1121 1072 1157 1081 1158 1013 1074 1092 1101 1095 1081 1068 1090 1119 1028 1050 1059 1024 1054 1104 1083 1041 1082 1031 1114 1104 1095 1054 1110 1011 1061 1036 1010 1076 1042 1071 1102 1024 1123 1045 1092 1100 1050 1073 1069 1088 1076 1134 1062 1024 1103 1041 1038 1133 1131 1097 1048 1107 1063 1071 1049 1096 1112 1014 1071 1052 1086 1081 1077 1078 1083 1087 1084 1090 1046 1097 1087 1088 1094 1063 1059 1087 1050 1111 1070 1084 1078 1095 1106 1082 1094 1155 1079 1131 1095 1113 1077 1113 1108 1102 1137 1108 1093 1150 1107 1085 1121 1107 1099 1126 1079 1083 992 1092 1042 1090 1079 1051 1045 1133 1082 1069 1108 1102 1067 1055 1085 1055 1076 1024 1076 1050 1076 1076 1122 1098 1083 1091 1096 1096 1104 1153 1115 1095 1090 1105 1071 1092 1118 1085 1130 1080 1071 1050 1087 1077 1058 1109 1067 1086 1046 1110 1057 1092 1120 1052 1079 1109 999 1076 1070 1126 1057 1032 1083 1023 1080 1114 1070 986 1101 1063 1103 1149 1060 1018 1084 1017 1078 1120 1049 1044 1066 1110 1074 1026 1082 1088 1066 1101 1033 1053 1103 1073 1101 1086 1052 1088 1044 1059 1090 1078 1045 1069 1109 1064 1090 1098 1056 1073 1097 1055 1077 1064 1057 1076 1112 1008 1073 1093 1151 1036 1140 1094 1109 1079 1128 1053 1096 1087 1050 1041 1060 1122 1089 1063 1052 1108 1089 1049 1107 1002 1031 1000 1088 1085 1081 1060 1020 1121 1078 1043 1050 1080 992 1102 1025 1122 1130 1053 1089 1148 1035 1154 1073 1040 1012 1044 1068 1004 1049 1135 1057 1075 1095 1041 1039 1107 1067 1058 1049 1116 1029 1029 1113 1060 1094 1085 1114 1086 1052 1093 996 1017 1071 1058 1043 1088 1085 1063 1051 1108 1124 1094 1059 1050 1083 1077 1091 1045 1095 1105 1113 1041 1037 1061 1099 1115 1108 1148 1040 1103 1048 1100 1138 1043 1116 1114 1051 1043 1057 1137 1066 1138 1109 1044 1091 1096 1087 1043 1101 1123 1027 1070 1157 1067 1103 1126 1072 1110 1090 1035 1094 1085 1108 1080 1148 1022 1046 1066 1117 1041 1085 1074 1094 1141 1155 1083 1094 1103 1054 1068 1039 1129 1081 1075 1139 1083 1074 1147 1130 1089 1110 1072 1059 1024 1095 1086 1043 1082 1163 1073 1085 1104 1060 1093 1119 1032 1098 1056 1076 1078 1090 1036 1048 1123 1053 1034 1080 1082 1062 1064 1053 1090 1064 1005 1071 1061 1044 1106 1171 1113 1067 1079 1095 1113 1077 1107 1085 1074 1121 1046 1072 1073 1151 1132 1090 1127 1054 1011 1059 1108 1113 1051 1120 1080 1086 1066 1095 1098 1043 1078 1070 1100 1021 1162 1107 1092 1086 1066 1059 997 1095 1080 1128 1113 1074 1119 1040 1081 1119 1078 1134 1070 1113 1090 1080 1070 1102 1087 1100 1069 1067 1062 1106 1092 1099 1124 1110 1103 1072 1088 1066 1142 1101 1164 1065 1067 1094 1105 1053 1181 1122 1116 1091 1146 1085 1114 1100 1092 1023 1048 1138 1096 1127 1140 1121 1125 1085 1101 1123 1128 1137 1154 1165 1086 1122 1100 1135 1069 1089 1088 1132 1116 1144 1186 1102 1151 1104 1172 1108 1124 1116 1103 1121 1098 1143 1158 1117 1163 1141 1157 1215 1150 1136 1146 1118 1192 1116 1092 1170 1106 1165 1169 1189 1095 1164 1162 1148 1162 1110 1185 1171 1187 1118 1190 1105 1201 1183 1140 1165 1132 1168 1107 1160 1181 1110 1165 1104 1165 1142 1188 1140 1109 1163 1142 1115 1142 1129 1135 1164 1166 1156 1167 1131 1164 1144 1132 1155 1107 1167 1098 1165 1150 1078 1178 1124 1178 1130 1164 1168 1145 1149 1140 1080 1115 1152 1109 1131 1169 1076 1133 1141 1130 1159 1156 1208 1151 1135 1195 1103 1098 1127 1145 1095 1100 1139 1075 1091 1165 1117 1145 1062 1057 1148 1088 1057 1098 1092 1042 1117 1156 1107 1149 1146 1117 1118 1127 1141 1167 1158 1111 1086 1082 1120 1076 1170 1093 1079 1145 1095 1081 1108 1188 1108 1186 1149 1120 1120 1116 1095 1149 1205 1135 1130 1089 1120 1150 1188 1099 1105 1079 1121 1147 1145 1158 1176 1115 1106 1146 1095 1072 1116 1151 1127 1166 1142 1154 1129 1144 1157 1171 1203 1186 1138 1125 1127 1108 1140 1131 1099 1080 1119 1080 1125 1138 1146 1205 1163 1169 1134 1139 1137 1156 1217 1107 1161 1226 1148 1130 1147 1069 1136 1174 1156 1156 1170 1199 1065 1142 1153 1106 1233 1142 1170 1138 1125 1076 1158 1111 1060 1134 1137 1175 1100 1148 1146 1141 1165 1077 1134 1128 1183 1155 1168 1067 1100 1153 1153 1119 1177 1101 1166 1133 1107 1167 1191 1161 1192 1149 1156 1168 1106 1145 1189 1118 1166 1202 1148 1237 1236 1172 1249 1250 1231 1260 1216 1250 1192 1237 1189 1238 1241 1293 1229 1201 1312 1201 1262 1270 1258 1322 1277 1406 1327 1323 1300 1315 1343 1293 1244 1392 1302 1326 1330 1292 1291 1335 1249 1368 1326 1387 1357 1359 1454 1317 1377 1331 1348 1334 1280 1307 1313 1359 1326 1328 1300 1339 1335 1256 1279 1308 1238 1398 1301 1252 1219 1285 1349 1245 1267 1270 1222 1211 1237 1204 1203 1218 1219 1226 1230 1281 1184 1210 1182 1227 1230 1199 1111 1153 1150 1225 1219 1219 1214 1167 1183 1170 1128 1120 1131 1129 1135 1149 1190 1167 1185 1132 1169 1168 1134 1195 1172 1220 1083 1118 1199 1143 1191 1153 1118 1154 1151 1118 1207 1132 1215 1195 1153 1151 1158 1177 1104 1199 1168 1136 1192 1166 1184 1107 1142 1122 1122 1194 1112 1116 1133 1151 1168 1137 1140 1148 1113 1231 1147 1223 1108 1158 1121 1135 1129 1110 1098 1112 1129 1145 1150 1085 1156 1145 1119 1108 1149 1163 1144 1146 1163 1105 1147 1104 1145 1153 1106 1148 1081 1161 1109 1112 1166 1107 1096 1095 1172 1215 1156 1131 1166 1205 1192 1151 1067 1138 1153 1096 1170 1134 1198 1069 1138 1156 1134 1168 1149 1118 1119 1203 1184 1149 1144 1151 1160 1164 1133 1143 1172 1121 1234 1209 1170 1159 1153 1206 1242 1167 1191 1181 1149 1093 1209 1081 1171 1183 1169 1149 1185 1186 1179 1145 1203 1200 1159 1172 1149 1142 1059 1231 1187 1126 1170 1195 1142 1170 1145 1172 1234 1190 1158 1171 1111 1137 1182 1119 1112 1203 1132 1134 1161 1128 1146 1167 1169 1201 1100 1185 1146 1112 1261 1183 1177 1172 1188 1232 1156 1193 1133 1229 1166 1159 1141 1212 1095 1186 1110 1105 1117 1130 1147 1154 1091 1152 1091 1155 1072 1168 1044 1092 1160 1140 1175 1138 1185 1119 1189 1117 1086 1140 1078 1101 1147 1185 1145 1105 1123 1127 1118 1108 1091 1148 1103 1098 1142 1082 1111 1091 1109 1185 1090 1064 1141 1135 1064 1198 1072 1046 1157 1183 1085 1067 1164 1053 1118 1144 1111 1097 1116 1108 1108 1147 1171 1089 1142 1183 1092 1159 1058 1263 1178 1175 1169 1127 1155 1147 1065 1099 1116 1163 1130 1127 1166 1143 1154 1133 1143 1087 1144 1051 1191 1091 1153 1152 1126 1150 1124 1079 1100 1143 1129 1167 1195 1101 1154 1080 1085 1124 1155 1128 1110 1189 1207 1164 1175 1068 1072 1093 1147 1140 1111 1114 1140 1093 1103 1080 1112 1096 1168 1101 1113 1141 1098 1139 1082 1115 1075 1099 1089 1159 1119 1151 1147 1135 1141 1207 1133 1118 1110 1060 1186 1153 1154 1121 1103 1076 1138 1141 1136 1130 1115 1173 1157 1102 1122 1122 1104 1111 1120 1127 1142 1063 1059 1078 1184 1125 1082 1146 1156 1126 1166 1137 1145 1149 1129 1104 1154 1123 1115 1143 1125 1131 1080 1137 1120 1091 1118 1149 1121 1149 1103 1189 1155 1096 1162 1136 1105 1040 1061 1107 1167 1156 1156 1104 1094 1102 1137 1127 1127 1105 1150 1131 1082 1117 1053 1115 1154 1031 1093 1134 1153 1114 1196 1068 1115 1119 1127 1158 1104 1114 1129 1110 1196 1142 1141 1132 1120 1156 1154 1087 1163 1059 1165 1084 1137 1140 1136 1112 1118 1146 1062 1118 1140 1155 1084 1078 1138 1115 1113 1122 1158 1124 1056 1193 1159 1152 1090 1175 1078 1131 1115 1112 1145 1128 1049 1111 1151 1057 1144 1093 1108 1045 1148 1128 1161 1138 1151 1143 1114 1126 1190 1142 1174 1137 1127 1131 1144 1203 1146 1150 1141 1108 1193 1088 1129 1142 1142 1155 1162 1200 1083 1153 1156 1145 1157 1142 1098 1158 1117 1129 1157 1107 1143 1184 1139 1158 1143 1149 1142 1123 1129 1186 1110 1064 1144 1122 1087 1123 1166 1162 1142 1187 1220 1137 1229 1194 1126 1204 1131 1135 1159 1182 1178 1141 1125 1124 1142 1096 1115 1122 1134 1193 1124 1145 1156 1167 1136 1209 1122 1163 1190 1178 1125 1163 1130 1115 1221 1202 1145 1106 1210 1162 1109 1210 1193 1182 1142 1227 1179 1151 1091 1114 1095 1126 1118 1166 1164 1086 1128 1136 1059 1163 1159 1128 1151 1123 1111 1144 1096 1208 1133 1167 1214 1157 1159 1156 1138 1106 1147 1120 1098 1112 1171 1171 1157 1104 1219 1137 1141 1117 1090 1149 1228 1083 1159 1149 1135 1177 1114 1172 1119 1197 1105 1123 1118 1120 1115 1133 1205 1228 1154 1188 1171 1161 1110 1119 1194 1181 1089 1084 1165 1174 1103 1164 1193 1172 1091 1086 1165 1181 1194 1176 1142 1183 1186 1153 1186 1103 1130 1152 1205 1175 1169 1179 1209 1190 1150 1172 1156 1196 1142 1206 1106 1150 1218 1148 1174 1089 1156 1160 1113 1184 1225 1172 1108 1224 1128 1134 1106 1106 1187 1158 1142 1157 1105 1134 1168 1193 1230 1144 1125 1115 1156 1126 1197 1147 1099 1169 1171 1147 1114 1123 1154 1127 1135 1105 1240 1133 1119 1061 1152 1126 1159 1168 1133 1188 1131 1128 1146 1108 1112 1107 1112 1152 1167 1202 1205 1158 1147 1186 1153 1086 1172 1188 1189 1138 1085 1151 1184 1136 1180 1173 1209 1172 1180 1172 1159 1135 1162 1155 1159 1244 1156 1224 1183 1141 1188 1121 1189 1170 1167 1203 1161 1128 1133 1182 1118 1189 1168 1165 1196 1219 1134 1156 1177 1138 1143 1170 1159 1119 1211 1213 1180 1117 1227 1160 1194 1190 1232 1264 1278 1177 1203 1276 1241 1185 1192 1187 1168 1138 1185 1235 1253 1246 1289 1215 1236 1230 1197 1254 1273 1336 1284 1209 1289 1267 1286 1293 1298 1277 1323 1227 1260 1316 1271 1265 1277 1392 1300 1306 1267 1327 1331 1328 1337 1347 1281 1275 1309 1226 1248 1315 1239 1281 1260 1250 1278 1347 1223 1286 1315 1268 1265 1258 1288 1212 1216 1206 1279 1322 1252 1243 1164 1197 1231 1244 1179 1213 1179 1228 1207 1164 1267 1208 1188 1187 1199 1148 1196 1206 1220 1199 1213 1122 1119 1204 1169 1197 1189 1179 1171 1152 1148 1127 1176 1178 1218 1142 1169 1187 1136 1200 1188 1109 1209 1221 1224 1192 1178 1144 1134 1139 1123 1188 1174 1132 1095 1220 1140 1155 1126 1177 1169 1106 1190 1235 1178 1131 1252 1165 1216 1181 1138 1121 1196 1190 1156 1125 1124 1147 1189 1149 1181 1170 1222 1154 1190 1215 1201 1202 1198 1157 1131 1166 1116 1141 1200 1197 1143 1230 1162 1132 1199 1168 1181 1179 1149 1216 1155 1202 1183 1206 1234 1206 1153 1173 1163 1143 1191 1183 1178 1166 1086 1118 1179 1191 1182 1205 1201 1152 1193 1116 1159 1218 1176 1181 1200 1189 1210 1224 1173 1110 1195 1233 1225 1190 1173 1179 1184 1203 1176 1177 1137 1191 1168 1195 1154 1184 1250 1175 1192 1110 1202 1199 1176 1144 1153 1244 1200 1158 1122 1098 1170 1212 1233 1206 1141 1232 1141 1104 1205 1176 1237 1160 1226 1118 1212 1142 1171 1167 1204 1213 1159 1191 1137 1237 1192 1137 1193 1192 1185 1228 1131 1152 1164 1235 1122 1171 1106 1157 1186 1146 1193 1254 1178 1136 1230 1153 1146 1164 1147 1164 1142 1139 1231 1152 1101 1219 1182 1180 1198 1176 1209 1159 1122 1110 1117 1184 1067 1125 1171 1117 1239 1166 1129 1143 1264 1185 1160 1178 1130 1150 1127 1158 1203 1131 1144 1147 1156 1154 1142 1169 1106 1117 1187 1107 1166 1198 1175 1134 1164 1246 1171 1144 1158 1173 1125 1158 1159 1164 1157 1160 1158 1121 1171 1096 1184 1140 1121 1186 1151 1177 1123 1137 1161 1135 1200 1214 1103 1190 1192 1224 1138 1124 1147 1163 1177 1220 1157 1217 1168 1195 1118 1177 1207 1171 1201 1171 1117 1166 1169 1146 1209 1137 1144 1181 1203 1210 1146 1159 1145 1185 1116 1141 1159 1172 1136 1099 1214 1187 1112 1177 1154 1152 1118 1156 1204 1217 1127 1170 1157 1207 1108 1135 1156 1174 1154 1204 1167 1191 1171 1153 1173 1258 1154 1123 1181 1142 1134 1186 1130 1137 1145 1206 1194 1175 1207 1187 1237 1200 1149 1155 1141 1197 1183 1109 1206 1109 1176 1136 1227 1224 1148 1186 1152 1182 1249 1176 1221 1149 1144 1150 1146 1099 1150 1123 1143 1160 1105 1200 1177 1222 1176 1182 1153 1194 1148 1160 1186 1148 1181 1129 1209 1184 1076 1194 1112 1150 1143 1188 1197 1180 1115 1253 1114 1104 1072 1127 1076 1174 1157 1144 1124 1145 1115 1131 1158 1164 1215 1095 1153 1130 1210 1140 1170 1144 1086 1188 1160 1158 1213 1164 1190 1172 1206 1174 1175 1169 1232 1104 1108 1142 1163 1159 1138 1138 1088 1186 1257 1163 1163 1142 1190 1168 1115 1162 1150 1167 1134 1184 1120 1119 1118 1167 1193 1141 1214 1158 1098 1074 1116 1176 1176 1101 1207 1071 1183 1137 1099 1191 1198 1135 1197 1139 1187 1148 1193 1145 1169 1212 1169 1174 1201 1171 1222 1186 1243 1136 1227 1243 1191 1129 1072 1119 1134 1107 1194 1156 1225 1128 1233 1133 1167 1228 1198 1197 1193 1125 1217 1186 1130 1216 1126 1185 1160 1167 1135 1199 1157 1128 1236 1165 1172 1205 1131 1149 1208 1175 1123 1194 1170 1144 1202 1268 1208 1196 1214</counts>
			</dataPoints>
		</scan>
	</xrdMeasurement>
</xrdMeasurements>
