<?xml version="1.0"?>
<xrdMeasurements xmlns="http://www.xrdml.com/XRDMeasurement/2.3" xmlns:xsi="http://www.w3.org/2001/XMLSchema-instance" xsi:schemaLocation="http://www.xrdml.com/XRDMeasurement/2.3 http://www.xrdml.com/XRDMeasurement/2.3/XRDMeasurement.xsd" status="Completed" recordIdentifier="{EB0D2CC9-0CB3-4C53-B812-D328D3B7E570}">
	<comment>
		<entry/>
	</comment>
	<sample type="To be analyzed">
		<id>GPSS_Li2Zn0p5Mg0p5Cl4_111725_691b7e20f3837ac4a0a9937b</id>
		<name></name>
		<preparedBy></preparedBy>
	</sample>
	<xrdMeasurement measurementType="Scan" status="Completed" sampleMode="Reflection">
		<usedWavelength intended="K-Alpha 1">
			<kAlpha1 unit="Angstrom">1.5405980</kAlpha1>
			<kAlpha2 unit="Angstrom">1.5444260</kAlpha2>
			<kBeta unit="Angstrom">1.3922500</kBeta>
			<ratioKAlpha2KAlpha1>0.5000</ratioKAlpha2KAlpha1>
		</usedWavelength>
		<incidentBeamPath>
			<radius unit="mm">145.00</radius>
			<xRayTube id="1010048" name="Empyrean Cu LFF HR (9430 033 7310x)">
				<tension unit="kV">40.0</tension>
				<current unit="mA">15.0</current>
				<anodeMaterial>Cu</anodeMaterial>
				<focus type="Line">
					<length unit="mm">12.0</length>
					<width unit="mm">0.4</width>
					<takeOffAngle unit="deg">6.0</takeOffAngle>
				</focus>
			</xRayTube>
			<sollerSlit id="21010002" name="Soller slits 0.04 rad.">
				<opening unit="rad">0.0400</opening>
			</sollerSlit>
			<mask id="22031000" name="Fixed mask 13 mm">
				<width unit="mm">9.00</width>
			</mask>
			<divergenceSlit id="22120001" name="Divergence slit 1°" xsi:type="fixedDivergenceSlitType">
				<distanceToSample unit="mm">50.00</distanceToSample>
				<height unit="mm">1.52</height>
			</divergenceSlit>
		</incidentBeamPath>
		<sampleMovement xsi:type="spinningSampleMovementType">
			<spinnerRevolutionTime unit="seconds">1.0</spinnerRevolutionTime>
		</sampleMovement>
		<diffractedBeamPath>
			<radius unit="mm">145.00</radius>
			<antiScatterSlit id="22090040" name="AS slit 9 mm (PIXcel)" xsi:type="fixedAntiScatterSlitType">
				<height unit="mm">9.00</height>
			</antiScatterSlit>
			<sollerSlit id="21020003" name="Large Soller slits 0.04 rad.">
				<opening unit="rad">0.0400</opening>
			</sollerSlit>
			<filter id="20030001" name="Large beta-filter Nickel">
				<material>Ni</material>
				<thickness unit="mm">0.020</thickness>
			</filter>
			<detector id="7010019" name="PIXcel1D-Medipix3 detector" xsi:type="rtmsDetectorType">
				<phd unit="keV">
					<lowerLevel>4.02</lowerLevel>
					<upperLevel>11.27</upperLevel>
				</phd>
				<mode>Scanning</mode>
				<activeLength unit="deg">5.542</activeLength>
			</detector>
		</diffractedBeamPath>
		<scan appendNumber="0" mode="Continuous" scanAxis="Gonio" status="Completed">
			<header>
				<startTimeStamp>2025-11-20T11:51:28-08:00</startTimeStamp>
				<endTimeStamp>2025-11-20T11:59:35-08:00</endTimeStamp>
				<author>
					<name>AutomatedUser</name>
				</author>
				<source>
					<applicationSoftware version="1.7b (136)">PANalytical Aeris Instrument Suite</applicationSoftware>
					<instrumentControlSoftware version="3.2.00000000 20240306">AERIS</instrumentControlSoftware>
					<instrumentID>950485</instrumentID>
				</source>
			</header>
			<dataPoints>
				<positions axis="2Theta" unit="deg">
					<startPosition>10.00943322</startPosition>
					<endPosition>99.99442286</endPosition>
				</positions>
				<positions axis="Omega" unit="deg">
					<startPosition>5.00471661</startPosition>
					<endPosition>49.99721143</endPosition>
				</positions>
				<commonCountingTime unit="seconds">12.495</commonCountingTime>
				<counts unit="counts">3344 3355 3444 3382 3357 3374 3403 3409 3486 3518 3438 3444 3418 3306 3451 3291 3420 3426 3371 3463 3451 3497 3462 3529 3446 3463 3496 3517 3495 3583 3503 3525 3655 3531 3539 3539 3485 3626 3603 3559 3643 3644 3541 3682 3480 3632 3585 3612 3663 3605 3673 3645 3705 3676 3583 3716 3655 3673 3627 3680 3705 3815 3713 3741 3785 3768 3731 3783 3690 3711 3875 3784 3975 3844 3852 3815 3812 3896 3843 3809 3828 3712 4050 3873 3892 3968 4012 3970 3857 3847 4045 3896 4008 3947 3991 3946 3946 4012 4066 3865 3979 3983 3989 4123 4085 4050 4155 4081 4160 4048 4124 4034 4016 4115 4152 4085 4169 4102 4179 4111 4175 3975 4118 4137 4208 4182 4218 4163 4189 4066 4236 4258 4232 4175 4253 4145 4284 4302 4281 4315 4306 4330 4218 4367 4343 4205 4356 4301 4294 4252 4301 4226 4331 4283 4254 4241 4339 4372 4333 4400 4330 4287 4321 4327 4250 4398 4327 4261 4258 4412 4365 4375 4298 4285 4380 4340 4232 4378 4303 4279 4419 4481 4347 4246 4323 4311 4417 4288 4302 4241 4338 4196 4197 4410 4235 4295 4244 4277 4403 4276 4330 4261 4233 4283 4257 4294 4242 4262 4125 4095 4201 4282 4277 4290 4161 4196 4118 4260 4208 4144 4195 4099 4147 4313 4065 4060 4111 4157 4296 4144 4145 4131 4012 4196 4075 4150 4081 4119 3951 4137 4249 4152 4150 3915 3865 4130 4079 4041 4078 4107 3978 4059 4025 4004 3908 3976 3859 4082 3963 3968 4027 3996 4125 3894 3938 3900 3952 4009 3872 3998 3930 4011 3883 3966 3903 4024 3965 3847 3785 3828 3816 3920 3738 3959 3819 3841 3710 3870 3821 3811 3796 3845 3817 3844 3868 3729 3818 3732 3752 3788 3811 3738 3838 3834 3858 3853 3749 3783 3741 3763 3870 3887 3772 3712 3709 3706 3644 3795 3860 3866 3829 3842 3832 3855 3850 3813 3743 3730 3870 3915 3854 3832 3743 3797 3777 3907 3913 3816 3865 3935 3947 3869 3834 3914 3945 3862 3916 3861 3808 3790 3959 4004 3880 3925 3707 3927 3680 3897 3779 3821 3795 3857 3838 3825 3692 3845 3840 3897 3817 3803 3951 3826 3797 3924 3930 3737 3834 3874 3858 3837 3643 3859 3850 3911 3836 3713 3778 3886 3834 3743 3873 3786 3871 3861 3799 3807 3661 3887 3749 3848 3886 3840 3675 3858 3762 3819 3808 3804 3785 3796 3837 3893 3836 3975 4022 3810 4074 3944 4068 3966 4090 4150 4095 4019 3996 3993 4119 4128 4016 4111 4038 4157 4062 4070 4067 4145 4023 3977 3915 3850 3983 4025 3858 3902 3802 3785 3808 3793 3797 3701 3652 3708 3716 3677 3755 3605 3619 3675 3545 3620 3587 3532 3656 3596 3459 3399 3544 3648 3558 3479 3505 3496 3468 3486 3532 3465 3408 3485 3468 3470 3420 3524 3418 3349 3406 3432 3447 3332 3340 3317 3298 3366 3400 3413 3381 3369 3253 3429 3252 3336 3293 3395 3360 3275 3337 3342 3364 3274 3343 3382 3239 3239 3298 3401 3302 3131 3200 3208 3143 3167 3145 3272 3211 3278 3272 3281 3183 3379 3285 3349 3259 3176 3307 3309 3203 3355 3363 3436 3318 3354 3333 3453 3492 3391 3388 3384 3423 3520 3282 3264 3321 3212 3307 3263 3375 3389 3323 3326 3319 3371 3260 3256 3189 3205 3234 3232 3083 3141 3063 3095 3092 3013 3063 3020 3131 3047 3034 2959 3034 2919 2989 3035 2972 3028 3031 2994 2930 3056 2964 2957 2904 2998 2935 2931 2944 2872 2909 2960 2890 2814 2983 2865 2823 2833 2894 2930 2964 2970 2855 2964 2766 2947 2930 2937 2880 2836 2899 2875 2803 2871 2928 2821 2787 2910 2855 2937 2861 2942 2891 2768 2763 2781 2794 2908 2871 2838 2948 2903 2895 2708 2761 2885 2923 2793 2817 2810 2800 2798 2845 2970 2912 2829 2896 2804 2817 2903 2863 2781 2867 2831 2724 2810 2809 2815 2792 2770 2807 2695 2855 2709 2677 2842 2785 2799 2746 2697 2783 2717 2801 2820 2730 2785 2853 2761 2737 2689 2849 2834 2802 2750 2735 2760 2789 2810 2760 2808 2703 2758 2804 2688 2723 2716 2745 2767 2777 2718 2777 2711 2746 2769 2795 2661 2772 2727 2798 2799 2756 2753 2712 2756 2737 2776 2750 2881 2705 2781 2800 2786 2793 2726 2732 2705 2762 2823 2872 2908 2973 2990 2891 2952 3018 3114 3126 3085 3259 3208 3323 3375 3525 3519 3514 3428 3390 3375 3395 3337 3307 3303 3211 3239 3170 3119 3215 3041 3192 3010 3108 3089 3010 2955 2955 2953 2925 2947 2967 2882 2879 2895 2843 2879 2833 2802 2849 2758 2940 2854 2935 2969 3067 2857 2926 2947 2958 3019 3050 3025 3059 2989 2973 2928 2849 2826 2925 2898 2876 2745 2815 2807 2874 2766 2774 2851 2761 2695 2701 2732 2737 2749 2675 2672 2707 2590 2652 2626 2579 2631 2590 2531 2609 2672 2540 2566 2523 2630 2616 2620 2547 2576 2582 2513 2599 2583 2632 2516 2588 2501 2595 2529 2518 2526 2532 2556 2507 2525 2498 2536 2553 2578 2462 2513 2421 2531 2476 2580 2505 2474 2560 2389 2485 2479 2549 2554 2472 2463 2540 2417 2491 2439 2617 2500 2433 2452 2454 2448 2519 2535 2528 2405 2515 2467 2602 2450 2486 2535 2514 2531 2466 2470 2447 2528 2516 2530 2519 2559 2642 2631 2576 2617 2654 2676 2694 2730 2742 2709 2711 2730 2774 2680 2612 2588 2563 2637 2666 2617 2626 2605 2615 2604 2583 2450 2512 2545 2471 2392 2349 2486 2414 2421 2527 2455 2407 2471 2436 2435 2403 2457 2378 2449 2359 2333 2373 2364 2398 2378 2407 2404 2443 2335 2390 2255 2418 2414 2505 2310 2305 2396 2436 2379 2369 2379 2345 2398 2453 2345 2336 2336 2337 2359 2389 2395 2428 2409 2469 2393 2321 2385 2351 2369 2343 2427 2362 2328 2395 2328 2419 2272 2329 2344 2410 2338 2339 2471 2327 2252 2388 2308 2380 2385 2375 2396 2307 2378 2233 2422 2302 2376 2325 2366 2479 2297 2430 2408 2457 2368 2363 2418 2392 2448 2425 2338 2415 2302 2414 2371 2292 2322 2388 2341 2417 2338 2325 2367 2399 2354 2304 2366 2325 2376 2429 2306 2395 2280 2378 2419 2355 2278 2329 2406 2508 2381 2371 2442 2331 2424 2352 2301 2400 2302 2390 2460 2335 2273 2473 2255 2361 2364 2349 2278 2444 2351 2414 2421 2344 2336 2331 2484 2331 2386 2315 2378 2364 2329 2317 2288 2301 2291 2275 2380 2270 2269 2294 2161 2311 2365 2331 2300 2223 2267 2264 2303 2235 2272 2241 2250 2262 2338 2311 2283 2306 2253 2236 2315 2255 2265 2217 2213 2250 2278 2240 2238 2328 2211 2281 2207 2217 2247 2207 2314 2189 2187 2176 2205 2189 2215 2186 2186 2223 2163 2088 2118 2243 2167 2182 2197 2070 2098 2118 2101 2002 2170 2122 2029 2180 2132 2131 2119 2144 2107 2063 2127 2071 2044 2168 2167 1964 2128 2091 2090 1999 2118 2061 2155 2084 2131 2070 1964 1992 1980 2072 1966 2065 2022 2026 1985 2070 2014 1989 1932 1998 2084 2025 1977 2003 2011 1996 2089 2000 2019 1964 2040 1960 1982 1948 1931 1929 1973 1902 1965 1968 1976 1960 1986 1979 1998 1965 1948 2069 2121 1975 1907 1861 1933 1949 1977 1895 1950 1846 1949 1901 1915 1906 1883 1919 1896 1820 1837 1867 1870 1867 1912 1843 1874 1942 1814 1841 1775 1886 1805 1807 1805 1870 1954 1873 1904 1929 1980 2003 1928 2051 1959 1921 2030 1986 2052 2019 2043 2020 2019 1999 1990 1888 1918 2084 1880 1946 1938 1971 1930 1943 1979 2022 2031 2035 2129 2146 2132 2162 2302 2161 2307 2180 2276 2272 2289 2172 2341 2279 2280 2220 2147 2202 2009 2099 2074 2067 1955 1973 1985 2000 1959 1960 1811 1865 1858 1795 1832 1809 1814 1712 1762 1721 1735 1709 1714 1677 1694 1704 1708 1647 1656 1693 1699 1671 1704 1665 1685 1715 1664 1686 1675 1606 1609 1650 1580 1652 1675 1682 1679 1621 1664 1582 1628 1589 1603 1601 1682 1651 1607 1674 1664 1649 1574 1604 1581 1629 1670 1704 1658 1674 1640 1550 1589 1619 1653 1561 1545 1608 1602 1680 1669 1600 1606 1670 1652 1668 1655 1741 1663 1763 1700 1743 1681 1682 1768 1662 1820 1804 1778 1784 1755 1796 1697 1724 1740 1672 1742 1698 1717 1724 1633 1701 1608 1645 1675 1647 1762 1658 1612 1585 1606 1607 1556 1618 1556 1623 1660 1583 1633 1564 1675 1651 1623 1598 1648 1555 1592 1571 1637 1637 1665 1642 1586 1589 1552 1610 1529 1637 1568 1659 1669 1671 1641 1587 1668 1580 1643 1548 1604 1562 1580 1557 1676 1552 1544 1598 1616 1582 1580 1632 1618 1606 1590 1593 1548 1632 1534 1594 1611 1617 1591 1488 1511 1594 1594 1566 1544 1493 1532 1586 1539 1628 1573 1611 1572 1505 1576 1624 1581 1588 1570 1509 1550 1542 1592 1601 1546 1458 1504 1551 1542 1412 1483 1578 1524 1602 1512 1486 1525 1452 1522 1532 1607 1436 1480 1464 1456 1526 1470 1471 1559 1562 1454 1524 1435 1499 1477 1480 1419 1479 1452 1440 1454 1505 1437 1501 1434 1485 1450 1469 1493 1415 1390 1461 1434 1454 1424 1472 1425 1395 1444 1322 1448 1409 1421 1451 1440 1474 1434 1429 1455 1400 1407 1446 1441 1452 1385 1380 1332 1353 1448 1423 1394 1388 1387 1376 1368 1420 1425 1348 1445 1403 1457 1397 1449 1463 1485 1469 1436 1554 1571 1588 1590 1672 1794 1729 1863 1900 1957 2123 2111 2213 2183 2254 2309 2340 2308 2355 2341 2312 2335 2329 2241 2305 2244 2167 2212 2075 2065 2046 1988 2009 1847 1846 1769 1791 1744 1722 1689 1717 1694 1702 1773 1694 1815 1810 1768 1775 1870 1843 1783 1870 1718 1885 1844 1810 1721 1761 1708 1747 1684 1675 1623 1710 1711 1592 1718 1701 1597 1693 1757 1740 1777 1691 1676 1720 1745 1573 1642 1719 1696 1778 1821 1775 1775 1814 1786 1806 1824 1830 1817 1767 1744 1760 1702 1676 1652 1659 1618 1580 1606 1551 1546 1421 1439 1468 1415 1385 1363 1428 1443 1392 1456 1413 1329 1411 1453 1366 1443 1449 1442 1453 1513 1502 1506 1468 1499 1527 1543 1541 1497 1500 1488 1504 1538 1578 1500 1560 1636 1705 1647 1726 1784 1778 1769 1849 1689 1684 1775 1714 1714 1630 1612 1643 1655 1654 1653 1599 1647 1645 1622 1560 1570 1517 1472 1538 1516 1441 1503 1482 1508 1507 1569 1622 1681 1784 1713 1828 2082 2075 2265 2526 2720 2937 3226 3639 3825 4159 4301 4483 4606 4625 4613 4773 4834 4854 4809 4778 4676 4802 4857 4793 4895 4839 4852 4751 4674 4566 4540 4207 4145 3924 3794 3618 3456 3236 3148 3085 2876 2806 2597 2628 2453 2437 2383 2265 2129 2031 1924 1980 1705 1858 1647 1685 1608 1442 1446 1418 1360 1267 1292 1221 1286 1259 1245 1120 1209 1131 1232 1141 1115 1147 1125 1156 1147 1187 1086 1146 1117 1161 1056 1084 1084 1120 1065 1036 1112 1083 1026 1030 1009 998 1026 1008 978 1017 970 1003 955 1004 984 1012 1034 983 1031 969 1025 990 1023 1039 1102 991 1060 961 1002 1046 1022 1080 1060 1020 1011 993 993 1045 1090 1046 995 1041 1017 1047 1012 925 996 1034 985 1022 1005 1057 924 980 1009 937 1050 951 989 938 987 895 995 966 1027 920 1017 1046 1073 1087 1096 1168 1150 1158 1222 1310 1304 1501 1481 1633 1740 1843 1927 1956 2085 2162 2198 2200 2315 2306 2451 2420 2444 2320 2438 2368 2349 2171 2095 2071 1844 1946 1892 1837 1769 1701 1620 1616 1449 1458 1362 1269 1324 1203 1176 1107 1055 1034 1059 1034 991 922 984 925 921 957 934 876 883 954 852 822 920 828 836 864 813 916 806 861 847 856 890 856 861 803 877 765 894 804 892 871 921 828 887 856 836 919 870 885 897 895 834 923 941 934 990 1013 1067 1040 1113 1183 1212 1235 1257 1269 1246 1317 1193 1212 1185 1251 1183 1144 1138 1144 1101 1086 1073 1070 1016 996 954 956 890 906 876 912 957 902 882 849 818 862 815 812 756 816 791 771 816 807 868 788 763 781 775 795 779 773 782 818 768 776 777 709 769 730 752 759 745 786 747 801 702 791 768 732 705 714 751 794 785 756 803 774 739 728 704 755 745 754 746 734 721 781 809 810 755 754 811 747 768 777 789 809 805 780 773 736 758 786 785 774 750 759 754 730 730 756 778 757 783 728 717 751 766 766 758 790 799 761 753 746 781 826 791 776 777 788 798 795 795 808 816 767 746 784 783 800 739 796 791 811 776 853 838 844 814 788 805 826 806 819 866 868 874 851 859 905 915 857 887 889 971 909 990 1040 1033 1116 1144 1157 1249 1415 1387 1489 1650 1768 1833 2026 2273 2285 2608 2704 2999 3280 3469 3485 3671 3778 3648 3822 4022 3892 3849 3867 3851 3874 3811 3706 3531 3496 3365 3273 3100 3066 2895 2806 2887 2787 2691 2625 2529 2391 2381 2251 2184 2203 2002 2034 2010 1844 1799 1656 1655 1481 1508 1445 1365 1312 1265 1194 1159 1030 1060 960 1021 950 922 862 907 870 819 810 830 813 760 772 807 751 822 761 698 771 757 749 740 685 681 705 716 720 736 648 712 720 728 708 643 711 690 732 690 678 696 752 718 704 689 642 776 719 698 710 682 655 696 714 726 664 685 665 722 659 675 667 685 647 672 706 663 701 670 690 678 715 682 690 709 716 706 657 678 636 668 688 690 737 689 671 716 642 650 710 661 713 634 696 747 669 691 697 687 682 665 682 707 661 730 758 865 776 766 812 802 890 847 868 887 833 862 802 768 866 798 827 818 838 797 790 762 770 696 727 781 753 652 695 702 648 643 668 651 686 710 651 636 633 646 652 622 631 668 629 675 641 648 571 637 691 643 649 610 654 653 655 565 628 590 597 674 664 639 629 611 624 616 631 641 638 635 624 677 657 606 627 651 633 586 656 610 678 605 635 650 654 643 627 615 645 651 651 732 659 635 648 621 649 674 669 633 628 641 611 663 665 658 638 586 612 594 619 582 609 611 596 649 563 606 616 594 621 618 642 635 612 621 675 618 614 635 613 607 618 628 629 639 645 577 649 634 659 644 673 702 599 645 611 657 649 671 682 662 647 702 678 646 677 664 704 755 712 774 794 762 734 773 742 750 733 710 774 728 738 763 785 734 756 753 757 739 780 790 785 743 727 725 807 703 810 734 760 743 735 738 731 732 702 694 695 668 696 659 688 669 681 600 628 623 618 614 570 587 576 572 569 585 557 615 572 552 615 559 570 546 567 604 554 572 582 573 609 611 523 544 540 600 558 575 548 588 632 616 581 635 619 606 586 635 618 626 635 613 703 633 637 613 625 643 634 646 664 658 669 588 666 619 665 707 639 649 647 625 662 670 645 620 631 614 588 606 590 567 602 596 596 564 584 599 620 549 610 617 574 581 589 493 545 577 614 564 527 593 559 564 519 535 548 563 534 588 551 585 551 555 558 561 556 584 561 520 611 592 577 612 592 626 617 577 621 645 582 600 606 599 634 611 605 649 621 601 623 578 586 657 572 622 568 602 596 593 614 598 554 562 579 585 565 586 614 582 573 587 562 604 591 662 560 592 601 583 568 550 586 542 555 563 580 544 530 571 506 503 533 508 522 557 521 540 524 511 531 542 525 477 527 513 537 526 533 533 553 559 507 520 482 550 499 544 538 552 543 544 526 532 568 575 560 574 585 578 646 645 652 689 710 740 765 753 772 741 781 812 780 781 752 745 774 826 784 820 727 777 758 704 636 700 698 653 676 654 574 598 610 564 642 570 596 562 522 565 554 543 534 524 528 534 512 484 497 521 507 495 478 466 528 484 525 480 538 537 474 501 517 517 489 486 510 531 529 471 497 496 528 458 523 466 534 468 508 527 488 478 499 495 498 533 481 562 521 521 518 483 494 508 488 513 508 532 506 513 518 495 491 509 513 545 525 532 483 561 535 533 539 509 504 497 482 549 538 513 513 515 515 556 509 463 507 506 501 531 482 511 463 470 495 494 510 520 541 480 504 535 534 512 475 477 534 486 494 504 530 536 549 514 532 530 552 599 512 591 540 570 536 509 530 598 527 546 534 537 575 521 559 576 636 559 564 583 585 608 600 587 622 611 686 673 656 707 743 737 756 734 720 740 728 803 734 779 788 822 774 733 730 758 743 705 745 702 722 719 718 681 667 681 591 669 613 646 638 585 594 571 578 578 571 557 581 524 499 537 550 535 504 556 537 527 526 545 509 510 506 513 489 486 482 484 484 509 455 491 500 515 485 518 515 501 484 504 514 497 478 518 540 521 538 469 513 482 549 507 481 516 520 489 487 556 480 529 556 510 524 468 535 520 595 572 595 608 607 629 681 609 714 660 650 656 653 614 618 621 631 596 632 641 596 616 571 636 590 549 571 537 540 538 538 551 583 522 481 538 482 537 541 523 554 484 519 488 548 499 533 498 514 464 531 544 503 494 509 460 496 464 481 477 481 429 463 465 482 451 463 471 423 448 457 448 520 450 510 448 501 434 486 492 498 472 473 438 462 552 462 478 472 490 514 552 528 552 515 531 536 557 535 547 540 533 556 586 595 566 521 545 560 541 546 556 557 548 554 514 551 590 558 586 575 577 573 562 582 567 633 665 646 618 703 668 748 743 778 761 784 792 796 749 814 692 773 806 770 819 807 757 785 740 765 737 660 679 728 705 690 706 762 744 721 762 776 768 771 783 808 723 702 730 706 781 744 678 649 686 618 658 630 556 649 613 579 615 535 619 522 573 457 525 474 466 524 485 477 527 470 515 481 473 456 462 458 460 471 473 440 473 446 422 437 443 481 479 446 438 480 444 483 485 475 501 510 530 496 508 506 513 517 551 479 562 481 540 486 510 518 485 521 520 515 501 526 514 494 496 497 503 451 490 494 499 476 517 476 496 474 469 478 429 472 476 460 473 443 455 432 444 479 477 455 501 480 486 540 501 510 485 529 503 491 512 493 507 483 504 514 515 520 488 467 483 450 499 534 476 484 448 461 448 453 472 446 432 475 463 415 452 465 459 486 442 458 444 476 450 481 459 470 441 468 433 464 435 432 438 465 471 452 436 432 424 447 428 472 461 484 450 453 457 429 422 421 476 457 462 459 441 418 408 469 408 430 439 436 417 450 450 466 463 456 428 440 434 484 495 518 534 550 531 526 525 568 524 585 588 601 605 561 651 651 644 599 688 654 605 647 621 603 634 648 574 619 552 593 583 600 568 568 545 525 549 503 510 488 495 476 445 528 466 487 469 460 466 473 454 459 406 464 481 426 460 473 444 438 461 448 464 465 462 463 424 480 484 511 510 462 451 461 463 467 480 476 461 432 498 451 475 435 499 461 493 477 492 454 467 462 440 472 436 431 471 483 485 482 456 448 483 463 495 478 505 480 481 561 571 515 533 563 592 582 600 647 658 688 679 763 735 781 735 790 795 840 859 852 816 847 903 870 940 968 991 1038 1063 1079 1146 1146 1149 1224 1244 1214 1238 1184 1272 1328 1345 1365 1438 1495 1639 1759 1814 1955 2030 2141 2275 2293 2351 2374 2373 2263 2246 2288 2265 2215 2111 2191 2204 2211 2220 2172 2080 1998 2091 1815 1800 1853 1810 1723 1704 1744 1725 1628 1657 1587 1572 1552 1476 1534 1493 1489 1533 1499 1438 1440 1457 1364 1343 1397 1448 1342 1324 1270 1287 1224 1220 1145 1137 1039 1054 989 978 952 880 904 882 818 790 707 744 705 698 636 623 615 632 568 554 568 541 540 481 491 500 481 480 499 493 494 475 454 442 447 467 439 469 436 466 431 468 430 464 450 449 493 424 465 422 447 434 439 437 442 463 412 411 452 467 422 412 437 382 430 443 445 387 443 441 413 421 404 395 428 399 408 420 391 387 409 412 432 357 409 410 397 427 442 385 391 395 381 408 399 389 409 406 408 429 442 413 432 417 416 433 383 454 435 406 430 395 408 388 435 462 406 409 408 419 436 423 417 415 419 393 387 401 389 426 397 384 434 386 399 405 397 402 387 386 382 372 412 407 413 377 406 420 387 422 459 443 421 425 446 429 439 432 435 446 417 455 455 444 433 472 461 431 466 462 453 442 500 469 445 455 516 516 456 469 477 468 465 467 482 486 479 476 436 462 524 475 473 457 499 508 503 506 519 524 460 496 489 488 553 531 505 520 466 542 489 479 468 498 486 483 485 498 413 462 477 432 474 438 439 463 438 441 424 410 438 434 376 421 405 406 402 439 382 390 426 416 395 388 398 387 416 410 422 407 374 366 424 378 409 402 418 391 404 402 398 447 408 386 418 425 443 396 426 476 451 452 461 406 442 419 420 416 450 443 493 454 515 542 549 586 587 663 743 771 825 898 1062 1030 1084 1044 1149 1114 1168 1084 1101 1088 1116 1141 1119 1082 1090 1071 1036 1023 986 926 918 896 812 783 776 713 723 678 659 618 559 575 585 502 535 529 506 491 465 467 408 459 439 504 454 452 469 428 442 427 460 416 424 427 424 406 402 406 415 425 390 411 394 399 400 383 356 385 352 403 389 389 379 379 359 371 376 378 393 347 349 384 359 367 363 370 344 372 359 348 373 363 358 350 362 348 367 354 368 344 319 371 348 348 391 390 342 355 342 357 351 347 375 333 326 341 353 373 333 354 373 400 359 372 387 298 369 364 364 367 346 362 360 375 320 389 310 375 381 370 366 387 386 389 388 371 348 362 362 390 386 420 344 363 360 369 382 350 412 370 366 403 371 372 374 389 384 357 364 405 325 358 368 355 349 347 353 368 372 349 322 343 383 351 348 324 334 359 402 322 334 346 327 332 293 313 346 293 346 318 339 330 345 349 360 342 331 360 366 351 318 355 369 376 354 338 361 327 331 329 341 364 362 328 343 352 311 366 355 353 365 340 367 365 344 347 324 344 359 385 351 347 343 347 338 322 386 343 378 353 342 329 336 411 368 388 357 365 352 321 348 369 373 379 373 348 377 355 372 364 388 377 357 427 369 393 382 409 433 395 459 388 423 422 372 391 396 386 419 355 414 376 402 418 383 368 391 353 359 376 365 348 365 346 347 356 356 384 377 345 338 377 367 338 335 331 360 368 339 362 376 335 332 337 346 300 326 351 333 347 354 336 342 332 340 362 319 307 347 342 354 294 338 317 320 337 309 325 351 351 336 313 321 336 334 342 318 356 355 325 310 314 369 353 333 337 349 355 357 355 338 328 344 364 412 374 370 341 340 362 384 344 348 404 387 369 431 383 393 387 359 341 370 359 386 387 395 424 406 394 388 382 379 383 364 379 369 408 366 348 364 332 341 371 336 391 349 350 367 337 334 361 345 339 368 350 330 349 362 373 347 348 354 353 399 387 394 347 372 337 349 365 370 370 405 369 407 439 420 419 399 433 406 392 442 408 396 436 434 464 465 465 465 502 429 472 484 478 508 490 482 531 544 527 474 475 498 487 498 467 494 501 502 493 473 476 506 497 463 473 496 507 475 511 507 521 517 501 523 552 557 616 582 602 611 669 659 705 796 803 853 835 871 845 912 898 870 923 859 857 885 827 868 847 868 816 865 809 778 801 866 714 750 733 702 749 731 745 699 667 703 697 706 689 765 753 782 755 766 766 743 727 763 723 760 754 737 710 708 719 717 718 733 662 707 672 684 608 682 614 650 597 639 587 565 572 597 587 556 559 519 558 548 570 525 534 506 525 491 484 507 501 465 474 516 456 468 488 458 459 472 405 400 429 397 388 393 388 406 378 397 395 390 388 383 381 377 384 365 352 364 356 377 343 358 302 369 356 357 358 376 381 367 363 343 350 384 369 380 387 381 396 387 366 396 402 356 373 391 387 357 366 373 355 402 397 403 391 347 344 369 378 386 365 375 320 366 335 336 357 340 318 342 392 385 387 361 362 380 356 351 296 346 342 388 349 328 350 347 342 361 335 349 370 338 300 360 352 356 299 331 318 339 300 306 333 284 337 306 326 295 324 325 324 307 318 328 282 305 337 283 306 316 305 289 331 320 311 340 332 335 324 333 362 327 313 281 340 321 313 333 325 335 307 327 319 339 313 305 355 310 308 341 325 342 351 324 340 350 336 322 357 373 365 392 367 389 407 415 399 486 473 504 506 597 643 597 622 638 642 676 636 662 634 671 620 664 617 620 589 614 557 620 568 579 578 560 548 524 529 503 499 503 519 502 467 468 464 458 428 448 425 463 394 453 435 389 405 360 432 388 358 399 410 403 394 368 396 371 420 403 426 354 377 375 360 357 387 373 381 383 362 378 385 376 399 393 386 410 373 362 369 361 367 374 361 346 365 388 386 365 358 347 312 354 323 333 349 325 335 332 336 324 304 308 329 340 324 342 321 317 306 351 328 311 290 324 306 293 276 279 311 298 284 303 305 280 294 301 324 311 293 304 317 283 313 293 292 300 267 278 289 307 309 315 292 309 302 297 274 258 297 282 321 308 283 280 276 281 270 268 330 275 280 309 280 273 258 290 289 267 304 250 300 274 241 283 296 278 314 298 314 302 276 299 291 294 279 306 323 321 278 291 323 326 337 297 372 335 284 374 361 362 357 360 372 363 396 344 357 350 337 367 333 361 356 381 376 379 331 349 308 325 355 349 311 335 332 332 340 332 335 332 307 323 309 295 297 276 310 298 300 352 286 318 308 306 313 310 317 325 325 326 320 333 325 362 344 335 345 331 346 358 348 350 367 369 355 389 327 345 350 347 375 364 315 322 340 356 320 334 335 327 367 307 349 288 317 276 325 310 304 305 319 288 306 289 268 281 286 270 280 269 296 242 274 280 266 250 284 276 274 299 263 281 277 281 277 259 273 274 289 248 273 281 265 264 267 257 265 312 304 285 267 326 281 264 307 261 300 275 297 318 294 309 279 286 270 274 269 263 274 285 288 285 271 296 295 305 316 294 274 320 338 284 317 266 294 307 279 286 299 296 304 301 274 294 283 300 314 282 323 315 278 315 290 308 289 303 231 306 306 269 313 309 268 265 292 293 289 269 318 324 297 319 306 263 262 298 281 285 260 281 273 286 229 311 276 290 308 303 259 311 288 275 270 295 309 268 283 300 303 283 279 274 292 289 282 276 265 305 282 281 274 293 241 298 249 276 262 283 288 260 279 248 300 246 274 251 249 283 244 288 245 248 250 279 276 256 286 306 259 320 273 264 262 300 283 293 257 246 226 275 251 293 248 288 245 235 305 256 267 249 260 226 245 281 277 260 300 246 267 283 267 239 259 274 259 261 259 245 257 250 258 242 237 242 250 249 241 244 285 256 277 266 234 268 276 271 243 259 250 267 259 269 272 264 250 283 291 279 296 256 272 316 285 285 287 276 249 339 257 291 278 289 314 302 306 265 320 243 290 301 321 300 294 266 284 289 293 315 318 311 359 268 321 273 344 297 322 291 284 311 294 302 313 302 274 303 323 315 271 340 258 324 305 306 280 319 289 286 270 300 268 271 247 267 257 263 276 257 247 267 235 262 295 238 247 272 225 235 257 260 247 282 272 271 234 239 263 249 270 259 241 285 239 291 249 290 289 248 250 261 256 266 289 278 276 275 316 246 260 276 266 273 231 248 295 275 248 275 266 260 266 242 230 264 264 232 274 241 276 242 226 292 259 266 237 245 233 282 260 278 280 307 257 287 271 245 292 231 259 251 276 253 301 296 301 292 273 264 277 291 309 306 296 299 314 290 305 276 311 323 335 296 281 276 282 296 283 294 286 280 285 302 269 272 287 280 271 301 261 291 271 287 277 289 270 311 261 300 272 258 300 290 239 266 298 262 291 277 274 294 303 278 293 305 318 302 242 280 293 281 292 311 277 309 316 306 314 295 287 320 292 295 273 312 269 269 284 267 289 275 304 323 306 312 284 276 280 278 263 286 327 258 279 259 274 233 338 282 275 266 243 265 244 285 270 272 229 300 287 224 264 256 262 305 246 233 246 228 232 276 257 238 266 268 270 284 262 247 268 220 256 234 259 274 236 233 242 242 265 257 241 247 259 229 263 259 262 240 233 261 274 242 264 256 256 265 286 262 288 223 233 242 240 266 274 272 230 269 263 275 294 287 271 289 290 302 270 291 278 260 305 291 271 239 263 272 264 242 266 274 246 236 274 248 265 281 249 230 259 220 247 269 231 235 248 250 230 222 247 235 212 240 270 236 225 226 242 235 243 208 233 228 236 227 205 223 225 249 237 228 241 229 242 240 235 235 246 269 235 243 221 214 230 267 265 236 220 206 257 235 244 291 244 262 235 250 257 257 240 248 261 237 274 235 271 265 224 238 251 233 248 244 231 244 245 229 245 249 259 281 268 256 202 274 263 242 236 274 222 284 241 264 281 275 320 320 293 303 281 303 293 290 340 370 373 377 389 408 350 365 378 345 383 397 407 356 374 381 371 340 422 354 370 355 362 370 369 363 364 335 360 350 299 366 357 335 315 323 331 317 344 327 289 321 317 311 332 324 350 286 315 309 318 323 323 298 336 313 341 311 321 347 353 295 335 332 347 337 378 369 321 341 327 350 344 341 338 323 336 340 333 321 340 314 349 332 332 308 294 295 301 289 317 289 258 287 304 299 262 286 293 274 276 236 265 239 283 266 247 229 240 247 212 258 249 249 250 210 213 227 231 234 203 218 248 261 235 257 245 239 289 236 230 240 233 226 222 208 237 245 218 213 232 243 228 284 199 269 260 216 250 240 265 237 235 242 234 261 243 244 225 271 262 217 284 258 267 239 239 244 240 233 225 218 257 230 256 280 223 262 276 269 276 270 232 305 260 245 244 258 245 276 268 270 264 268 257 268 258 292 259 273 237 274 275 262 236 281 271 293 258 301 220 280 241 257 256 273 259 271 228 259 265 278 281 271 272 292 256 270 287 272 266 272 263 292 274 227 301 291 272 262 270 264 264 271 268 299 247 287 299 291 257 287 330 318 332 343 320 316 332 290 314 337 358 313 346 367 352 306 342 324 326 320 344 351 306 290 357 355 333 399 360 349 389 328 309 321 294 314 289 329 275 301 302 306 300 311 294 266 329 303 277 282 297 268 275 267 266 274 272 259 268 287 234 266 262 240 258 218 232 250 236 258 222 249 225 225 224 238 222 242 242 261 230 241 234 226 257 219 268 237 257 203 233 243 233 229 231 198 216 230 244 259 227 220 224 260 223 246 209 265 224 224 269 222 232 245 228 228 266 259 224 232 216 213 237 221 262 250 258 236 241 236 237 257 242 228 259 242 243 230 241 232 237 249 244 234 235 267 244 240 225 243 244 241 270 218 248 256 225 265 208 229 218 222 239 235 246 268 264 220 211 226 267 234 233 256 203 229 221 216 246 223 224 242 226 263 261 247 230 283 246 216 256 220 278 236 233 226 245 276 241 224 230 220 243 206 219 181 227 213 276 229 208 208 217 222 216 216 246 217 240 219 257 249 259 208 247 220 279 242 220 248 257 248 250 227 237 229 261 272 224 200 222 239 223 236 266 246 248 250 243 259 243 272 268 245 229 224 201 250 237 226 245 225 218 222 227 220 249 223 268 245 265 257 211 235 262 266 260 263 228 266 230 242 270 227 269 263 241 276 279 275 238 295 282 257 272 288 288 257 261 273 245 275 257 241 256 256 237 248 275 283 269 291 283 283 276 277 306 242 272 245 246 273 282 307 256 287 282 267 263 264 277 233 276 308 280 258 260 244 262 274 272 244 247 283 294 281 279 285 295 225 297 271 243 281 274 243 284 261 263 256 286 261 250 250 318 263 249 294 256 278 228 219 261 273 257 257 258 277 313 289 266 277 306 299 293 264 270 275 232 232 260 286 259 244 238 275 249 265 276 257 238 250 257 243 280 277 289 246 268 271 315 311 321 281 317 280 273 324 297 297 308 277 304 287 314 280 295 310 287 301 300 281 275 280 318 322 286 294 293 285 306 306 282 303 273 286 266 295 310 306 302 306 307 319 325 308 302 322 313 325 352 352 353 379 350 378 374 392 401 391 372 388 391 403 389 372 338 366 327 374 318 361 367 380 346 368 355 368 349 366 380 385 343 332 377 363 369 310 338 347 356 353 328 375 337 354 362 333 344 329 308 315 318 360 353 330 332 337 374 360 359 340 368 341 353 342 348 335 333 344 348 360 335 347 350 356 363 321 330 299 327 335 340 328 350 331 340 296 333 313 363 336 349 309 311 359 325 338 307 328 317 308 316 323 308 304 316 298 278 293 298 312 296 287 330 308 262 264 311 283 295 296 297 264 292 297 299 284 282 297 326 291 275 271 317 328 278 324 272 298 304 290 332 293 302 276 261 287 306 277 291 277 283 265 243 262 239 265 260 257 282 236 262 268 238 240 226 291 284 230 266 240 247 256 232 238 243 230 276 280 268 249 270 271 237 245 240 268 248 271 237 271 251 265 237 224 236 281 244 250 247 249 262 275 245 230 289 269 263 274 236 307 257 240 227 293 281 273 273 292 262 294 306 296 300 294 323 358 292 375 352 344 389 379 382 403 412 454 439 446 436 472 435 476 425 467 450 476 443 461 471 428 448 377 448 410 399 424 443 414 382 436 431 429 406 422 438 450 429 433 441 399 371 415 424 396 384 385 352 372 381 352 348 331 305 329 340 337 357 315 288 314 304 316 346 330 359 336 291 301 298 321 320 322 324 314 296 335 313 310 336 326 324 296 325 287 324 289 286 324 319 333 313 320 313 295 280 297 279 314 293 294 269 292 311 279 263 284 264 259 258 259 295 288 294 273 263 292 245 248 283 278 266 275 247 271 234 240 270 211 259 275 242 243 258 267 229 262 269 260 258 240 265 241 256 217 259 292 212 263 235 271 264 229 227 236 246 241 284 261 243 215 284 265 246 221 278 247 229 233 236 235 242 240 265 223 236 220 219 260 236 258 238 271 272 274 273 270 225 264 267 244 228 268 256 242 242 258 241 269 260 265 274 289 280 265 263 256 232 246 231 250 241 248 276 266 234 276 241 261 263 261 275 227 260 235 238 280 272 281 246 240 234 260 216 250 237 277 269 229 231 230 233 220 272 228 251 227 231 245 244 273 238 235 265 240 202 231 242 238 261 240 227 268 224 250 270 234 216 237 210 230 216 226 234 227 211 227 211 225 239 241 246 209 221 212 216 224 237 240 211 240 221 212 216 224 237 247 236 221 211 212 223 231 292 218 265 185 229 269 225 264 236 239 218 233 234 234 224 222 259 213 237 230 206 215 237 235 219 225 212 257 249 245 231 249 222 242 241 268 221 237 248 215 240 229 213 215 215 260 238 229 234 215 258 220 256 248 222 223 238 237 213 218 219 243 215 206 228 232 235 209 206 240 257 245 237 229 234 231 210 206 241 257 226 232 237 201 222 201 247 211 212 218 242 232 207 207 186 218 209 229 222 213 209 191 210 234 225 216 220 220 200 214 227 238 236 197 206 239 206 236 228 198 229 221 217 205 213 203 202 237 189 225 221 262 212 221 208 212 205 228 212 216 226 229 201 244 233 224 220 208 211 234 223 198 244 201 190 226 216 222 223 209 202 202 235 233 237 211 229 228 247 242 245 219 203 205 209 182 204 232 201 219 204 227 226 228 204 213 198 225 224 206 222 206 243 250 227 233 227 230 226 246 206 211 210 219 201 216 262 238 268 230 188 194 211 236 217 231 208 243 226 208 197 235 246 203 233 223 220 199 202 222 228 217 227 235 232 210 226 225 224 219 219 264 236 240 242 243 209 234 224 261 227 240 223 227 228 273 206 198 242 219 219 220 219 232 226 250 242 221 216 217 222 216 216 221 228 240 234 226 168 232 216 230 229 185 233 215 227 243 209 214 219 211 225 215 217 197 207 233 218 230 238 224 205 250 224 232 244 239 202 236 236 237 212 223 239 218 202 243 202 237 190 218 231 217 204 239 219 228 216 227 210 241 236 201 238 236 243 259 216 237 273 237 215 267 288 229 237 239 231 239 259 229 246 284 243 276 247 232 236 265 235 223 236 240 234 240 246 210 260 241 241 244 236 233 268 214 236 239 221 230 220 246 231 226 236 235 247 237 240 243 221 229 249 231 220 232 221 239 222 258 216 239 237 204 227 214 221 212 250 204 220 212 233 210 265 228 230 241 218 248 232 187 246 233 212 225 225 222 228 217 238 235 222 203 224 214 241 244 217 222 228 234 217 231 208 205 207 239 241 258 226 219 205 228 234 221 202 227 205 211 231 233 223 207 232 212 216 212 218 214 215 233 199 207 208 205 214 215 226 211 231 199 195 206 241 227 224 221 218 215 212 232 217 194 230 226 231 214 198 237 201 212 210 229 220 225 227 248 237 227 188 216 206 230 226 247 199 214 230 231 224 220 194 225 234 220 230 205 231 222 244 224 194 232 236 223 213 237 216 242 271 228 213 206 247 268 243 242 221 247 259 229 256 236 250 242 246 246 248 290 270 257 221 225 264 226 227 266 269 280 289 230 262 227 231 230 212 232 283 210 260 258 275 240 243 223 260 219 243 243 249 282 228 277 245 241 257 236 268 222 240 223 236 264 260 286 263 307 247 291 278 274 296 240 272 294 267 303 287 264 326 286 340 305 358 298 339 360 350 350 355 340 402 354 381 398 380 400 388 387 373 356 400 324 336 328 342 334 364 366 348 362 341 347 348 336 323 366 330 319 351 326 339 344 356 365 374 310 347 326 304 298 310 322 352 324 277 291 324 270 303 276 329 312 343 288 333 316 318 326 305 307 297 311 284 307 341 311 328 288 325 326 337 329 343 327 329 324 328 344 343 283 347 304 333 305 304 290 298 323 307 327 301 318 306 302 295 300 270 298 269 307 299 244 311 272 291 300 260 257 265 266 258 297 257 303 290 236 273 270 294 247 279 243 236 290 256 214 264 242 250 268 263 272 245 237 248 240 222 216 210 235 239 216 238 274 221 260 233 201 262 218 235 205 235 233 240 239 236 227 228 225 249 215 233 241 247 223 270 245 207 224 234 256 225 234 247 232 221 197 233 263 220 228 243 218 217 214 231 260 230 248 233 233 235 239 258 265 265 275 227 207 231 216 276 241 266 273 221 286 243 263 287 263 240 230 287 233 259 293 267 231 285 264 260 260 276 246 261 282 238 280 286 248 261 267 249 276 260 247 302 275 281 290 256 287 256 260 240 279 266 262 261 263 268 246 270 278 274 258 262 265 263 265 281 263 230 266 242 280 243 272 244 260 235 247 212 262 215 228 229 237 211 230 217 230 221 239 228 232 238 225 188 238 202 233 208 224 223 214 221 261 226 194 234 218 225 243 210 223 172 207 195 211 232 208 218 217 198 205 232 224 201 210 212 220 213 219 221 208 213 223 203 233 237 218 202 216 204 222 212 197 189 220 216 216 225 198 214 220 247 194 175 228 219 231 256 196 179 227 210 230 196 211 206 223 214 225 201 204 181 204 217 218 212 209 218 172 211 199 204 210 220 195 194 227 215 211 193 226 241 159 208 199 223 220 224 213 217 226 196 201 203 216 194 218 214 208 209 229 195 200 184 174 171 198 203 192 204 211 237 195 205 195 199 199 237 192 221 200 202 180 190 208 203 214 204 192 213 216 220 207 227 213 219 208 230 192 211 202 195 206 194 215 226 228 220 211 230 215 203 224 227 206 209 200 181 212 188 221 198 227 214 182 206 180 207 228 225 208 203 197 195 220 211 203 184 230 224 199 218 239 193 212 212 246 209 225 223 242 237 194 209 217 219 207 221 230 215 221 220 210 227 250 219 216 245 214 217 206 205 227 228 233 225 213 228 230 231 212 241 221 237 226 248 256 236 240 219 221 210 225 246 224 249 217 227 215 199 217 202 223 215 249 245 241 224 228 211 203 206 203 229 197 234 214 190 242 222 205 190 226 196 240 239 222 237 204 211 239 194 240 196 219 206 219 216 224 227 207 262 230 216 237 220 204 208 238 256 238 243 232 227 227 194 231 243 228 233 223 226 244 201 261 224 216 236 217 227 265 224 251 241 230 210 242 239 246 263 260 241 236 276 275 275 247 264 280 272 298 277 251 268 287 277 237 249 268 258 248 236 278 232 276 260 257 247 259 289 230 271 320 242 273 262 260 282 275 279 261 241</counts>
			</dataPoints>
		</scan>
	</xrdMeasurement>
</xrdMeasurements>
