<?xml version="1.0"?>
<xrdMeasurements xmlns="http://www.xrdml.com/XRDMeasurement/2.3" xmlns:xsi="http://www.w3.org/2001/XMLSchema-instance" xsi:schemaLocation="http://www.xrdml.com/XRDMeasurement/2.3 http://www.xrdml.com/XRDMeasurement/2.3/XRDMeasurement.xsd" status="Completed" recordIdentifier="{5486EFF4-6783-4287-8752-C2394BD45C82}">
	<comment>
		<entry/>
	</comment>
	<sample type="To be analyzed">
		<id>GPSS_Li1p4Mn0p7Sc0p15Ta0p15Cl4_110625_690d9f07f040177efa2b78e2</id>
		<name></name>
		<preparedBy></preparedBy>
	</sample>
	<xrdMeasurement measurementType="Scan" status="Completed" sampleMode="Reflection">
		<usedWavelength intended="K-Alpha 1">
			<kAlpha1 unit="Angstrom">1.5405980</kAlpha1>
			<kAlpha2 unit="Angstrom">1.5444260</kAlpha2>
			<kBeta unit="Angstrom">1.3922500</kBeta>
			<ratioKAlpha2KAlpha1>0.5000</ratioKAlpha2KAlpha1>
		</usedWavelength>
		<incidentBeamPath>
			<radius unit="mm">145.00</radius>
			<xRayTube id="1010048" name="Empyrean Cu LFF HR (9430 033 7310x)">
				<tension unit="kV">40.0</tension>
				<current unit="mA">15.0</current>
				<anodeMaterial>Cu</anodeMaterial>
				<focus type="Line">
					<length unit="mm">12.0</length>
					<width unit="mm">0.4</width>
					<takeOffAngle unit="deg">6.0</takeOffAngle>
				</focus>
			</xRayTube>
			<sollerSlit id="21010002" name="Soller slits 0.04 rad.">
				<opening unit="rad">0.0400</opening>
			</sollerSlit>
			<mask id="22031000" name="Fixed mask 13 mm">
				<width unit="mm">9.00</width>
			</mask>
			<divergenceSlit id="22120001" name="Divergence slit 1°" xsi:type="fixedDivergenceSlitType">
				<distanceToSample unit="mm">50.00</distanceToSample>
				<height unit="mm">1.52</height>
			</divergenceSlit>
		</incidentBeamPath>
		<sampleMovement xsi:type="spinningSampleMovementType">
			<spinnerRevolutionTime unit="seconds">1.0</spinnerRevolutionTime>
		</sampleMovement>
		<diffractedBeamPath>
			<radius unit="mm">145.00</radius>
			<antiScatterSlit id="22090040" name="AS slit 9 mm (PIXcel)" xsi:type="fixedAntiScatterSlitType">
				<height unit="mm">9.00</height>
			</antiScatterSlit>
			<sollerSlit id="21020003" name="Large Soller slits 0.04 rad.">
				<opening unit="rad">0.0400</opening>
			</sollerSlit>
			<filter id="20030001" name="Large beta-filter Nickel">
				<material>Ni</material>
				<thickness unit="mm">0.020</thickness>
			</filter>
			<detector id="7010019" name="PIXcel1D-Medipix3 detector" xsi:type="rtmsDetectorType">
				<phd unit="keV">
					<lowerLevel>4.02</lowerLevel>
					<upperLevel>11.27</upperLevel>
				</phd>
				<mode>Scanning</mode>
				<activeLength unit="deg">5.542</activeLength>
			</detector>
		</diffractedBeamPath>
		<scan appendNumber="0" mode="Continuous" scanAxis="Gonio" status="Completed">
			<header>
				<startTimeStamp>2025-11-08T15:03:27-08:00</startTimeStamp>
				<endTimeStamp>2025-11-08T15:11:34-08:00</endTimeStamp>
				<author>
					<name>AutomatedUser</name>
				</author>
				<source>
					<applicationSoftware version="1.7b (136)">PANalytical Aeris Instrument Suite</applicationSoftware>
					<instrumentControlSoftware version="3.2.00000000 20240306">AERIS</instrumentControlSoftware>
					<instrumentID>950485</instrumentID>
				</source>
			</header>
			<dataPoints>
				<positions axis="2Theta" unit="deg">
					<startPosition>10.00943322</startPosition>
					<endPosition>99.99442286</endPosition>
				</positions>
				<positions axis="Omega" unit="deg">
					<startPosition>5.00471661</startPosition>
					<endPosition>49.99721143</endPosition>
				</positions>
				<commonCountingTime unit="seconds">12.495</commonCountingTime>
				<counts unit="counts">3043 2999 2974 3009 3087 3100 3007 3030 3071 3047 3052 3076 2994 3018 2950 3010 2938 3164 3102 3080 3050 3039 3107 3082 3195 3021 2935 3020 2981 3072 3086 3104 3075 3107 3120 3069 3229 3031 3113 3067 3159 3189 3178 3089 3115 3025 3208 3204 3090 3180 3200 3324 3210 3201 3199 3219 3221 3297 3193 3117 3277 3271 3280 3260 3290 3212 3235 3286 3267 3266 3281 3147 3384 3242 3317 3340 3241 3358 3310 3418 3316 3240 3362 3255 3327 3313 3268 3294 3284 3243 3324 3287 3396 3232 3287 3271 3270 3264 3235 3225 3075 3242 3284 3140 3217 3126 3204 3140 3134 3118 3144 3285 3148 3232 3173 3080 3232 3090 3222 3185 3128 3197 3204 3070 3143 3172 3212 3131 3292 3142 3191 3216 3086 3239 3200 3120 3145 3192 3229 3286 3209 3171 3278 3170 3244 3191 3145 3256 3145 3124 3065 3181 3128 3171 3212 3214 3125 3118 3194 3216 3184 3224 3203 3194 3110 3175 3098 3074 3185 3161 3157 3220 3094 3183 3168 3070 3204 3187 3160 3168 3187 3184 3092 3172 3098 3093 3127 3137 3163 3020 3090 3169 3119 3171 3176 3184 3173 3168 3193 3131 3231 3129 3113 3144 3103 3129 3120 3141 3164 3141 3122 3037 3055 3144 2934 3167 3151 3190 3116 3150 3195 3053 3166 3054 3108 3040 3085 3013 3009 3011 3196 2964 3054 3125 3095 3172 3111 3031 3015 3146 3069 3153 3083 3097 3115 3017 2975 3125 3110 3067 3102 3076 3154 2952 3113 2996 3136 3052 3040 3060 3087 3058 3073 3155 3140 3045 3073 3081 3110 3128 3208 3117 3165 3105 3041 3191 3100 3045 3047 3201 2999 2993 3100 3065 3055 3179 3105 3127 3023 3071 3132 3155 3180 3217 3084 3169 3038 3139 3119 3148 3224 3111 3084 3110 3216 3109 3251 3120 3173 3077 3216 3200 3198 3201 3178 3204 3226 3187 3135 3200 3234 3279 3228 3258 3334 3192 3374 3151 3240 3276 3213 3214 3210 3234 3267 3320 3270 3209 3282 3339 3298 3243 3281 3452 3304 3396 3323 3363 3330 3388 3460 3351 3358 3463 3350 3356 3377 3388 3337 3455 3308 3446 3329 3457 3415 3581 3514 3399 3539 3429 3339 3524 3506 3511 3466 3466 3449 3496 3594 3578 3515 3563 3475 3532 3565 3556 3544 3726 3544 3686 3591 3761 3660 3724 3684 3751 3734 3838 3829 3844 3902 3920 3897 3934 4030 4106 4142 4122 4213 4440 4380 4468 4524 4594 4550 4659 4777 4806 5006 4959 5031 4915 5188 5068 5207 5160 5178 5224 5222 5124 5015 4958 4960 4932 4872 4837 4820 4763 4768 4847 4953 4987 4954 4948 4885 5064 4970 5020 4879 4948 4980 5016 4933 5072 4744 4902 4806 4855 4754 4707 4616 4427 4653 4393 4319 4345 4397 4251 4123 4163 4203 4098 4061 4002 3959 3992 3806 3804 3798 3782 3783 3674 3743 3643 3679 3745 3673 3522 3589 3608 3551 3637 3518 3523 3502 3534 3520 3514 3478 3444 3506 3417 3454 3481 3382 3316 3429 3463 3349 3433 3509 3420 3419 3496 3415 3396 3391 3391 3323 3364 3483 3282 3338 3292 3303 3350 3344 3322 3266 3335 3261 3268 3306 3301 3285 3224 3325 3230 3195 3275 3365 3336 3299 3280 3201 3221 3125 3219 3165 3278 3163 3243 3242 3126 3299 3179 3287 3255 3213 3142 3245 3197 3203 3208 3197 3138 3112 3125 3153 3206 3100 3061 3087 3063 3042 3089 3082 3173 3237 3140 3141 3085 3041 3226 3162 3135 3037 3076 3100 3034 3088 3127 3094 3155 3037 2982 3083 3099 3036 3063 3084 3102 3110 3099 3115 3129 3127 3048 3108 3062 3039 3027 3037 3088 3027 3096 3079 3123 2942 3077 3133 3113 3064 3100 3080 2985 3029 3040 3096 3066 3138 3022 3063 3020 3091 2961 3035 3054 3041 3019 3088 3044 2986 3135 3144 3069 2989 3042 3039 3015 2972 2961 3035 3013 3029 3137 3030 2993 3061 2982 3131 2950 3076 2979 2978 2934 3008 3031 3045 3026 3086 2931 3042 2967 2923 2993 2912 2951 2930 3053 3064 3063 2934 3025 2860 2943 2961 2929 2874 2914 3034 2882 2974 2982 2891 2981 2896 2871 2921 3019 2894 2996 2929 2969 2929 2823 2955 2837 2921 2894 2911 2990 2942 2985 2896 3008 3020 2926 2949 2930 2923 2904 2926 2893 2903 2882 2959 2802 3014 2878 2953 2880 2898 2810 2997 2993 2930 2891 2932 2874 2954 2948 2946 2916 2886 2880 2907 2938 3011 2903 2896 2939 2942 2936 2901 2845 2948 2910 2816 2871 2896 2826 2942 2815 2834 2846 2880 2964 2955 2821 2831 2887 2869 2899 2849 2722 2768 2877 2845 2779 2886 2931 2877 2857 2833 2945 2891 2783 2885 2776 2818 2885 2799 2798 2883 2889 2742 2751 2808 2918 2799 2902 2771 2855 2843 2894 2841 2849 2863 2897 2779 2683 2792 2833 2785 2726 2778 2770 2759 2756 2792 2865 2782 2799 2715 2757 2845 2726 2866 2733 2874 2746 2781 2790 2778 2804 2825 2812 2843 2743 2739 2739 2739 2836 2833 2808 2791 2766 2757 2784 2700 2695 2766 2870 2822 2764 2708 2713 2730 2768 2760 2741 2671 2761 2726 2731 2674 2802 2716 2692 2849 2688 2720 2819 2702 2704 2716 2671 2708 2780 2717 2719 2709 2639 2750 2757 2780 2718 2706 2717 2748 2632 2704 2659 2695 2704 2714 2620 2713 2708 2707 2729 2604 2635 2642 2648 2724 2648 2654 2662 2649 2646 2767 2635 2642 2687 2632 2679 2678 2697 2683 2767 2651 2628 2712 2554 2628 2665 2621 2590 2672 2663 2697 2596 2655 2579 2696 2650 2643 2559 2638 2659 2561 2628 2562 2633 2558 2622 2570 2666 2619 2594 2640 2572 2541 2588 2641 2564 2642 2688 2623 2575 2626 2651 2663 2623 2538 2540 2569 2545 2658 2722 2703 2518 2573 2593 2614 2646 2570 2496 2688 2582 2675 2561 2458 2647 2610 2655 2549 2656 2587 2644 2662 2607 2667 2523 2667 2634 2712 2665 2612 2700 2620 2659 2667 2634 2609 2610 2517 2723 2551 2573 2566 2560 2552 2571 2613 2526 2631 2582 2669 2733 2624 2624 2639 2711 2570 2644 2650 2532 2590 2645 2546 2668 2776 2552 2605 2571 2622 2560 2643 2529 2690 2684 2532 2606 2669 2524 2566 2628 2627 2618 2626 2638 2665 2617 2603 2613 2600 2595 2735 2581 2639 2610 2630 2678 2678 2515 2588 2656 2637 2590 2650 2640 2623 2614 2549 2637 2606 2585 2601 2551 2703 2609 2635 2741 2592 2536 2560 2604 2419 2570 2574 2604 2586 2656 2589 2653 2604 2581 2585 2544 2659 2758 2650 2602 2611 2528 2564 2635 2595 2575 2527 2617 2634 2527 2538 2606 2561 2518 2523 2400 2534 2571 2594 2529 2523 2572 2421 2608 2523 2501 2524 2470 2535 2456 2563 2505 2473 2469 2501 2417 2548 2427 2578 2543 2491 2521 2482 2397 2481 2471 2427 2398 2382 2464 2403 2492 2387 2436 2394 2491 2274 2453 2391 2438 2430 2416 2332 2505 2434 2350 2428 2370 2393 2349 2328 2335 2307 2351 2415 2384 2415 2367 2362 2322 2395 2368 2330 2359 2353 2339 2326 2350 2258 2383 2329 2373 2263 2331 2355 2281 2200 2284 2232 2272 2261 2272 2252 2280 2260 2285 2262 2233 2293 2225 2237 2243 2195 2228 2317 2185 2207 2262 2159 2219 2221 2129 2197 2262 2210 2119 2145 2259 2246 2195 2231 2157 2246 2153 2193 2099 2119 2121 2097 2204 2138 2174 2171 2117 2216 2057 2137 2120 2232 2075 2161 2054 2114 2075 2096 2067 2019 2140 2100 2027 2044 2149 2028 2101 2033 2112 2160 2091 2036 2058 2096 2030 2111 2053 2085 1984 2034 2154 2011 2029 2074 2080 2122 2071 2013 1995 2023 2023 2061 2006 2076 1994 2081 1989 2141 2016 2052 1998 1963 1874 1932 1970 1880 1995 1982 2045 1999 1962 2043 1949 2016 2027 2019 2063 1982 1973 1992 1900 1971 1954 2004 2008 1970 2011 2023 1989 1959 2016 1976 1970 1986 1853 1994 1898 1996 1957 1961 1914 1948 2025 2007 1950 1975 1939 2043 1894 1939 1926 1915 1917 1933 1923 1999 1912 1973 1903 1920 2048 1983 2031 1881 1865 1935 1932 1862 1867 1927 2022 1941 1963 1935 1990 1983 1888 1976 1939 1991 1902 1890 1896 1982 1993 1941 1966 2038 2008 1945 1971 1952 2023 1978 1933 1965 1903 1997 1988 1934 2037 1917 1981 1970 1982 1949 1959 1974 1857 1937 1957 1917 2033 1970 1934 1988 2005 1912 1936 1968 1974 1990 2003 1963 1950 1951 2025 1995 2035 2039 2016 1965 1964 1990 2029 1969 2009 1921 1952 1982 1980 2037 1926 2004 2036 1921 2008 2035 1930 1967 1913 2048 1907 2037 2031 1965 2026 1918 1965 1937 1989 1971 1917 1944 1940 2029 1997 1916 1992 1902 1978 1914 1949 1918 1941 2001 1856 1934 1989 1987 1997 1931 2007 1949 1920 1910 1939 1902 1892 1895 1973 1895 1976 2013 1970 1944 1842 1919 1929 1980 1976 1874 1976 1953 1867 1901 1924 1872 1935 1945 1917 1823 1986 1862 1913 1901 1893 1934 1979 1918 1955 1912 1857 1907 1915 1902 1885 1850 1805 1878 1955 1757 1875 1852 1933 1856 1815 1787 1829 1841 1815 1858 1860 1877 1771 1900 1767 1800 1880 1776 1874 1813 1880 1965 1841 1802 1798 1888 1859 1892 1788 1886 1822 1795 1812 1815 1714 1780 1767 1779 1788 1738 1805 1755 1885 1833 1799 1826 1796 1744 1793 1723 1724 1768 1710 1724 1759 1741 1866 1695 1833 1748 1775 1720 1671 1758 1726 1729 1738 1666 1708 1769 1690 1708 1718 1718 1740 1630 1779 1665 1692 1711 1739 1661 1766 1668 1603 1742 1653 1632 1751 1682 1719 1666 1666 1704 1744 1710 1713 1759 1612 1671 1629 1634 1794 1692 1697 1730 1636 1649 1745 1731 1821 1775 1829 1734 1798 1781 1726 1768 1876 1833 1825 1974 1961 1991 2021 2018 2143 2140 2227 2283 2306 2444 2468 2452 2494 2517 2603 2622 2606 2624 2682 2591 2572 2507 2606 2491 2399 2317 2282 2170 2217 2167 2161 2054 1963 1949 1929 1971 1876 1926 1795 1794 1765 1749 1730 1681 1637 1629 1635 1680 1669 1634 1600 1645 1658 1570 1576 1593 1586 1620 1558 1593 1603 1571 1502 1519 1553 1525 1559 1576 1562 1529 1532 1569 1565 1481 1500 1534 1530 1537 1534 1519 1533 1611 1564 1499 1514 1571 1484 1520 1556 1542 1549 1502 1607 1593 1500 1561 1462 1611 1561 1590 1585 1561 1551 1612 1579 1551 1653 1589 1636 1614 1644 1737 1666 1800 1798 1873 1887 1914 2085 2158 2320 2453 2502 2507 2766 2849 2862 3053 3149 3255 3368 3497 3514 3644 3612 3634 3614 3489 3473 3349 3440 3255 3070 3106 2914 2829 2713 2669 2594 2446 2353 2321 2290 2203 2110 2153 2012 2023 2003 1924 1934 1811 1807 1833 1759 1691 1730 1706 1723 1626 1748 1711 1754 1664 1725 1687 1713 1733 1817 1804 1790 1798 1766 1819 1821 1838 1944 1901 1927 1849 1935 1974 1897 1958 1831 1874 1845 1836 1821 1811 1675 1715 1743 1629 1577 1625 1619 1540 1518 1562 1571 1560 1474 1460 1457 1402 1443 1467 1434 1375 1407 1470 1396 1401 1393 1341 1330 1361 1402 1361 1387 1373 1324 1324 1283 1410 1358 1339 1392 1390 1343 1338 1316 1322 1302 1361 1294 1356 1343 1262 1314 1311 1303 1379 1326 1341 1330 1381 1353 1326 1270 1297 1319 1400 1357 1405 1337 1338 1344 1359 1321 1360 1332 1317 1308 1333 1341 1302 1212 1325 1329 1251 1263 1346 1301 1321 1231 1267 1304 1340 1406 1266 1280 1281 1332 1331 1295 1307 1336 1316 1331 1272 1314 1312 1364 1321 1237 1357 1309 1357 1278 1296 1325 1305 1304 1249 1300 1257 1268 1253 1337 1366 1181 1304 1260 1280 1216 1252 1317 1285 1234 1312 1260 1296 1266 1327 1368 1357 1349 1356 1408 1394 1368 1403 1399 1353 1382 1424 1480 1467 1421 1379 1420 1424 1390 1398 1388 1373 1363 1324 1417 1342 1331 1320 1363 1323 1340 1281 1314 1356 1286 1317 1330 1280 1298 1206 1310 1317 1335 1279 1315 1287 1350 1224 1323 1300 1296 1272 1333 1289 1324 1276 1271 1327 1330 1329 1348 1292 1357 1302 1333 1288 1322 1337 1275 1301 1247 1257 1279 1265 1228 1220 1307 1224 1293 1320 1214 1259 1297 1301 1171 1284 1283 1176 1267 1221 1240 1243 1297 1234 1260 1255 1232 1223 1243 1230 1285 1208 1189 1261 1258 1222 1244 1235 1231 1239 1187 1249 1261 1258 1247 1184 1282 1270 1212 1239 1273 1348 1254 1271 1227 1237 1279 1311 1259 1239 1239 1320 1186 1233 1272 1276 1306 1236 1351 1266 1301 1326 1245 1297 1344 1307 1285 1256 1238 1338 1283 1361 1410 1320 1304 1345 1264 1261 1274 1290 1268 1274 1276 1263 1276 1264 1304 1265 1334 1262 1287 1284 1317 1283 1351 1319 1231 1343 1352 1316 1352 1312 1327 1396 1426 1372 1363 1422 1469 1379 1438 1394 1470 1431 1519 1512 1502 1520 1583 1648 1653 1707 1691 1703 1798 1870 1955 1974 2173 2300 2505 2573 2820 3191 3403 3570 3853 4198 4585 5043 5367 5662 6057 6298 6782 6818 6959 7428 7539 7751 7909 7711 7654 7686 7511 7404 6914 6634 6406 6006 5740 5444 5163 4798 4757 4437 4158 3989 3842 3570 3330 3297 3018 2983 2839 2670 2600 2501 2348 2464 2305 2257 2283 2133 2085 2000 2031 1953 1872 1897 1847 1904 1845 1819 1775 1738 1724 1761 1707 1706 1740 1634 1682 1679 1696 1580 1672 1594 1676 1639 1620 1507 1564 1535 1628 1556 1577 1544 1518 1559 1519 1506 1506 1429 1371 1333 1425 1374 1321 1280 1353 1276 1274 1277 1214 1311 1237 1226 1248 1197 1236 1272 1288 1257 1228 1179 1220 1170 1202 1235 1157 1225 1213 1202 1219 1205 1220 1193 1179 1217 1146 1157 1194 1180 1156 1196 1196 1201 1179 1141 1178 1202 1140 1230 1134 1180 1168 1144 1178 1165 1154 1144 1109 1168 1164 1162 1151 1140 1178 1166 1147 1162 1146 1099 1163 1094 1117 1103 1124 1157 1175 1156 1103 1122 1227 1149 1129 1119 1122 1254 1101 1115 1135 1159 1166 1161 1130 1117 1121 1086 1113 1107 1107 1069 1093 1012 1085 1172 1120 1128 1119 1109 1113 1131 1124 1112 1088 1044 1102 1104 1083 1052 1126 1117 1084 1118 1168 1113 1114 1121 1083 1129 1159 1139 1121 1113 1101 1134 1080 1173 1048 1096 1101 1079 1156 1050 1138 1079 1103 1104 1081 1090 1028 1072 1033 1064 1070 1156 1051 1098 1121 1066 1092 1073 1069 1102 1129 1086 1085 1071 1052 1108 1096 1028 1099 1123 1079 1127 1146 1047 1061 1092 1079 1123 1118 1124 1079 1063 1101 1082 1075 1094 1077 1089 1060 1099 1139 1083 1071 1010 1014 1061 1116 1059 1041 1034 1045 1056 1139 1153 1065 1114 1109 1119 1141 1080 1053 1159 1129 1178 1122 1213 1165 1164 1116 1176 1184 1116 1130 1134 1166 1083 1160 1091 1127 1080 1111 1031 1085 1103 1131 1043 1115 1063 1018 1028 1090 982 991 1069 1050 1035 1064 1067 1136 1104 1084 1034 1025 1028 1045 1062 1089 1063 1043 1045 1059 1034 1124 1036 1063 1046 1016 1066 1038 1028 1030 1091 1079 1121 985 1020 1042 999 929 1022 1031 1013 1056 1055 1031 1037 1080 1008 1049 953 992 1029 969 1030 1070 982 965 999 1047 1028 1036 1001 940 1014 999 962 1055 1047 1073 1029 996 1005 1004 1017 1077 980 1061 1020 1028 1062 1005 971 1004 1009 985 1009 1052 992 1063 1002 990 1026 964 998 1021 948 991 1052 1010 1050 995 1007 990 1012 1009 994 1019 1069 1053 957 962 969 998 1064 1079 1025 969 987 978 1012 960 969 1016 1026 910 1035 975 982 1004 1016 984 995 965 1002 1016 1039 1022 1013 966 1021 923 965 992 1005 1007 1007 1016 957 980 970 990 1054 990 1012 945 967 957 1042 990 969 974 915 966 924 1037 967 939 992 974 932 987 975 1011 949 961 971 1005 969 1041 924 991 957 992 939 953 928 931 999 957 974 980 992 1052 979 967 995 955 977 1006 916 1002 1023 952 975 1020 959 1026 969 967 943 970 981 964 983 1002 978 964 908 988 954 1024 988 920 1005 970 1032 982 984 953 988 948 1011 923 936 973 983 907 913 1031 963 1020 1023 1005 983 1044 1006 985 1008 979 1013 969 967 1003 987 979 1011 1009 964 977 985 996 994 972 1011 983 898 1005 964 974 966 919 970 967 957 935 1030 960 917 948 929 967 926 954 965 924 1003 926 1012 975 936 940 954 948 969 973 917 985 989 964 1003 962 1018 945 960 981 917 932 942 990 958 939 960 977 957 932 960 1004 947 997 988 932 944 904 1037 882 1023 945 984 873 980 959 1041 972 1002 949 914 964 991 957 987 929 1008 951 903 1019 1009 1027 999 1025 1011 954 1011 990 981 998 1079 1018 1098 1040 1094 1087 1126 1086 1051 1139 1078 1121 1105 1068 1058 1089 1083 1085 1032 1093 1049 1019 1002 1071 1052 986 1014 1023 1010 973 984 992 925 1051 990 971 989 1007 976 917 985 980 961 946 955 1010 907 983 908 1001 1013 967 980 964 980 928 972 940 947 960 972 976 938 995 1004 930 989 989 995 962 962 891 1020 934 956 900 960 976 975 956 949 938 925 911 931 957 952 918 911 946 951 970 917 902 971 923 967 940 899 897 977 916 951 991 874 987 936 971 975 913 924 960 914 946 908 962 966 961 954 993 916 890 950 985 940 923 954 925 948 891 935 931 994 996 961 959 939 962 928 928 951 872 993 874 975 949 955 930 940 949 954 929 1017 954 918 934 922 963 935 913 929 947 953 933 944 948 930 936 953 895 913 926 888 977 917 941 985 903 900 988 934 923 972 935 963 986 905 925 917 927 965 945 927 933 926 916 906 937 959 884 869 943 899 904 994 930 941 890 961 938 900 970 931 925 923 995 898 979 940 887 887 984 956 979 931 947 932 936 966 941 965 925 908 998 978 992 899 964 951 931 943 976 911 929 951 955 947 973 937 958 907 917 955 952 913 937 1012 996 881 944 958 966 941 978 948 1005 916 931 934 947 952 978 959 964 986 947 907 974 987 994 979 948 1050 987 952 1018 996 983 970 1018 986 1065 996 1003 1005 1156 1092 1114 1164 1132 1147 1222 1179 1304 1357 1280 1370 1492 1429 1497 1609 1585 1594 1583 1600 1575 1653 1592 1559 1536 1475 1471 1501 1413 1428 1430 1421 1392 1346 1253 1262 1195 1214 1190 1150 1067 1144 1013 995 1070 1038 1009 998 1037 1042 1076 985 976 970 928 964 935 976 962 975 938 976 960 1000 1006 947 988 968 926 928 915 950 956 992 996 936 918 986 910 952 991 982 919 985 982 1006 989 931 984 1034 916 966 955 940 933 948 974 984 958 936 975 945 945 915 973 969 989 935 950 953 959 963 1016 992 976 935 1000 961 943 934 924 958 908 957 980 911 915 908 936 918 927 921 904 982 930 869 888 952 899 948 1017 908 909 954 905 960 931 902 934 873 863 910 876 900 825 936 884 889 906 892 914 917 910 873 950 892 923 875 865 870 896 935 901 907 892 937 854 956 868 889 897 892 910 933 926 860 841 917 929 925 876 892 922 935 907 919 884 889 864 936 871 904 943 879 916 850 914 918 905 918 900 978 945 850 895 921 930 898 856 883 925 921 914 947 973 942 923 928 910 915 904 946 927 925 924 901 920 939 923 928 952 904 910 856 936 944 927 888 923 925 890 887 909 920 954 870 931 978 979 965 986 943 1002 929 989 954 879 955 907 923 856 931 926 910 875 923 870 976 940 981 868 935 943 908 939 912 892 900 909 956 856 917 938 899 965 880 944 955 940 946 889 944 890 955 940 940 944 974 906 980 906 967 934 910 877 936 903 952 925 897 973 883 954 896 897 922 938 912 954 925 972 905 992 919 962 968 977 889 917 978 944 953 944 935 969 924 969 979 905 945 1002 953 1000 973 939 906 941 983 993 945 996 996 1013 1034 1076 1045 1034 1055 1008 1024 1016 1064 1026 1077 1090 1062 1045 1180 1162 1192 1111 1142 1182 1171 1237 1280 1440 1455 1439 1616 1716 1885 1948 2131 2278 2547 2724 2915 3137 3333 3524 3800 3972 4368 4441 4630 4556 4739 4743 4592 4567 4610 4583 4345 4296 4158 3910 3908 3686 3655 3472 3178 3278 2867 2793 2605 2449 2336 2238 2046 1919 1784 1739 1624 1572 1549 1432 1504 1314 1411 1307 1277 1282 1251 1236 1233 1149 1195 1162 1213 1229 1134 1113 1143 1066 1101 1082 1040 1057 1092 1023 1135 1127 1103 1055 1032 997 1061 1038 1098 1063 1034 1019 1045 1057 1007 999 1059 1051 1089 967 1004 1009 1029 1015 1025 1079 1072 1038 1097 1101 1097 1088 1067 1086 1067 1109 1106 1077 1052 1140 1141 1143 1110 1164 1148 1092 1160 1112 1085 1087 1195 1088 1019 1077 1118 1068 1079 1036 1059 1061 1012 1019 1018 1052 1057 958 959 977 1031 967 930 964 939 940 925 922 912 935 928 934 953 926 961 874 894 959 911 918 935 968 935 940 962 860 949 968 919 850 955 890 899 829 916 916 885 919 833 909 868 882 891 932 878 911 872 922 931 930 911 867 881 843 872 899 859 879 900 853 935 963 880 896 925 823 897 888 869 919 909 907 897 942 934 917 911 913 910 935 938 978 968 989 994 989 970 1007 1072 1082 1130 1091 1186 1168 1106 1202 1147 1165 1174 1291 1285 1267 1266 1255 1230 1259 1279 1251 1239 1220 1199 1212 1227 1149 1096 1159 1101 1100 1067 1070 1067 1048 1011 994 1062 1011 965 1015 906 967 905 934 915 884 892 906 915 868 899 909 900 912 853 890 900 859 878 840 870 903 855 850 839 939 935 864 850 927 874 854 825 838 868 846 883 906 877 853 871 856 844 860 833 854 825 835 828 869 833 883 851 823 871 814 838 834 850 904 826 828 902 851 869 848 852 777 798 854 819 850 809 813 848 821 830 836 819 850 844 826 811 834 855 862 871 835 846 846 861 841 810 850 885 824 809 855 887 867 869 827 847 857 855 862 877 844 795 883 844 848 839 866 881 868 848 816 888 838 891 899 838 871 848 869 845 882 870 806 816 830 818 790 809 777 844 806 851 893 852 857 851 818 820 847 846 869 862 845 896 875 795 874 820 801 828 843 817 869 836 813 830 810 790 795 880 841 900 864 823 863 820 833 869 811 839 812 889 820 855 838 832 835 783 834 852 851 851 870 825 797 875 837 837 834 841 861 808 812 857 851 841 868 840 826 868 808 828 851 848 867 832 768 821 851 817 847 803 863 806 881 830 835 823 806 888 870 876 807 884 842 871 798 866 848 825 846 872 832 851 869 868 891 889 901 935 907 848 874 917 914 914 883 871 892 923 884 950 931 861 922 884 845 860 889 869 896 829 893 897 857 873 920 849 835 823 853 919 894 889 864 884 886 881 886 842 886 821 840 810 826 839 837 799 824 832 848 810 833 833 810 812 881 798 818 858 814 738 810 802 800 843 882 797 792 849 782 845 807 809 818 751 770 783 850 762 836 807 814 795 841 867 784 810 832 859 796 850 811 837 805 799 789 819 807 766 803 821 837 783 831 767 831 794 883 814 824 791 792 840 794 839 814 839 793 836 814 836 791 818 811 747 813 870 823 819 785 794 834 826 807 797 829 768 857 809 836 760 793 808 836 828 810 799 810 855 813 834 778 830 797 814 792 847 797 823 792 808 832 784 819 810 767 781 790 763 852 840 826 803 786 807 760 763 830 763 836 824 854 760 799 835 813 855 800 808 792 851 784 812 804 830 786 841 743 797 762 859 752 836 835 824 788 843 809 816 814 832 801 762 790 768 824 749 749 799 782 833 794 850 841 810 818 833 799 814 822 792 787 854 807 789 782 806 851 806 829 803 792 865 795 827 776 787 820 811 765 792 803 838 759 785 794 799 784 786 830 817 805 861 835 780 855 866 801 825 860 859 877 843 856 875 881 843 909 872 900 930 885 868 875 949 818 914 874 925 908 893 895 906 889 894 858 891 849 887 854 866 925 937 901 839 794 866 795 880 810 832 882 819 821 850 783 887 865 856 853 806 828 828 865 886 827 886 824 817 873 852 898 886 863 883 909 985 986 982 1033 1031 1079 1049 1089 1130 1181 1141 1209 1192 1197 1201 1250 1206 1246 1215 1187 1191 1176 1176 1131 1139 1106 1123 1133 1092 1154 1080 1009 1046 1026 972 961 1013 934 924 969 918 916 885 881 884 865 834 900 857 817 862 856 842 851 801 871 828 831 805 814 823 888 803 849 828 834 790 848 848 888 901 814 773 818 820 831 857 800 878 840 806 791 835 782 800 837 806 809 790 819 803 794 828 789 880 799 864 809 843 793 798 825 754 818 813 804 809 836 862 822 795 852 862 874 791 858 858 864 849 859 863 825 871 837 866 896 857 870 850 894 827 834 881 883 824 842 812 865 849 814 795 886 866 873 858 837 894 884 812 849 812 827 766 785 805 893 826 832 815 839 792 823 763 796 844 861 841 807 779 827 847 774 827 814 800 787 837 772 843 852 786 805 791 826 826 817 783 807 803 811 813 819 772 864 768 811 804 824 793 771 799 799 762 820 810 770 802 814 734 848 834 709 818 797 854 805 826 774 781 834 769 816 838 798 788 834 798 805 817 780 784 829 811 769 796 879 771 843 837 832 850 832 801 863 777 846 837 818 878 848 840 840 862 840 829 939 903 919 888 901 962 923 942 1016 1120 1120 1126 1137 1191 1348 1336 1372 1456 1499 1553 1499 1558 1598 1528 1634 1617 1519 1564 1557 1520 1492 1487 1525 1413 1467 1317 1343 1365 1323 1323 1316 1264 1289 1224 1199 1182 1116 1093 1045 1043 1035 991 1022 969 964 947 872 881 947 963 871 846 844 887 906 886 911 892 838 883 882 867 812 829 879 786 854 802 825 816 736 811 794 774 812 785 806 791 808 836 801 831 805 835 772 825 811 795 826 811 804 808 833 769 840 773 795 807 805 820 768 725 785 762 841 828 837 799 861 768 806 796 828 806 809 835 827 757 855 789 850 870 797 821 805 852 794 827 793 848 804 808 887 843 888 841 838 868 899 886 884 876 884 853 909 943 906 949 1003 873 864 829 846 845 874 847 862 843 883 857 802 862 830 802 807 829 812 846 790 826 807 772 834 825 760 752 805 794 797 776 801 801 751 811 899 812 833 807 840 813 853 806 836 815 897 910 907 879 954 896 956 957 993 938 918 971 972 919 945 971 939 955 954 985 936 935 901 895 905 853 900 884 874 875 863 836 853 862 879 859 828 800 836 760 781 812 825 814 746 794 789 799 803 814 755 798 793 761 791 817 795 750 786 785 762 805 795 772 789 770 704 766 782 824 760 755 774 784 821 772 838 774 766 736 755 726 796 759 733 756 770 750 752 779 725 745 733 716 756 725 740 745 773 768 731 749 761 771 719 757 746 780 757 794 711 711 731 755 756 768 735 708 755 681 797 813 772 750 753 772 770 740 766 762 762 775 736 772 782 737 752 782 774 761 774 761 763 760 784 750 746 741 789 747 780 713 742 722 767 758 780 738 796 775 799 756 766 718 781 726 749 741 748 755 784 718 784 721 704 779 762 761 738 793 753 739 766 787 725 781 709 736 714 701 767 784 778 740 771 751 802 705 753 731 761 760 758 767 749 766 781 752 771 715 753 733 761 723 750 753 742 737 788 757 743 779 758 781 723 736 735 726 749 733 729 740 739 729 772 718 741 719 726 740 770 717 741 735 744 755 782 759 722 752 743 692 806 744 726 702 739 794 717 744 724 707 756 709 731 752 787 716 742 810 738 738 727 774 771 722 705 774 768 729 779 760 714 749 701 718 769 729 747 755 748 739 724 758 701 735 718 731 716 765 744 726 735 745 765 759 734 747 767 735 762 783 711 789 730 736 747 782 755 761 795 696 755 745 767 740 700 751 711 751 698 720 741 732 723 722 735 758 757 773 734 747 699 714 707 744 683 735 745 721 738 738 734 746 718 746 722 724 764 705 753 751 759 718 705 685 738 768 728 715 750 759 722 763 734 746 722 714 763 729 747 712 737 755 737 740 778 714 711 729 745 710 797 732 734 697 763 708 741 737 767 713 748 747 736 708 778 751 738 758 726 718 733 786 715 749 771 742 706 744 750 708 728 755 758 738 667 722 746 742 736 686 745 759 704 730 785 717 711 763 719 721 737 755 711 736 776 719 734 720 704 706 750 720 709 747 723 735 722 737 714 768 738 715 710 711 725 733 747 721 814 736 760 785 690 732 761 774 718 768 755 764 747 712 706 768 712 789 763 776 728 714 785 745 791 752 758 756 759 853 800 795 795 842 860 851 848 828 849 854 853 861 897 837 883 781 802 783 818 843 782 801 776 780 793 789 785 797 805 814 803 783 733 795 788 781 773 765 771 765 707 784 711 777 740 770 785 729 813 758 765 741 710 755 730 771 722 706 754 751 746 656 750 711 738 697 741 732 760 739 727 776 776 730 742 713 768 735 739 711 760 736 731 758 718 727 732 716 767 711 750 724 747 778 672 711 751 718 739 734 713 782 696 778 771 714 728 725 694 790 720 758 741 689 754 730 744 697 765 761 698 735 736 756 751 741 746 753 722 750 721 743 744 767 677 718 738 732 768 741 749 725 737 754 691 734 745 747 714 699 793 686 767 706 662 764 735 741 777 694 748 739 689 721 731 710 720 736 722 712 715 733 727 731 739 724 694 749 682 690 734 675 743 700 746 729 724 728 667 734 813 682 725 708 700 699 726 770 678 754 736 752 711 742 705 780 677 707 715 774 709 720 710 723 734 708 714 744 686 732 717 727 697 717 726 683 790 715 748 780 719 755 747 705 722 782 739 774 693 742 728 712 732 698 669 754 710 708 709 737 695 740 763 731 709 687 742 750 695 760 757 740 759 778 749 770 745 752 764 792 741 735 715 759 754 712 797 808 727 747 817 802 789 746 761 762 763 750 775 800 756 851 852 792 837 809 854 876 839 850 873 941 954 924 976 1001 1038 1000 1048 1042 1062 1034 1020 1069 1057 998 1008 1063 1016 966 927 933 1038 994 951 968 1011 937 920 930 943 902 896 876 910 878 885 863 801 886 906 854 817 816 789 826 801 817 819 756 765 781 748 804 764 753 761 753 762 760 721 699 789 746 769 751 768 787 802 748 735 766 696 777 804 716 775 758 764 756 739 720 810 755 749 780 769 775 736 759 786 752 727 703 734 767 725 747 742 731 798 759 746 738 723 737 769 730 734 730 759 716 718 734 728 727 773 776 745 729 715 712 719 765 767 748 737 753 721 759 766 732 717 715 770 729 749 721 718 716 768 712 707 752 711 717 788 726 750 759 774 758 723 686 686 719 716 725 762 741 732 705 719 764 741 782 767 718 682 750 683 729 733 749 714 729 712 726 704 758 712 713 722 741 728 770 661 720 747 716 677 659 747 705 713 743 723 768 737 734 736 715 732 739 696 717 739 700 733 691 686 712 716 720 729 713 704 686 758 705 671 747 693 741 785 719 759 709 712 744 726 727 753 705 740 721 735 721 675 724 735 738 742 766 742 736 707 751 739 743 694 759 760 746 710 755 714 753 671 744 713 781 734 679 692 723 728 735 681 679 732 684 729 734 710 754 696 743 778 737 723 741 692 729 657 765 737 726 695 722 696 777 747 741 724 698 717 701 700 732 719 686 737 715 738 690 745 730 744 705 694 716 733 700 735 667 690 709 700 759 739 717 723 698 732 770 731 736 755 699 696 734 701 723 719 701 757 716 731 721 715 707 743 746 745 734 729 695 741 708 697 696 710 721 719 718 709 730 701 684 749 730 715 714 737 711 730 726 712 679 750 719 692 685 718 737 739 669 750 702 671 694 734 721 799 712 707 687 714 770 719 713 707 761 757 753 781 698 706 696 675 734 695 694 684 733 748 722 746 703 730 715 740 763 718 756 683 693 702 699 715 750 759 704 712 687 749 750 691 747 757 725 727 737 707 694 716 708 753 756 757 722 695 698 694 711 738 672 719 717 673 747 708 794 685 759 701 769 748 726 671 721 698 748 687 740 676 738 720 779 707 759 728 709 719 730 763 697 685 744 727 707 721 747 739 731 695 737 699 713 718 744 732 748 670 717 719 714 705 737 716 745 737 741 730 698 740 699 705 745 692 703 718 648 700 738 690 672 729 717 713 729 681 756 693 749 699 743 731 713 759 682 687 768 690 713 712 752 702 685 708 756 710 725 728 714 719 704 691 715 678 739 732 686 728 709 727 679 684 718 669 733 732 729 749 699 748 742 756 704 734 761 744 697 729 719 712 733 726 709 728 703 692 687 747 700 721 770 745 670 740 742 773 735 703 713 769 745 710 725 732 736 673 687 707 702 726 700 773 753 688 734 773 739 718 779 733 775 683 757 709 684 759 740 714 735 689 763 764 739 802 730 705 706 714 709 741 685 726 761 738 760 758 707 751 762 762 753 776 809 775 802 842 795 759 839 800 811 813 811 806 791 788 776 806 820 817 789 781 763 812 788 839 768 777 783 811 832 814 808 769 789 770 792 829 803 759 717 778 782 809 754 784 750 776 725 738 776 770 733 796 777 808 785 763 837 817 799 837 839 808 853 867 890 916 873 889 851 885 829 849 820 796 807 846 871 815 836 788 793 831 769 826 762 837 783 812 826 834 829 809 836 779 813 773 802 796 768 767 765 799 782 750 702 762 737 716 762 757 755 742 727 697 762 767 777 777 736 712 722 755 759 753 741 753 746 784 754 751 731 754 777 727 783 726 723 779 746 779 729 707 714 772 700 710 752 720 705 745 767 715 743 775 731 764 786 752 727 794 753 739 738 709 735 701 797 778 759 744 759 690 759 691 727 808 765 716 723 709 725 744 741 769 721 738 756 794 698 732 742 740 710 768 712 732 725 806 761 735 757 733 769 742 757 746 810 777 774 760 729 781 698 737 821 771 766 766 761 788 794 723 724 725 862 780 730 755 764 829 767 776 775 791 783 825 770 772 795 820 816 815 786 774 838 839 821 822 854 798 856 822 817 838 817 793 784 842 754 804 784 799 781 839 831 860 807 847 842 816 797 818 832 803 844 886 874 847 895 930 919 948 976 988 1077 1022 1056 1110 1197 1209 1312 1358 1336 1426 1457 1454 1471 1482 1412 1370 1355 1438 1416 1345 1348 1338 1343 1210 1269 1211 1209 1180 1246 1163 1240 1260 1245 1260 1226 1203 1166 1223 1186 1187 1138 1108 1137 1051 1080 1013 988 978 963 903 926 907 900 882 885 869 898 888 811 842 851 854 789 779 831 814 776 810 792 779 803 783 783 771 791 761 736 774 810 787 765 772 758 791 786 712 779 724 753 744 735 729 741 737 774 748 739 790 775 745 762 762 724 756 804 764 733 754 762 782 750 769 743 726 818 759 753 743 773 760 720 747 775 765 717 745 763 797 790 796 744 762 775 773 782 775 774 813 715 756 762 710 773 789 781 716 742 761 772 773 759 753 816 713 823 714 776 758 779 770 820 815 777 799 816 797 801 765 774 745 857 810 856 872 819 770 865 833 855 875 897 894 864 867 812 882 848 824 843 826 842 817 784 790 825 839 882 814 848 840 843 790 829 772 822 830 839 808 821 791 785 806 761 827 752 758 810 782 780 783 787 778 758 788 741 755 767 731 775 795 801 802 770 715 767 726 772 768 715 726 732 678 759 750 733 748 725 732 763 777 738 753 819 765 757 744 717 732 723 729 734 721 743 726 706 723 728 741 721 768 738 722 692 743 739 755 703 710 770 733 729 715 694 704 761 702 679 727 726 726 714 707 737 741 709 744 794 731 705 683 703 717 708 726 727 717 694 765 728 742 663 684 686 715 716 660 750 724 722 741 764 757 731 710 752 741 744 749 753 725 727 736 711 745 704 703 735 675 712 751 697 659 753 706 731 710 687 723 726 746 691 751 735 771 761 721 688 723 735 731 723 753 711 692 700 744 736 713 713 694 764 707 709 727 698 745 712 736 740 716 688 733 746 749 727 742 727 743 713 722 724 732 675 733 721 727 726 731 699 716 717 752 702 735 722 661 730 745 708 711 679 718 718 748 729 732 639 724 753 708 732 736 741 729 699 755 713 699 697 710 685 704 708 740 753 717 727 738 730 730 691 726 750 745 718 757 711 758 788 694 680 679 683 705 724 686 684 686 708 734 687 719 711 689 651 721 718 710 711 707 691 677 705 699 644 677 710 681 720 708 745 724 792 740 713 707 672 715 770 709 728 684 740 686 670 711 706 679 744 731 684 745 719 753 709 727 682 735 741 662 727 723 767 718 702 727 721 675 723 757 727 745 747 699 744 738 671 738 756 708 688 735 726 752 729 722 739 724 739 754 720 741 682 746 757 742 737 768 725 763 704 763 690 711 667 802 781 749 750 728 785 687 784 707 706 707 750 668 727 694 717 699 720 713 718 727 695 698 722 729 712 689 708 718 716 731 706 687 714 708 747 715 728 717 719 747 744 726 724 687 723 671 741 711 680 755 737 740 721 736 732 726 708 708 761 743 760 708 728 710 714 743 710 719 725 742 720 719 675 747 764 786 790 774 814 799 782 804 738 775 788 760 784 842 775 826 783 789 772 770 738 762 742 725 788 741 731 814 816 763 760 799 742 765 779 758 789 721 723 751 807 761 749 752 696 747 744 744 717 717 720 748 720 714 755 738 692 718 697 740 739 724 732 736 729 748 707 691 744 774 685 660 724 697 761 732 746 720 703 685 728 712 784 761 746 734 725 700 710 683 718 741 710 724 703 693 733 693 756 720 711 724 747 686 682 720 704 718 758 661 737 705 732 775 729 718 741 692 714 709 735 703 728 747 720 760 746 710 752 787 708 685 716 732 720 723 717 739 715 691 736 702 696 751 731 701 724 735 695 705 738 729 729 708 696 725 734 692 720 732 701 700 724 714 661 735 748 752 733 733 701 739 753 749 690 694 754 708 724 755 739 675 697 683 695 693 723 695 698 733 732 745 708 709 739 711 714 750 705 739 733 748 654 688 781 712 736 669 716 721 695 712 779 697 757 670 737 685 734 702 690 767 712 723 690 735 731 740 718 693 701 696 730 743 757 729 738 768 721 729 762 768 681 728 737 708 715 736 779 754 755 731 737 721 705 717 748 758 789 733 763 754 777 731 759 743 780 783 797 755 738 813 847 749 788 806 855 807 849 856 893 894 918 977 1029 1039 1068 1111 1133 1097 1149 1206 1171 1228 1200 1170 1223 1145 1143 1214 1156 1134 1141 1058 1032 1009 1002 997 1016 955 1008 1007 989 1043 1009 929 1018 926 1019 1004 1008 1015 1014 974 1002 957 957 916 931 892 926 908 936 814 848 828 866 828 736 864 780 796 804 752 792 806 814 843 782 758 791 820 801 771 789 758 760 778 693 762 743 758 767 706 742 759 760 782 728 794 759 720 734 759 769 689 728 758 743 770 741 674 745 741 766 744 769 743 679 735 776 786 714 755 780 733 739 725 717 762 704 730 692 696 776 766 752 752 706 726 680 712 750 736 668 731 719 675 704 722 681 680 731 711 705 745 728 732 712 756 671 764 756 740 719 707 743 706 761 718 738 710 693 725 694 717 708 781 724 670 715 717 720 750 691 783 735 717 737 771 707 787 697 788 757 735 740 778 782 766 756 764 714 753 718 715 781 738 711 748 791 716 753 742 761 707 747 715 762 744 701 713 741 746 727 730 708 760 741 742 738 737 769 729 691 719 774 741 709 792 742 729 722 727 709 689 714 743 706 695 748 726 758 729 706 700 721 726 734 785 678 720 702 706 750 716 738 746 703 720 692 754 724 723 698 710 714 721 722 732 714 753 705 670 712 685 725 706 711 768 744 691 722 761 740 733 740 666 706 701 708 739 697 693 768 733 764 697 688 729 713 699 726 719 690 712 692 672 730 688 714 736 698 728 707 711 707 677 692 663 697 759 716 683 720 703 684 752 706 711 697 709 692 653 715 747 719 770 708 743 715 738 704 742 695 709 748 718 677 686 731 722 695 700 687 684 687 692 736 737 703 663 662 693 717 700 728 740 730 694 691 734 736 715 743 709 733 711 722 684 728 717 644 695 674 705 699 747 718 678 744 708 695 727 721 733 722 711 706 688 701 729 682 703 732 711 710 663 723 710 697 683 711 668 703 696 647 714 695 709 754 741 752 673 703 725 664 635 698 700 650 755 714 704 698 722 696 748 726 736 734 672 727 716 681 716 703 676 686 722 732 729 670 670 704 692 713 738 719 663 709 651 712 720 754 694 749 751 668 747 693 742 730 690 722 699 739 743 664 698 687 644 765 717 686 749 671 715 723 704 678 703 693 725 718 739 723 713 683 707 748 753 691 697 680 720 698 711 666 738 721 753 693 663 680 701 713 738 681 740 749 690 666 686 691 693 725 703 691 692 657 702 722 692 670 713 699 742 746 693 716 710 676 670 718 720 678 747 751 711 734 663 686 703 675 722 778 721 653 707 689 688 670 746 733 719 694 740 685 758 695 741 751 663 702 669 708 718 668 748 695 706 677 717 705 686 705 753 696 712 732 757 717 736 725 733 712 694 683 691 696 709 745 724 702 756 679 713 690 742 761 727 683 719 733 714 708 779 704 759 705 738 713 686 750 750 746 716 732 788 743 732 774 728 770 774 816 758 843 845 837 802 775 788 766 834 831 842 812 791 829 748 796 754 806 830 758 774 759 767 707 747 752 813 809 797 777 849 774 749 751 746 731 736 778 726 749 770 789 752 773 774 783 769 819 799 770 804 807 763 774 744 794 793 766 800 811 758 844 807 797 797 843 832 789 765 764 738 755 783 745 735 767 745 776 750 738 714 772 740 759 730 748 795 715 740 778 761 782 737 735 730 742 785 762 774 776 741 692 744 717 724 707 682 737 772 704 762 729 705</counts>
			</dataPoints>
		</scan>
	</xrdMeasurement>
</xrdMeasurements>
