<?xml version="1.0"?>
<xrdMeasurements xmlns="http://www.xrdml.com/XRDMeasurement/2.3" xmlns:xsi="http://www.w3.org/2001/XMLSchema-instance" xsi:schemaLocation="http://www.xrdml.com/XRDMeasurement/2.3 http://www.xrdml.com/XRDMeasurement/2.3/XRDMeasurement.xsd" status="Completed" recordIdentifier="{F6EFBDDE-23CD-4A5C-98BA-C1FF7AF27628}">
	<comment>
		<entry/>
	</comment>
	<sample type="To be analyzed">
		<id>GPSS_Li1p5Mg0p1Mn0p4Ta0p1Fe0p5Cl4_122125_69474145f4d05ae3d697aeef</id>
		<name></name>
		<preparedBy></preparedBy>
	</sample>
	<xrdMeasurement measurementType="Scan" status="Completed" sampleMode="Reflection">
		<usedWavelength intended="K-Alpha 1">
			<kAlpha1 unit="Angstrom">1.5405980</kAlpha1>
			<kAlpha2 unit="Angstrom">1.5444260</kAlpha2>
			<kBeta unit="Angstrom">1.3922500</kBeta>
			<ratioKAlpha2KAlpha1>0.5000</ratioKAlpha2KAlpha1>
		</usedWavelength>
		<incidentBeamPath>
			<radius unit="mm">145.00</radius>
			<xRayTube id="1010048" name="Empyrean Cu LFF HR (9430 033 7310x)">
				<tension unit="kV">40.0</tension>
				<current unit="mA">15.0</current>
				<anodeMaterial>Cu</anodeMaterial>
				<focus type="Line">
					<length unit="mm">12.0</length>
					<width unit="mm">0.4</width>
					<takeOffAngle unit="deg">6.0</takeOffAngle>
				</focus>
			</xRayTube>
			<sollerSlit id="21010002" name="Soller slits 0.04 rad.">
				<opening unit="rad">0.0400</opening>
			</sollerSlit>
			<mask id="22031000" name="Fixed mask 13 mm">
				<width unit="mm">9.00</width>
			</mask>
			<divergenceSlit id="22120001" name="Divergence slit 1°" xsi:type="fixedDivergenceSlitType">
				<distanceToSample unit="mm">50.00</distanceToSample>
				<height unit="mm">1.52</height>
			</divergenceSlit>
		</incidentBeamPath>
		<sampleMovement xsi:type="spinningSampleMovementType">
			<spinnerRevolutionTime unit="seconds">1.0</spinnerRevolutionTime>
		</sampleMovement>
		<diffractedBeamPath>
			<radius unit="mm">145.00</radius>
			<antiScatterSlit id="22090040" name="AS slit 9 mm (PIXcel)" xsi:type="fixedAntiScatterSlitType">
				<height unit="mm">9.00</height>
			</antiScatterSlit>
			<sollerSlit id="21020003" name="Large Soller slits 0.04 rad.">
				<opening unit="rad">0.0400</opening>
			</sollerSlit>
			<filter id="20030001" name="Large beta-filter Nickel">
				<material>Ni</material>
				<thickness unit="mm">0.020</thickness>
			</filter>
			<detector id="7010019" name="PIXcel1D-Medipix3 detector" xsi:type="rtmsDetectorType">
				<phd unit="keV">
					<lowerLevel>4.02</lowerLevel>
					<upperLevel>11.27</upperLevel>
				</phd>
				<mode>Scanning</mode>
				<activeLength unit="deg">5.542</activeLength>
			</detector>
		</diffractedBeamPath>
		<scan appendNumber="0" mode="Continuous" scanAxis="Gonio" status="Completed">
			<header>
				<startTimeStamp>2025-12-22T15:23:52-08:00</startTimeStamp>
				<endTimeStamp>2025-12-22T15:31:59-08:00</endTimeStamp>
				<author>
					<name>AutomatedUser</name>
				</author>
				<source>
					<applicationSoftware version="1.7b (136)">PANalytical Aeris Instrument Suite</applicationSoftware>
					<instrumentControlSoftware version="3.2.00000000 20240306">AERIS</instrumentControlSoftware>
					<instrumentID>950485</instrumentID>
				</source>
			</header>
			<dataPoints>
				<positions axis="2Theta" unit="deg">
					<startPosition>10.00943322</startPosition>
					<endPosition>99.99442286</endPosition>
				</positions>
				<positions axis="Omega" unit="deg">
					<startPosition>5.00471661</startPosition>
					<endPosition>49.99721143</endPosition>
				</positions>
				<commonCountingTime unit="seconds">12.495</commonCountingTime>
				<counts unit="counts">2899 2900 2997 2926 2952 2891 2984 2951 2989 2960 2849 2923 2958 2972 2999 2997 2927 2932 2991 2947 2976 2901 3110 2957 2954 3059 3064 3072 2906 2956 3004 2935 3014 2972 3018 2947 2894 2998 2870 3069 2981 3028 3039 2944 3009 2917 3006 2992 2967 2992 3113 3049 3029 2938 2935 3050 2855 2992 3089 3072 3058 3101 3140 3126 3100 3049 3051 3147 3003 2990 3128 3089 3165 3175 3038 3064 3039 3091 3052 2962 3108 3116 3212 3013 3089 3191 3085 3050 3089 3101 3073 3146 3078 3122 3126 3073 3088 3004 3148 3025 3024 3088 3050 3072 3119 2960 2959 3137 3011 3108 3060 2995 3028 2985 2955 3034 3062 3045 3131 2993 3058 3008 2985 3084 3050 2868 2893 3092 2987 2954 3038 2972 2979 3090 3097 3020 3020 3073 2997 3082 2884 2949 3034 2989 3101 2920 3024 3047 2892 2977 2999 2896 3013 2856 3006 2980 2996 3005 2950 2985 2884 3024 2903 3028 2933 2917 2938 2922 2982 3086 2999 3070 2977 2943 2978 2980 2960 2935 3029 2909 2843 2979 3014 3000 2888 2985 2973 2972 2992 3048 2944 2974 2986 2988 2892 3027 2980 2937 2943 2974 3019 2944 2981 2997 2882 2958 2967 2940 2979 2887 2916 2854 2987 3013 2920 3046 2963 2939 2978 3036 3003 2920 2969 2957 2949 2799 2879 2985 2977 2952 2955 3034 2893 2968 2758 2955 2859 2926 2917 2971 2853 2965 2897 2942 2946 2962 2997 2998 2979 3088 2978 2954 2928 2925 2916 2921 2852 2913 3038 2893 2977 2922 3091 2999 3019 2886 2934 2892 2923 2948 3013 3000 2885 2987 3062 2986 3006 3026 3105 3076 2948 3010 3113 2926 3046 2937 3126 3066 2927 2924 3003 3144 3061 3079 3137 3047 3105 3054 3036 3143 3126 3053 3128 3067 3029 3067 3117 3067 3123 3101 3075 3171 3145 3198 3211 3132 3158 3127 3171 3196 3189 3186 3135 3182 3228 3195 3237 3311 3230 3175 3173 3284 3147 3178 3210 3195 3156 3217 3355 3250 3219 3273 3270 3256 3281 3213 3213 3233 3332 3271 3286 3361 3314 3295 3310 3258 3409 3381 3343 3497 3469 3339 3371 3447 3513 3463 3379 3390 3401 3491 3438 3284 3458 3430 3441 3402 3516 3353 3478 3521 3464 3469 3493 3533 3492 3449 3417 3625 3456 3504 3609 3496 3605 3519 3554 3558 3582 3511 3599 3593 3509 3562 3508 3571 3565 3670 3612 3686 3599 3682 3597 3636 3603 3613 3669 3685 3682 3791 3700 3805 3712 3726 3734 3847 3875 3747 3825 3919 4005 3771 4038 4139 3932 4036 3962 4013 4174 4193 4154 4254 4231 4269 4220 4328 4353 4329 4313 4390 4309 4366 4264 4172 4063 4087 4064 3961 3927 3749 3808 3687 3670 3742 3709 3703 3640 3618 3621 3651 3604 3605 3595 3600 3692 3823 3783 3687 3706 3675 3726 3614 3640 3758 3773 3639 3775 3773 3602 3575 3626 3746 3506 3539 3605 3525 3503 3569 3438 3429 3335 3333 3389 3351 3387 3439 3419 3390 3369 3395 3412 3365 3275 3504 3380 3491 3380 3391 3343 3457 3363 3372 3310 3400 3357 3292 3296 3336 3317 3294 3386 3393 3368 3276 3311 3361 3282 3308 3264 3299 3119 3218 3413 3269 3239 3324 3330 3265 3218 3292 3177 3222 3152 3256 3262 3319 3167 3290 3136 3282 3155 3194 3098 3059 3193 3132 3130 3161 3178 3210 3104 3185 3210 3127 3084 3118 3245 3064 3172 3078 3171 3052 3066 3095 3016 3146 3136 3078 3057 3141 3066 3113 3111 3081 3079 3091 3057 3029 3084 2992 3034 3090 2985 2964 3162 3005 2933 3210 3067 2978 3025 2977 2978 3087 2979 3041 3051 3025 3054 3001 2939 3096 3022 3066 3063 3006 2887 3084 2886 3004 3001 2977 3073 2996 3033 2998 3111 3022 2876 3056 2956 3006 2994 2935 3007 3009 2917 2979 2944 3005 2931 3039 3044 2939 2939 2863 2988 2954 2990 3006 2942 2947 3007 2971 2952 2903 2954 2910 2918 2962 2989 2993 3019 2981 2916 2949 3002 2970 2980 2981 2850 2915 2891 3014 2855 2979 2936 2892 2957 2966 3010 2870 2997 2902 2922 2929 2880 2944 2872 2887 2921 2966 2942 2983 2876 2977 2908 2954 2966 3002 2957 2913 3015 2910 2897 2918 2919 2939 2935 2948 2989 2895 2880 3001 2941 2978 3011 2900 2938 2846 2854 2995 2853 2819 2962 2977 2872 2862 2789 2825 2918 2895 2889 2929 2987 2898 2824 2896 2868 2880 2942 2845 2969 2955 2792 2887 2827 2828 2910 2843 2922 2949 2834 2927 2933 2899 2923 2830 3014 2850 2925 2856 2883 2917 2804 2861 2878 2946 2894 2923 2822 2857 2845 2832 2887 2976 2882 2913 2770 2839 2840 2821 2877 2810 2904 2815 2871 2933 2831 2911 2817 2868 2812 2768 2921 2812 2795 2947 2838 2827 2789 2822 2848 2913 2826 2749 2828 2856 2814 2755 2681 2915 2867 2826 2840 2691 2801 2657 2890 2759 2833 2846 2826 2870 2788 2713 2853 2859 2802 2862 2748 2902 2756 2893 2893 2825 2869 2762 2761 2754 2797 2793 2870 2788 2728 2807 2936 2822 2745 2759 2789 2776 2755 2842 2755 2808 2788 2638 2778 2742 2782 2760 2810 2729 2780 2878 2802 2797 2819 2847 2776 2733 2783 2803 2775 2821 2817 2809 2664 2729 2744 2708 2712 2711 2685 2743 2685 2696 2704 2810 2812 2741 2772 2820 2762 2738 2691 2666 2686 2740 2784 2773 2713 2653 2701 2733 2607 2666 2716 2623 2665 2663 2734 2683 2742 2793 2716 2746 2748 2652 2729 2692 2737 2729 2746 2716 2707 2726 2641 2688 2702 2682 2669 2602 2721 2671 2756 2793 2700 2643 2720 2756 2705 2620 2757 2675 2648 2714 2742 2648 2715 2713 2747 2723 2750 2754 2643 2694 2627 2599 2640 2651 2717 2710 2654 2686 2700 2648 2670 2673 2772 2697 2732 2657 2744 2834 2765 2721 2758 2698 2664 2650 2725 2647 2708 2663 2663 2752 2739 2691 2693 2761 2766 2560 2695 2766 2728 2707 2757 2745 2745 2689 2694 2573 2645 2704 2625 2715 2744 2660 2627 2734 2740 2742 2692 2702 2679 2809 2755 2627 2678 2698 2661 2712 2757 2758 2736 2788 2757 2822 2711 2713 2691 2735 2747 2740 2672 2815 2670 2763 2751 2772 2598 2673 2743 2673 2726 2729 2675 2768 2691 2650 2657 2711 2655 2743 2764 2713 2743 2717 2744 2676 2747 2763 2816 2714 2723 2682 2719 2710 2782 2713 2759 2761 2685 2692 2658 2732 2789 2650 2759 2721 2721 2803 2706 2686 2722 2854 2808 2619 2814 2737 2770 2803 2669 2705 2743 2660 2753 2715 2651 2666 2676 2794 2739 2739 2707 2635 2654 2711 2734 2754 2791 2723 2683 2671 2620 2590 2662 2724 2675 2695 2710 2690 2748 2651 2763 2728 2540 2684 2653 2610 2689 2671 2658 2542 2622 2594 2601 2485 2579 2597 2641 2549 2540 2652 2723 2679 2537 2625 2549 2612 2498 2644 2602 2599 2568 2520 2581 2579 2619 2549 2547 2479 2541 2637 2630 2584 2624 2556 2575 2436 2518 2570 2517 2576 2549 2495 2485 2493 2502 2514 2507 2528 2470 2512 2506 2481 2492 2416 2401 2440 2405 2571 2470 2376 2518 2415 2415 2349 2418 2467 2405 2368 2385 2432 2417 2426 2434 2489 2560 2365 2349 2288 2331 2392 2395 2428 2367 2412 2413 2442 2345 2368 2335 2339 2317 2378 2364 2232 2406 2334 2282 2307 2362 2372 2383 2267 2361 2283 2316 2316 2218 2323 2337 2321 2369 2307 2301 2328 2297 2327 2272 2222 2250 2282 2318 2281 2282 2296 2253 2258 2267 2251 2270 2325 2225 2228 2321 2234 2362 2139 2220 2301 2229 2226 2184 2199 2144 2210 2057 2194 2219 2183 2139 2196 2228 2164 2185 2278 2261 2242 2202 2184 2168 2238 2283 2143 2229 2242 2149 2259 2190 2116 2251 2130 2206 2188 2203 2211 2235 2273 2149 2245 2181 2139 2079 2144 2174 2126 2227 2122 2195 2236 2156 2185 2174 2120 2093 2132 2174 2038 2113 2069 2142 2172 2194 2096 2129 2148 2158 2149 2202 2148 2159 2152 2138 2211 2165 2154 2165 2091 2244 2128 2140 2156 2089 2122 2075 2172 2190 2027 2092 2220 2108 2117 2202 2169 2187 2113 2154 2109 2118 2094 2125 2065 2137 2170 2126 2133 2085 2140 2122 2153 2129 2078 2132 2087 2140 2058 2171 2108 2179 2177 2236 2195 2080 2189 2138 2190 2162 2156 2194 2130 2106 2172 2170 2067 2092 2097 2141 2163 2039 2174 2158 2084 2170 2178 2205 2135 2125 2191 2178 2158 2206 2099 2135 2087 2172 2178 2206 2156 2177 2237 2139 2180 2263 2134 2138 2258 2202 2131 2180 2205 2105 2165 2132 2136 2273 2221 2276 2164 2182 2174 2193 2139 2146 2144 2182 2096 2125 2188 2163 2187 2136 2278 2169 2210 2191 2148 2174 2203 2149 2148 2240 2099 2144 2234 2142 2177 2164 2207 2168 2093 2193 2175 2217 2144 2095 2218 2187 2256 2157 2125 2135 2135 2228 2089 2090 2107 2078 2155 2101 2136 2189 2093 2169 2175 2176 2211 2120 2147 2138 2176 2096 2133 2166 2151 2175 2094 2142 2049 2142 2160 2186 2133 2087 2152 2071 2203 2121 2131 2241 2155 2028 2139 2083 2184 1963 2103 2002 2091 2056 2134 2121 2192 2024 2061 2137 2088 2061 2081 2024 2031 2116 2011 2097 2022 2077 2046 2089 2102 2160 2004 2001 2102 2052 2029 1976 1890 2058 1937 2063 2009 1998 2017 2056 2081 2031 2017 1984 2048 1978 2110 1980 1886 1961 1967 1940 1989 1982 1914 1989 1924 1934 1932 1985 1910 1952 1946 1985 1938 1970 1888 1983 1923 1934 1903 1862 1896 1940 1944 1935 1922 1863 1922 1860 1946 1878 1890 1996 1907 2004 1910 1873 1938 1913 1892 1884 1892 1854 1961 1921 1966 1920 1943 1890 1895 1874 1859 1909 1846 1922 1999 2001 1957 1848 1925 1906 1999 1895 1923 1894 1860 1932 1889 1888 1901 2006 1935 1890 1917 1902 1996 2024 1943 1990 1899 2027 1977 2059 1977 2102 2057 2121 2112 2090 2200 2217 2182 2241 2282 2305 2286 2371 2410 2440 2375 2459 2456 2446 2467 2371 2531 2469 2422 2473 2510 2381 2367 2340 2395 2255 2222 2133 2243 2190 2191 2185 2081 2125 2015 1967 2135 1984 2049 1993 2012 2065 1975 1937 1890 2039 2093 1972 2016 1936 1960 1893 1920 1880 1933 1883 1820 1926 1843 1850 1848 1817 1893 1878 1836 1876 1783 1810 1795 1778 1770 1810 1780 1701 1764 1804 1793 1858 1848 1804 1809 1814 1798 1732 1707 1757 1855 1806 1753 1736 1823 1765 1791 1839 1808 1789 1767 1812 1888 1800 1848 1826 1876 1905 1908 1876 1928 1980 1976 2082 2109 2043 2042 2218 2165 2118 2275 2355 2308 2310 2495 2496 2570 2576 2694 2643 2654 2780 2756 2810 2902 3031 3034 2946 3003 3029 3114 3002 2899 2969 2947 2797 2648 2607 2516 2517 2395 2377 2206 2183 2161 2039 2043 1957 2039 1969 1847 1859 1800 1822 1888 1835 1816 1826 1876 1874 1884 1846 1890 1830 1959 1795 1822 1783 1832 1754 1837 1750 1778 1797 1704 1717 1732 1690 1765 1708 1716 1674 1746 1680 1756 1692 1688 1661 1687 1650 1609 1678 1579 1715 1656 1667 1661 1687 1603 1710 1635 1657 1590 1622 1593 1713 1613 1629 1664 1671 1665 1628 1652 1597 1605 1580 1629 1613 1699 1582 1645 1673 1699 1729 1618 1632 1680 1631 1583 1636 1598 1688 1639 1623 1679 1615 1626 1687 1635 1623 1567 1742 1627 1510 1580 1618 1649 1594 1669 1619 1584 1652 1649 1693 1648 1591 1652 1626 1622 1610 1636 1572 1599 1595 1655 1570 1622 1627 1591 1590 1589 1601 1507 1648 1565 1515 1681 1560 1541 1577 1508 1564 1565 1561 1621 1612 1601 1602 1559 1587 1528 1639 1615 1592 1605 1537 1594 1522 1559 1613 1577 1579 1536 1572 1584 1538 1613 1526 1561 1537 1602 1636 1663 1586 1516 1583 1511 1529 1617 1703 1556 1616 1579 1628 1580 1612 1582 1603 1597 1649 1635 1640 1585 1613 1604 1629 1555 1591 1733 1634 1614 1605 1648 1682 1655 1613 1643 1701 1621 1624 1583 1639 1641 1745 1709 1694 1686 1669 1660 1773 1679 1729 1728 1661 1705 1759 1717 1829 1735 1813 1822 1814 1763 1850 1797 1884 1800 1874 1812 1895 1903 1905 1845 1926 1906 1900 1927 1961 1975 1911 1916 1877 1967 1908 1910 1899 1896 1930 1922 1866 1872 1870 1811 1842 1874 1868 1892 1804 1809 1838 1818 1844 1843 1837 1837 1858 1792 1857 1834 1728 1740 1817 1702 1714 1782 1731 1735 1762 1717 1710 1728 1686 1787 1660 1691 1715 1726 1759 1651 1713 1618 1644 1624 1710 1628 1707 1636 1616 1719 1682 1704 1626 1671 1618 1637 1672 1605 1647 1562 1589 1525 1586 1650 1579 1573 1609 1693 1664 1621 1645 1613 1608 1619 1602 1572 1574 1619 1583 1556 1613 1606 1604 1630 1602 1592 1566 1583 1580 1630 1686 1626 1633 1584 1658 1628 1602 1617 1579 1513 1586 1585 1644 1656 1608 1628 1648 1590 1602 1690 1593 1636 1627 1638 1619 1651 1681 1661 1692 1699 1723 1697 1828 1775 1746 1742 1898 1790 1927 1885 1867 2022 2032 2109 2219 2185 2385 2333 2397 2520 2656 2731 2856 2906 3060 3238 3472 3543 3576 3888 3921 4069 4300 4472 4523 4746 4768 5020 5176 5251 5370 5451 5441 5526 5428 5580 5425 5474 5300 5210 4985 4951 4615 4412 4186 3997 3745 3438 3354 3138 2909 2852 2740 2559 2410 2415 2190 2273 2224 2180 2073 2063 2046 2100 2098 2038 2143 2159 2019 2015 2100 1994 2008 2048 1982 2051 2135 2032 2079 1962 2041 2035 2116 2007 2005 1949 2019 1978 1968 1998 1938 1866 1889 1891 1869 1839 1912 1830 1801 1781 1834 1809 1839 1769 1804 1727 1688 1729 1699 1772 1646 1673 1660 1679 1695 1685 1640 1621 1641 1590 1625 1546 1594 1638 1539 1618 1587 1634 1515 1595 1606 1634 1632 1541 1619 1623 1593 1632 1562 1528 1575 1580 1547 1519 1602 1636 1592 1549 1470 1607 1586 1606 1544 1608 1586 1564 1543 1595 1574 1569 1533 1595 1587 1609 1538 1586 1571 1575 1577 1554 1632 1524 1479 1528 1568 1590 1564 1552 1512 1622 1566 1560 1517 1572 1494 1480 1524 1554 1477 1527 1546 1579 1576 1542 1525 1569 1592 1548 1536 1498 1496 1568 1559 1491 1558 1535 1486 1564 1513 1495 1550 1497 1510 1533 1543 1632 1491 1581 1525 1573 1529 1570 1482 1465 1441 1460 1476 1514 1466 1527 1493 1504 1516 1486 1440 1516 1503 1543 1456 1542 1495 1559 1497 1490 1457 1521 1454 1455 1494 1446 1465 1455 1515 1462 1502 1425 1496 1511 1459 1501 1516 1496 1484 1549 1522 1475 1447 1566 1549 1516 1483 1431 1534 1479 1523 1514 1495 1447 1468 1529 1567 1464 1533 1415 1490 1512 1450 1480 1418 1498 1422 1472 1486 1502 1434 1511 1512 1478 1552 1477 1491 1422 1519 1445 1501 1498 1447 1500 1502 1465 1386 1519 1439 1515 1484 1525 1533 1560 1508 1506 1515 1462 1496 1545 1490 1508 1568 1610 1481 1515 1567 1547 1497 1545 1554 1473 1590 1427 1524 1466 1520 1531 1468 1537 1465 1535 1468 1416 1433 1417 1511 1491 1447 1437 1443 1437 1464 1504 1461 1469 1450 1439 1446 1493 1426 1437 1483 1513 1488 1478 1470 1476 1479 1504 1445 1456 1455 1452 1502 1529 1481 1521 1385 1421 1500 1558 1509 1515 1527 1510 1456 1469 1457 1498 1522 1478 1442 1401 1464 1481 1456 1510 1397 1444 1407 1503 1428 1468 1474 1453 1471 1381 1428 1487 1427 1387 1501 1415 1472 1404 1464 1409 1456 1539 1445 1461 1466 1406 1479 1448 1408 1425 1431 1428 1396 1509 1453 1446 1407 1394 1495 1444 1486 1454 1462 1457 1398 1379 1402 1474 1503 1426 1479 1430 1464 1439 1391 1388 1413 1442 1339 1457 1373 1458 1454 1361 1470 1386 1467 1400 1430 1424 1438 1369 1437 1401 1421 1526 1400 1461 1465 1389 1409 1412 1402 1503 1444 1491 1445 1393 1416 1488 1349 1426 1367 1391 1379 1465 1335 1444 1487 1456 1449 1413 1424 1393 1414 1398 1488 1475 1507 1388 1522 1414 1380 1410 1405 1417 1377 1423 1428 1393 1422 1405 1395 1471 1480 1413 1475 1401 1430 1444 1511 1363 1354 1391 1430 1378 1433 1344 1427 1412 1482 1394 1443 1459 1424 1367 1449 1382 1460 1346 1410 1459 1516 1401 1434 1409 1470 1371 1368 1468 1455 1443 1418 1438 1404 1379 1420 1359 1454 1332 1401 1398 1366 1357 1439 1455 1395 1348 1443 1391 1399 1427 1403 1418 1428 1422 1345 1424 1362 1435 1470 1411 1403 1359 1438 1385 1377 1415 1431 1384 1369 1414 1432 1381 1383 1438 1457 1347 1451 1365 1423 1413 1431 1466 1483 1395 1383 1390 1433 1371 1416 1435 1391 1489 1353 1410 1406 1404 1411 1459 1390 1389 1481 1414 1445 1465 1365 1435 1401 1486 1361 1416 1371 1407 1376 1396 1448 1408 1384 1394 1333 1452 1426 1398 1463 1464 1386 1434 1442 1391 1371 1478 1496 1470 1406 1382 1347 1399 1363 1395 1375 1415 1403 1427 1412 1370 1381 1437 1402 1334 1394 1423 1390 1398 1448 1409 1412 1421 1388 1439 1400 1376 1403 1367 1377 1335 1409 1371 1396 1399 1446 1379 1393 1359 1395 1416 1409 1426 1393 1404 1436 1405 1411 1370 1443 1414 1402 1437 1396 1430 1399 1427 1450 1446 1437 1418 1343 1399 1425 1427 1387 1378 1360 1431 1415 1429 1344 1383 1368 1356 1417 1458 1380 1419 1443 1354 1394 1405 1352 1336 1465 1417 1412 1448 1392 1416 1463 1418 1368 1371 1375 1387 1376 1397 1418 1447 1330 1406 1456 1402 1420 1391 1388 1486 1446 1379 1427 1383 1377 1429 1439 1458 1384 1423 1385 1367 1400 1502 1349 1435 1386 1392 1324 1402 1467 1413 1396 1436 1396 1492 1469 1465 1421 1475 1429 1434 1352 1389 1428 1416 1440 1472 1370 1408 1394 1460 1362 1418 1395 1401 1417 1439 1389 1366 1369 1366 1390 1363 1396 1409 1376 1433 1411 1334 1442 1443 1420 1409 1434 1431 1360 1393 1344 1415 1395 1402 1428 1340 1413 1485 1418 1354 1413 1446 1388 1361 1389 1481 1363 1431 1460 1391 1397 1459 1479 1336 1450 1435 1378 1417 1491 1466 1426 1466 1457 1415 1377 1407 1491 1494 1435 1478 1464 1425 1407 1436 1404 1458 1519 1430 1410 1467 1407 1439 1401 1458 1483 1422 1462 1442 1462 1456 1417 1482 1508 1356 1380 1415 1419 1463 1393 1447 1492 1508 1397 1413 1407 1459 1430 1489 1468 1386 1493 1465 1427 1438 1421 1497 1508 1467 1472 1418 1508 1437 1488 1375 1398 1507 1423 1453 1427 1477 1439 1381 1419 1462 1459 1411 1388 1414 1480 1398 1437 1455 1389 1485 1463 1423 1451 1490 1439 1403 1453 1452 1456 1440 1464 1468 1384 1429 1489 1489 1465 1421 1472 1416 1409 1447 1376 1504 1444 1402 1497 1405 1476 1467 1463 1440 1497 1524 1479 1473 1499 1478 1471 1507 1564 1544 1462 1494 1629 1521 1576 1606 1580 1640 1625 1711 1722 1722 1802 1815 1839 1781 1785 1840 1781 1906 1979 1858 1976 1902 1884 1914 1945 1995 1931 1949 1959 1832 1845 1849 1845 1764 1821 1772 1723 1703 1714 1669 1679 1588 1595 1581 1568 1559 1551 1444 1469 1434 1467 1509 1533 1460 1456 1444 1389 1546 1432 1411 1469 1505 1450 1433 1501 1468 1436 1410 1425 1374 1439 1379 1443 1469 1448 1445 1337 1446 1475 1441 1440 1438 1448 1403 1423 1408 1430 1405 1434 1401 1452 1327 1430 1451 1456 1368 1409 1406 1407 1447 1492 1482 1468 1392 1439 1474 1433 1507 1429 1397 1462 1410 1422 1427 1461 1401 1461 1467 1464 1413 1475 1416 1442 1415 1487 1432 1409 1435 1490 1457 1458 1487 1487 1418 1444 1413 1451 1392 1401 1403 1441 1435 1355 1495 1336 1420 1435 1400 1407 1446 1400 1435 1466 1417 1410 1440 1399 1537 1427 1454 1453 1400 1409 1370 1398 1388 1404 1399 1445 1513 1424 1398 1473 1397 1446 1340 1450 1340 1413 1469 1386 1468 1437 1430 1437 1411 1365 1344 1441 1464 1346 1477 1423 1416 1380 1465 1359 1395 1442 1395 1489 1369 1435 1401 1499 1423 1407 1450 1381 1410 1460 1477 1402 1414 1438 1401 1404 1429 1402 1381 1353 1446 1451 1436 1409 1500 1389 1390 1452 1476 1423 1402 1450 1450 1437 1459 1453 1420 1436 1418 1363 1368 1446 1432 1488 1474 1498 1437 1427 1423 1405 1440 1418 1468 1506 1431 1527 1459 1492 1414 1408 1351 1496 1461 1492 1439 1422 1424 1407 1501 1427 1498 1389 1455 1429 1408 1419 1442 1445 1364 1465 1381 1425 1417 1421 1433 1362 1394 1311 1462 1464 1515 1442 1466 1443 1351 1472 1414 1440 1461 1399 1486 1470 1496 1435 1453 1492 1490 1407 1456 1426 1473 1472 1411 1468 1438 1430 1487 1370 1466 1408 1379 1387 1422 1497 1434 1430 1390 1475 1447 1500 1433 1437 1446 1375 1479 1387 1480 1519 1478 1490 1416 1465 1451 1443 1428 1522 1408 1489 1428 1509 1458 1503 1434 1528 1458 1462 1493 1486 1432 1501 1481 1521 1502 1542 1490 1439 1467 1536 1493 1515 1603 1553 1594 1539 1609 1638 1695 1580 1649 1679 1714 1651 1738 1792 1839 1901 1900 2004 1952 2119 2144 2222 2391 2441 2547 2585 2728 2816 2917 3048 3210 3352 3496 3551 3709 3739 4018 3873 4090 4236 4290 4354 4337 4412 4414 4444 4251 4347 4264 4108 4082 4001 3823 3542 3494 3300 3220 3110 3048 2949 2804 2681 2604 2472 2425 2214 2195 2043 2128 2006 1942 1950 1814 1875 1807 1815 1781 1772 1737 1682 1737 1811 1697 1772 1729 1706 1684 1674 1759 1794 1760 1716 1835 1712 1728 1695 1651 1694 1683 1744 1675 1735 1656 1732 1731 1732 1693 1703 1768 1630 1756 1615 1633 1665 1545 1618 1652 1600 1577 1621 1607 1577 1634 1563 1618 1610 1590 1597 1562 1446 1514 1567 1495 1521 1572 1556 1543 1513 1605 1506 1521 1596 1627 1548 1505 1577 1517 1565 1558 1587 1589 1573 1602 1585 1518 1594 1543 1571 1525 1511 1577 1476 1590 1510 1562 1576 1574 1550 1517 1513 1491 1510 1447 1515 1439 1565 1490 1471 1531 1507 1461 1511 1513 1493 1458 1473 1448 1431 1486 1459 1471 1363 1393 1457 1488 1446 1446 1434 1453 1432 1366 1447 1421 1447 1445 1438 1402 1476 1411 1482 1484 1452 1476 1476 1400 1480 1372 1408 1420 1437 1498 1374 1397 1488 1458 1385 1362 1456 1415 1476 1462 1411 1433 1391 1487 1407 1466 1465 1476 1517 1468 1465 1529 1488 1477 1546 1565 1463 1569 1539 1536 1608 1563 1537 1639 1571 1555 1667 1660 1620 1599 1631 1624 1733 1685 1711 1707 1797 1796 1737 1737 1730 1779 1648 1739 1656 1679 1641 1596 1707 1561 1668 1570 1554 1479 1543 1513 1500 1527 1517 1484 1519 1513 1453 1467 1506 1498 1516 1435 1393 1486 1485 1524 1400 1433 1444 1448 1480 1435 1409 1458 1516 1439 1509 1449 1455 1422 1460 1473 1540 1449 1420 1431 1458 1474 1490 1465 1419 1506 1504 1482 1431 1458 1422 1475 1403 1454 1488 1454 1423 1457 1554 1429 1453 1451 1475 1436 1451 1391 1443 1458 1402 1411 1363 1441 1427 1395 1423 1418 1452 1422 1410 1412 1347 1409 1356 1331 1446 1453 1411 1431 1370 1346 1444 1339 1424 1355 1387 1415 1394 1393 1451 1387 1371 1389 1361 1432 1406 1455 1361 1389 1394 1381 1343 1472 1365 1426 1394 1377 1301 1437 1367 1406 1401 1389 1449 1383 1453 1428 1397 1355 1415 1416 1332 1367 1366 1391 1419 1386 1370 1445 1331 1391 1383 1408 1351 1349 1440 1430 1453 1399 1365 1431 1422 1409 1320 1400 1393 1345 1453 1378 1434 1423 1371 1377 1420 1346 1411 1410 1456 1346 1427 1393 1410 1428 1320 1391 1458 1420 1409 1409 1402 1400 1367 1432 1362 1370 1474 1344 1409 1479 1400 1406 1380 1442 1421 1352 1395 1386 1397 1429 1374 1427 1362 1473 1363 1379 1354 1424 1371 1412 1403 1452 1386 1394 1421 1418 1425 1392 1419 1291 1390 1331 1399 1336 1396 1481 1370 1396 1375 1353 1450 1402 1250 1407 1385 1352 1411 1308 1374 1370 1337 1404 1327 1381 1347 1384 1345 1334 1362 1401 1399 1424 1409 1405 1355 1364 1341 1334 1412 1345 1387 1352 1368 1453 1374 1355 1399 1403 1308 1386 1433 1359 1344 1342 1374 1415 1380 1379 1396 1425 1288 1435 1446 1441 1361 1329 1404 1374 1382 1348 1374 1393 1387 1417 1374 1318 1375 1382 1333 1386 1314 1381 1418 1337 1280 1352 1347 1397 1399 1384 1453 1377 1301 1427 1357 1428 1353 1365 1435 1380 1375 1436 1386 1317 1419 1360 1421 1342 1434 1338 1377 1343 1428 1402 1313 1329 1477 1352 1325 1422 1405 1386 1408 1381 1356 1408 1381 1401 1434 1373 1392 1344 1328 1342 1355 1335 1375 1346 1352 1373 1361 1397 1368 1367 1424 1389 1402 1361 1376 1392 1463 1396 1389 1357 1363 1437 1361 1417 1364 1286 1387 1323 1329 1390 1311 1351 1364 1392 1301 1445 1413 1432 1396 1422 1431 1363 1431 1385 1334 1417 1404 1375 1318 1401 1394 1374 1357 1371 1363 1401 1320 1387 1431 1377 1490 1449 1361 1426 1321 1433 1413 1451 1363 1409 1398 1397 1324 1449 1403 1366 1374 1446 1373 1417 1380 1315 1395 1389 1407 1507 1380 1382 1444 1407 1379 1356 1367 1332 1378 1392 1366 1372 1425 1396 1387 1483 1319 1333 1382 1362 1412 1347 1362 1390 1416 1396 1293 1357 1393 1398 1373 1323 1371 1395 1365 1376 1355 1441 1376 1365 1383 1400 1384 1350 1313 1341 1388 1381 1407 1365 1377 1388 1349 1327 1340 1314 1427 1367 1403 1358 1399 1306 1446 1311 1351 1322 1372 1327 1360 1357 1359 1374 1405 1336 1422 1361 1348 1409 1385 1329 1379 1305 1356 1414 1374 1391 1374 1387 1389 1344 1381 1477 1411 1402 1470 1428 1459 1393 1408 1428 1461 1447 1400 1472 1482 1418 1461 1480 1473 1406 1526 1403 1501 1405 1429 1449 1374 1417 1366 1387 1433 1457 1399 1415 1342 1397 1364 1405 1447 1417 1446 1486 1396 1414 1365 1412 1419 1448 1377 1470 1478 1461 1397 1429 1470 1446 1423 1496 1491 1416 1412 1447 1524 1450 1535 1493 1594 1571 1550 1564 1564 1575 1567 1501 1539 1584 1608 1628 1700 1777 1705 1707 1640 1755 1645 1710 1744 1736 1722 1771 1782 1712 1673 1688 1749 1627 1632 1574 1652 1641 1574 1637 1592 1608 1559 1571 1523 1556 1509 1463 1569 1459 1483 1495 1467 1397 1500 1434 1491 1389 1358 1365 1401 1341 1455 1381 1406 1432 1404 1429 1385 1354 1424 1470 1398 1411 1380 1418 1428 1424 1359 1430 1385 1367 1331 1411 1357 1373 1340 1364 1369 1395 1397 1399 1401 1409 1394 1432 1435 1366 1397 1379 1369 1508 1439 1399 1448 1390 1378 1442 1319 1375 1427 1400 1411 1438 1420 1430 1434 1371 1403 1390 1433 1428 1489 1425 1331 1451 1412 1334 1427 1414 1418 1451 1393 1331 1448 1478 1362 1320 1324 1419 1412 1392 1375 1383 1380 1301 1348 1367 1404 1349 1436 1345 1373 1363 1379 1435 1333 1360 1362 1393 1407 1328 1331 1365 1396 1453 1329 1339 1366 1361 1335 1386 1458 1403 1395 1430 1439 1426 1403 1395 1309 1414 1435 1404 1392 1422 1415 1307 1400 1372 1367 1321 1379 1346 1383 1390 1350 1338 1354 1457 1354 1366 1428 1314 1390 1321 1366 1409 1388 1403 1370 1376 1387 1352 1331 1376 1340 1351 1449 1401 1368 1450 1345 1416 1377 1315 1440 1463 1369 1443 1393 1344 1398 1350 1399 1409 1406 1460 1398 1419 1412 1332 1300 1424 1378 1395 1369 1409 1334 1377 1390 1347 1482 1398 1460 1463 1443 1466 1413 1406 1445 1459 1496 1488 1522 1559 1506 1523 1611 1506 1575 1685 1663 1649 1759 1773 1702 1883 1873 1932 1918 1991 2016 1991 2066 2005 2126 2113 2039 2131 2109 2125 2090 2024 2115 2101 2059 1999 1928 1961 1990 1904 1857 1817 1849 1770 1797 1717 1708 1737 1704 1684 1656 1600 1556 1527 1508 1519 1608 1495 1431 1500 1464 1418 1442 1422 1429 1403 1401 1394 1426 1413 1441 1356 1449 1378 1431 1359 1362 1381 1455 1423 1417 1456 1404 1427 1364 1405 1383 1385 1416 1390 1371 1342 1429 1369 1475 1412 1372 1382 1408 1422 1447 1427 1470 1462 1379 1307 1447 1477 1470 1429 1472 1379 1435 1446 1364 1446 1463 1410 1408 1446 1450 1432 1351 1444 1435 1454 1404 1316 1452 1377 1378 1373 1351 1354 1413 1381 1350 1383 1351 1333 1367 1379 1397 1390 1412 1300 1369 1366 1351 1378 1367 1389 1370 1369 1373 1440 1367 1424 1360 1366 1369 1386 1394 1346 1324 1417 1313 1319 1342 1394 1392 1370 1456 1369 1329 1390 1367 1347 1400 1369 1417 1331 1353 1442 1329 1376 1402 1454 1445 1361 1374 1329 1401 1394 1322 1384 1371 1416 1416 1495 1479 1386 1391 1445 1432 1464 1367 1439 1470 1506 1517 1479 1459 1549 1502 1482 1509 1549 1463 1527 1443 1526 1465 1508 1511 1524 1477 1522 1542 1498 1489 1566 1479 1438 1523 1481 1508 1531 1436 1401 1398 1425 1423 1461 1391 1375 1470 1395 1354 1435 1409 1327 1383 1357 1337 1374 1342 1409 1383 1371 1334 1327 1363 1427 1336 1413 1333 1373 1391 1378 1370 1365 1406 1373 1359 1365 1340 1356 1403 1366 1349 1386 1354 1344 1460 1313 1361 1406 1377 1363 1386 1452 1418 1332 1379 1355 1340 1311 1366 1363 1304 1328 1360 1309 1334 1359 1294 1340 1304 1370 1338 1366 1415 1336 1281 1409 1289 1363 1368 1369 1413 1338 1318 1418 1351 1313 1344 1344 1342 1340 1353 1305 1367 1336 1340 1345 1368 1314 1386 1315 1255 1372 1319 1314 1371 1337 1400 1345 1370 1347 1383 1338 1343 1352 1259 1309 1358 1331 1311 1398 1353 1320 1393 1372 1403 1348 1376 1318 1309 1320 1312 1304 1363 1331 1410 1327 1335 1326 1349 1347 1372 1416 1387 1371 1346 1328 1314 1392 1340 1267 1311 1346 1350 1292 1383 1348 1407 1346 1359 1398 1329 1387 1366 1345 1343 1356 1337 1293 1289 1415 1328 1325 1359 1376 1326 1337 1344 1323 1327 1356 1364 1337 1347 1328 1362 1346 1338 1311 1303 1279 1410 1323 1321 1349 1352 1428 1392 1289 1332 1356 1357 1357 1269 1381 1338 1380 1366 1342 1329 1349 1354 1331 1348 1306 1325 1295 1398 1369 1314 1369 1325 1313 1340 1370 1422 1337 1391 1341 1323 1396 1272 1321 1322 1302 1344 1372 1358 1385 1321 1341 1334 1352 1302 1289 1310 1325 1278 1302 1327 1339 1271 1379 1284 1320 1341 1335 1347 1309 1272 1266 1410 1361 1322 1375 1376 1328 1297 1372 1282 1319 1303 1360 1342 1319 1361 1287 1408 1381 1251 1343 1372 1346 1375 1258 1295 1305 1327 1393 1361 1332 1326 1346 1350 1380 1388 1352 1389 1366 1385 1333 1420 1310 1427 1335 1350 1362 1312 1344 1348 1277 1275 1409 1310 1319 1291 1318 1332 1330 1342 1331 1379 1306 1342 1311 1363 1282 1328 1341 1302 1383 1295 1348 1377 1349 1380 1277 1291 1391 1313 1367 1301 1293 1377 1284 1288 1298 1333 1308 1369 1346 1287 1339 1303 1328 1316 1303 1394 1352 1369 1358 1343 1324 1324 1300 1308 1285 1293 1369 1330 1298 1262 1267 1373 1369 1338 1350 1360 1302 1352 1354 1296 1374 1353 1286 1352 1368 1283 1373 1418 1352 1358 1286 1349 1334 1334 1330 1296 1347 1334 1390 1376 1355 1394 1281 1279 1326 1326 1388 1386 1393 1370 1352 1332 1362 1273 1279 1309 1301 1332 1306 1369 1401 1340 1370 1344 1320 1339 1351 1393 1381 1346 1414 1392 1345 1349 1341 1340 1312 1353 1371 1351 1333 1340 1342 1346 1317 1322 1354 1280 1283 1374 1325 1354 1314 1305 1401 1336 1315 1337 1420 1355 1329 1386 1283 1387 1417 1398 1329 1438 1389 1415 1398 1441 1430 1409 1397 1449 1500 1361 1469 1455 1470 1435 1411 1393 1450 1416 1428 1396 1443 1378 1364 1430 1498 1383 1378 1448 1356 1366 1407 1450 1380 1382 1447 1419 1398 1376 1376 1412 1363 1367 1408 1343 1387 1396 1339 1287 1343 1358 1378 1338 1327 1381 1332 1399 1370 1374 1270 1348 1382 1271 1410 1380 1394 1287 1316 1329 1358 1316 1419 1341 1298 1299 1343 1317 1284 1280 1319 1307 1309 1362 1306 1362 1302 1289 1378 1292 1361 1319 1408 1331 1280 1392 1316 1354 1365 1335 1279 1327 1320 1269 1328 1371 1407 1252 1440 1364 1327 1368 1371 1311 1339 1351 1311 1357 1311 1351 1348 1273 1330 1330 1393 1326 1342 1428 1370 1278 1320 1372 1361 1331 1351 1335 1334 1325 1374 1296 1332 1321 1405 1335 1422 1300 1330 1271 1359 1320 1293 1322 1318 1333 1348 1366 1380 1370 1355 1316 1289 1286 1292 1355 1266 1335 1368 1408 1331 1356 1284 1379 1331 1344 1332 1301 1305 1315 1350 1364 1305 1320 1349 1342 1357 1398 1318 1373 1359 1298 1402 1377 1304 1381 1307 1372 1344 1284 1342 1301 1319 1293 1342 1338 1291 1357 1292 1358 1365 1321 1318 1398 1330 1366 1329 1292 1374 1345 1285 1368 1355 1324 1327 1305 1346 1345 1285 1362 1349 1374 1394 1326 1365 1346 1346 1363 1317 1290 1289 1321 1306 1346 1277 1312 1372 1296 1301 1338 1349 1296 1370 1337 1272 1303 1340 1385 1360 1287 1335 1313 1366 1307 1357 1383 1323 1350 1320 1327 1344 1336 1364 1280 1389 1278 1360 1288 1320 1374 1326 1371 1349 1386 1355 1265 1358 1317 1382 1420 1356 1376 1357 1362 1294 1364 1376 1433 1400 1386 1385 1392 1329 1492 1404 1396 1471 1509 1448 1509 1465 1485 1543 1544 1475 1503 1511 1616 1548 1624 1498 1637 1589 1618 1512 1566 1595 1568 1614 1552 1609 1544 1539 1603 1503 1510 1480 1458 1521 1491 1508 1572 1442 1439 1480 1474 1412 1508 1468 1419 1427 1422 1494 1410 1388 1352 1373 1383 1395 1370 1384 1429 1390 1310 1391 1368 1406 1375 1360 1382 1375 1327 1374 1349 1326 1400 1343 1367 1383 1404 1380 1354 1339 1316 1360 1356 1375 1361 1325 1386 1368 1345 1320 1363 1294 1351 1281 1358 1422 1323 1393 1390 1294 1350 1333 1346 1364 1404 1332 1372 1335 1393 1369 1337 1327 1344 1376 1357 1340 1359 1343 1371 1317 1325 1371 1324 1321 1331 1361 1354 1362 1301 1412 1257 1391 1347 1417 1362 1397 1327 1254 1364 1302 1363 1387 1405 1371 1314 1363 1328 1404 1381 1339 1390 1383 1347 1390 1351 1367 1340 1371 1323 1379 1331 1323 1344 1399 1309 1384 1368 1365 1410 1378 1352 1341 1334 1306 1286 1307 1316 1295 1236 1360 1343 1323 1334 1387 1347 1289 1322 1320 1326 1365 1329 1359 1375 1382 1276 1312 1313 1336 1389 1397 1424 1237 1318 1342 1375 1344 1310 1361 1312 1405 1383 1348 1320 1362 1380 1414 1355 1343 1291 1240 1314 1346 1305 1363 1299 1382 1334 1270 1409 1302 1316 1348 1333 1369 1345 1316 1314 1330 1383 1366 1350 1299 1344 1294 1358 1403 1299 1287 1310 1403 1314 1341 1333 1313 1354 1377 1360 1270 1321 1317 1345 1364 1284 1350 1380 1343 1315 1312 1328 1318 1325 1338 1331 1334 1344 1298 1340 1265 1344 1282 1337 1303 1304 1322 1384 1350 1350 1328 1383 1297 1358 1359 1369 1320 1356 1326 1320 1330 1331 1388 1308 1330 1286 1353 1348 1379 1376 1352 1382 1280 1299 1269 1350 1317 1325 1404 1313 1377 1304 1317 1292 1286 1291 1366 1352 1372 1324 1335 1364 1318 1323 1320 1347 1354 1347 1343 1307 1319 1350 1327 1308 1295 1256 1365 1302 1394 1283 1331 1329 1313 1305 1307 1340 1353 1315 1324 1384 1317 1372 1337 1282 1307 1316 1345 1276 1305 1331 1395 1270 1403 1340 1302 1340 1304 1339 1314 1273 1270 1300 1288 1434 1304 1305 1309 1342 1379 1324 1296 1349 1261 1299 1336 1403 1334 1243 1315 1267 1306 1378 1306 1310 1359 1288 1378 1354 1354 1295 1360 1339 1288 1296 1341 1356 1435 1288 1364 1325 1374 1300 1415 1358 1362 1288 1353 1353 1323 1336 1411 1323 1327 1311 1341 1361 1340 1391 1344 1323 1326 1280 1296 1386 1318 1324 1311 1375 1342 1369 1285 1293 1312 1320 1396 1255 1300 1300 1339 1255 1329 1270 1350 1316 1302 1328 1319 1406 1305 1343 1326 1380 1446 1298 1309 1349 1303 1360 1377 1315 1287 1269 1324 1276 1325 1344 1324 1324 1347 1371 1294 1347 1422 1308 1314 1404 1361 1321 1377 1312 1323 1356 1369 1431 1299 1313 1361 1326 1368 1350 1384 1344 1299 1318 1314 1243 1331 1333 1367 1342 1365 1349 1327 1410 1363 1374 1349 1328 1347 1350 1319 1349 1313 1371 1402 1309 1330 1402 1368 1321 1269 1332 1281 1337 1353 1361 1299 1297 1378 1326 1363 1372 1314 1308 1280 1362 1348 1343 1361 1374 1350 1332 1357 1346 1374 1375 1359 1274 1329 1369 1310 1343 1321 1386 1408 1339 1308 1372 1355 1323 1342 1350 1342 1321 1395 1275 1290 1363 1300 1291 1356 1342 1348 1311 1337 1386 1329 1301 1304 1391 1335 1354 1368 1349 1390 1296 1367 1340 1340 1387 1381 1326 1301 1358 1305 1362 1328 1352 1388 1343 1373 1326 1346 1349 1327 1388 1275 1339 1358 1292 1372 1339 1318 1435 1389 1422 1389 1385 1378 1356 1395 1379 1400 1342 1336 1359 1372 1341 1423 1373 1384 1399 1381 1345 1358 1359 1363 1307 1347 1411 1375 1361 1487 1397 1426 1402 1434 1468 1317 1396 1452 1372 1347 1443 1438 1528 1433 1421 1444 1407 1408 1361 1478 1394 1405 1406 1449 1455 1389 1380 1369 1402 1372 1465 1419 1399 1419 1381 1430 1387 1431 1293 1431 1365 1392 1319 1331 1399 1448 1346 1401 1332 1329 1402 1439 1395 1391 1447 1375 1423 1422 1430 1320 1371 1421 1388 1396 1478 1391 1434 1415 1444 1400 1470 1449 1438 1420 1413 1436 1530 1487 1459 1432 1481 1421 1442 1514 1469 1377 1488 1388 1415 1409 1460 1331 1429 1410 1420 1442 1382 1422 1379 1448 1320 1427 1391 1292 1434 1447 1362 1383 1360 1478 1399 1367 1344 1375 1343 1381 1315 1363 1381 1438 1330 1404 1329 1299 1338 1299 1345 1425 1463 1367 1424 1351 1381 1327 1308 1345 1339 1361 1428 1291 1353 1366 1340 1341 1307 1299 1316 1429 1459 1380 1352 1349 1385 1364 1307 1375 1388 1358 1456 1365 1371 1399 1364 1324 1439 1356 1382 1377 1445 1379 1305 1373 1420 1367 1335 1361 1392 1338 1325 1338 1459 1332 1266 1382 1304 1364 1381 1363 1335 1355 1390 1381 1306 1343 1369 1382 1397 1335 1369 1364 1406 1422 1376 1372 1372 1377 1384 1373 1342 1384 1410 1430 1292 1367 1341 1349 1457 1410 1373 1322 1359 1348 1421 1389 1390 1436 1375 1308 1353 1339 1392 1406 1422 1408 1306 1399 1380 1382 1344 1349 1366 1320 1394 1345 1391 1406 1417 1421 1428 1404 1377 1378 1416 1344 1387 1384 1386 1422 1408 1390 1480 1420 1494 1452 1349 1425 1447 1426 1492 1428 1485 1457 1506 1473 1466 1463 1569 1486 1473 1539 1562 1532 1586 1558 1588 1562 1586 1730 1631 1736 1628 1740 1757 1764 1841 1832 1836 1815 1888 1859 1887 1969 1910 1842 1845 1901 1905 1964 1899 1940 1912 2007 1863 1834 1808 1821 1842 1815 1801 1814 1787 1806 1717 1745 1683 1658 1649 1688 1695 1646 1693 1628 1658 1608 1612 1586 1649 1613 1564 1552 1549 1506 1511 1443 1487 1509 1409 1370 1420 1444 1482 1402 1371 1337 1431 1350 1395 1388 1319 1451 1341 1387 1356 1411 1327 1407 1460 1406 1375 1423 1394 1397 1404 1401 1339 1385 1388 1359 1331 1350 1386 1338 1324 1373 1377 1412 1433 1389 1403 1397 1398 1332 1347 1389 1331 1374 1357 1346 1409 1378 1415 1364 1458 1431 1438 1398 1400 1377 1450 1369 1332 1364 1428 1390 1381 1474 1386 1437 1397 1382 1392 1385 1479 1444 1459 1432 1450 1501 1378 1430 1423 1382 1464 1374 1457 1405 1390 1390 1444 1471 1403 1374 1401 1521 1378 1448 1466 1393 1382 1454 1385 1418 1427 1413 1440 1339 1430 1365 1488 1415 1316 1476 1468 1481 1433 1400 1437 1458 1440 1417 1478 1402 1434 1411 1441 1410 1372 1442 1380 1524 1461 1383 1447 1440 1456 1436 1437 1415 1439 1366 1364 1454 1366 1454 1354 1416 1421 1466 1458 1466 1424 1433 1374 1457 1445 1446 1364 1429 1397 1454 1421 1343 1403 1368 1402 1421 1391 1337 1411 1378 1451 1449 1445 1365 1368 1375 1459 1392 1342 1305 1374 1392 1376 1367 1374 1372 1424 1409 1293 1428 1411 1366 1413 1362 1360 1413 1395 1395 1389 1397 1345 1374 1316 1411 1391 1451 1346 1346 1368 1380 1291 1397 1358 1382 1285 1334 1362 1355 1385 1288 1401 1276 1303 1318 1331 1340 1401 1410 1323 1373 1345 1427 1311 1273 1384 1351 1364 1331 1356 1428 1385 1311 1380 1403 1416 1319 1341 1381 1412 1351 1366 1423 1377 1368 1337 1390 1385 1325 1286 1308 1385 1412 1330 1260 1296 1367 1318 1328 1401 1362 1348 1335 1357 1406 1320 1340 1303 1350 1313 1348 1328 1362 1440 1361 1315 1349 1398 1344 1342 1363 1349 1340 1377 1317 1318 1337 1376 1356 1344 1351 1342 1341 1283 1379 1337 1348 1390 1383 1386 1428 1364 1356 1350 1358 1322 1401 1342 1367 1355 1327 1385 1347 1361 1315 1362 1373 1309 1386 1316 1372 1374 1467 1313 1360 1287 1343 1379 1303 1369 1363 1349 1344 1364 1364 1327 1314 1388 1333 1403 1333 1315 1350 1414 1357 1280 1337 1330 1331 1312 1413 1342 1289 1356 1358 1361 1337 1268 1334 1289 1402 1344 1406 1315 1381 1418 1383 1380 1294 1358 1309 1339 1348 1334 1312 1319 1385 1350 1343 1367 1353 1267 1257 1432 1331 1349 1383 1378 1300 1361 1331 1347 1351 1327 1312 1375 1367 1427 1333 1350 1297 1424 1322 1341 1356 1328 1339 1393 1376 1370 1349 1327 1375 1356 1342 1349 1411 1356 1368 1329 1292 1424 1331 1377 1296 1329 1376 1328 1321 1345 1312 1374 1259 1337 1360 1351 1346 1358 1400 1386 1337 1335 1297 1353 1418 1326 1398 1412 1340 1325 1317 1336 1354 1355 1341 1413 1331 1345 1361 1383 1352 1375 1284 1381 1323 1377 1360 1293 1335 1274 1355 1428 1367 1316 1293 1353 1343 1332 1330 1290 1292 1287 1381 1295 1252 1327 1347 1330 1304 1346 1391 1325 1367 1423 1421 1310 1376 1310 1269 1394 1377 1361 1340 1363 1324 1424 1322 1300 1340 1372 1315 1356 1354 1330 1298 1334 1337 1391 1293 1393 1388 1343 1307 1415 1322 1361 1373 1314 1411 1405 1377 1371 1328 1327 1390 1370 1318 1433 1311 1361 1365 1375 1288 1357 1318 1425 1315 1323 1368 1394 1388 1396 1383 1327 1367 1310 1436 1423 1372 1403 1394 1372 1392 1422 1307 1414 1441 1398 1374 1334 1435 1435 1438 1416 1396 1371 1446 1400 1422 1439 1400 1417 1469 1384 1342 1404 1402 1418 1441 1384 1357 1380 1425 1438 1442 1416 1406 1418 1370 1417 1412 1389 1377 1369 1380 1337 1374 1392 1421 1381 1362 1355 1398 1400 1374 1388 1405 1303 1442 1422 1503 1335 1396 1367 1392 1281 1329 1357 1428 1280 1433 1347 1370 1391 1322 1371 1404 1284 1293 1341 1335 1361 1374 1396 1359 1343 1419 1388 1380 1355 1325 1301 1398 1342 1375 1353 1365 1344 1402 1410 1380 1372 1343 1397 1350 1407 1362 1375 1354 1393 1367 1367 1336 1395 1383 1304 1382 1430 1396 1384 1373 1338 1313 1330 1418 1368 1342 1330 1413 1324 1356 1314 1373 1320 1338 1334 1358 1353 1330 1352 1366 1328 1335 1380 1320 1379 1292 1392 1338 1351 1390 1358 1366 1291 1360 1336 1386 1333 1346 1341 1310 1235 1363 1304 1363 1362 1320 1375 1333 1364 1346 1355 1364 1363 1395 1320 1382 1378 1378 1389 1351 1333 1390 1355 1305 1357 1332 1296 1347 1338 1368 1366 1326 1381 1353 1310 1297 1361 1375 1304 1397 1345 1294 1373 1338 1376 1339 1331 1383 1397 1387 1379 1335 1343 1358 1304 1375 1290 1360 1377 1362 1410 1334 1383 1366 1428 1396 1358 1367 1315 1345 1270 1395 1332 1342 1342 1365 1391 1364 1285 1406 1391 1355 1345 1341 1404 1348 1342 1352 1398 1344 1324 1462 1350 1379 1382 1405 1361 1439 1353 1306 1406 1343 1369 1394 1368 1384 1417 1416 1391 1378 1378 1428 1422 1378 1448 1444 1370 1465 1449 1457 1460 1488 1486 1459 1514 1618 1534 1520 1591 1544 1645 1574 1659 1609 1685 1685 1712 1674 1795 1669 1772 1771 1694 1695 1662 1766 1693 1750 1763 1732 1782 1700 1642 1782 1696 1760 1657 1779 1668 1621 1738 1638 1650 1605 1709 1745 1673 1668 1635 1572 1655 1614 1573 1584 1580 1595 1626 1529 1586 1529 1492 1513 1496 1484 1434 1501 1451 1477 1417 1444 1445 1430 1519 1403 1394 1383 1398 1439 1437 1382 1471 1356 1403 1501 1381 1364 1357 1430 1379 1391 1275 1390 1386 1379 1304 1440 1373 1403 1423 1384 1363 1383 1362 1369 1349 1355 1414 1405 1341 1404 1348 1397 1354 1393 1356 1419 1384 1362 1358 1357 1367 1273 1344 1349 1351 1392 1396 1470 1356 1363 1341 1423 1353 1325 1399 1427 1394 1382 1348 1373 1369 1426 1368 1409 1383 1385 1466 1311 1390 1398 1387 1410 1409 1341 1323 1427 1357 1419 1414 1353 1396 1415 1335 1426 1381 1375 1388 1399 1297 1383 1404 1354 1429 1351 1450 1361 1383 1372 1382 1449 1399 1434 1409 1382 1435 1455 1405 1424 1341 1462 1408 1380 1320 1434 1421 1394 1438 1402 1449 1410 1456 1412 1393 1408 1366 1401 1423 1319 1398 1372 1409 1441 1377 1391 1407 1382 1348 1429 1367 1346 1455 1364 1334 1358 1379 1376 1379 1377 1309 1437 1362 1410 1491 1389 1417 1461 1324 1409 1330 1388 1322 1322 1362 1398 1355 1332 1376 1355 1389 1286 1402 1380 1365 1386 1438 1411 1391 1384 1374 1317 1345 1381 1358 1302 1314 1357 1370 1307 1345 1374 1352 1344 1334 1356 1349 1400 1363 1339 1393 1391 1445 1333 1393 1384 1358 1332 1425 1293 1327 1322 1310 1349 1375 1356 1337 1339 1406 1332 1307 1338 1378 1476 1328 1386 1377 1389 1391 1402 1364 1341 1373 1302 1325 1317 1316 1288 1366 1383 1356 1359 1336 1310 1329 1333 1325 1355 1433 1359 1388 1300 1329 1353 1331 1371 1328 1405 1372 1329 1367 1348 1408 1343 1323 1388 1371 1384 1352 1392 1375 1334 1307 1320 1390 1373 1377 1321 1346 1293 1368 1357 1352 1417 1394 1389 1362 1352 1359 1373 1313 1322 1400 1398 1361 1367 1345 1293 1299 1304 1410 1302 1342 1324 1350 1309 1375 1351 1353 1372 1424 1360 1366 1355 1258 1346 1335 1379 1419 1329 1377 1363 1341 1305 1373 1299 1360 1282 1366 1307 1343 1289 1421 1396 1338 1339 1353 1365 1365 1375 1310 1365 1369 1390 1342 1387 1340 1416 1377 1360 1372 1373 1348 1436 1324 1337 1335 1326 1373 1345 1324 1363 1305 1363 1254 1319 1344 1356 1315 1420 1419 1342 1358 1370 1383 1294 1321 1312 1413 1287 1388 1368 1341 1341 1338 1362 1314 1329 1362 1349 1408 1340 1302 1315 1414 1336 1328 1279 1343 1321 1396 1314 1335 1284 1346 1411 1305 1347 1402 1395 1340 1379 1341 1346 1336 1311 1373 1365 1378 1409 1405 1318 1338 1320 1337 1389 1317 1304 1314 1315 1348 1311 1354 1361 1312 1392 1397 1335 1365 1324 1322 1362 1405 1389 1379 1344 1367 1349 1273 1385 1287 1358 1331 1378 1371 1393 1358 1357 1379 1292 1332 1342 1410 1368 1361 1457 1394 1264 1358 1323 1312 1307 1330 1335 1348 1364 1329 1364 1388 1312 1376 1312 1332 1328 1335 1364 1285 1394 1358 1413 1319 1339 1365 1341 1394 1330 1346 1386 1342 1313 1330 1400 1342 1333 1320 1324 1339 1379 1352 1338 1326 1341 1334 1355 1362 1332 1366 1372 1348 1371 1325 1427 1375 1326 1346 1400 1339 1308 1408 1391 1321 1342 1379 1290 1356 1451 1322 1338 1363 1384 1319 1301 1321 1348 1384 1325 1286 1382 1401 1327 1402 1390 1365 1335 1378 1433 1277 1413 1397 1345 1385 1394 1409 1385 1380 1361 1401 1353 1395 1416 1382 1466 1405 1431 1441 1409 1365 1388 1406 1421 1431 1398 1482 1338 1395 1406 1485 1439 1422 1379 1437 1370 1409 1395 1443 1421 1440 1427 1431 1443 1502 1446 1435 1393 1429 1422 1470 1465</counts>
			</dataPoints>
		</scan>
	</xrdMeasurement>
</xrdMeasurements>
