<?xml version="1.0"?>
<xrdMeasurements xmlns="http://www.xrdml.com/XRDMeasurement/2.3" xmlns:xsi="http://www.w3.org/2001/XMLSchema-instance" xsi:schemaLocation="http://www.xrdml.com/XRDMeasurement/2.3 http://www.xrdml.com/XRDMeasurement/2.3/XRDMeasurement.xsd" status="Completed" recordIdentifier="{7887DEC3-B4CD-4B0A-8AAF-655B387EB763}">
	<comment>
		<entry/>
	</comment>
	<sample type="To be analyzed">
		<id>GPSS_Li2CoCl4_102925_69023408f1dc75abe256366f</id>
		<name></name>
		<preparedBy></preparedBy>
	</sample>
	<xrdMeasurement measurementType="Scan" status="Completed" sampleMode="Reflection">
		<usedWavelength intended="K-Alpha 1">
			<kAlpha1 unit="Angstrom">1.5405980</kAlpha1>
			<kAlpha2 unit="Angstrom">1.5444260</kAlpha2>
			<kBeta unit="Angstrom">1.3922500</kBeta>
			<ratioKAlpha2KAlpha1>0.5000</ratioKAlpha2KAlpha1>
		</usedWavelength>
		<incidentBeamPath>
			<radius unit="mm">145.00</radius>
			<xRayTube id="1010048" name="Empyrean Cu LFF HR (9430 033 7310x)">
				<tension unit="kV">40.0</tension>
				<current unit="mA">15.0</current>
				<anodeMaterial>Cu</anodeMaterial>
				<focus type="Line">
					<length unit="mm">12.0</length>
					<width unit="mm">0.4</width>
					<takeOffAngle unit="deg">6.0</takeOffAngle>
				</focus>
			</xRayTube>
			<sollerSlit id="21010002" name="Soller slits 0.04 rad.">
				<opening unit="rad">0.0400</opening>
			</sollerSlit>
			<mask id="22031000" name="Fixed mask 13 mm">
				<width unit="mm">9.00</width>
			</mask>
			<divergenceSlit id="22120001" name="Divergence slit 1°" xsi:type="fixedDivergenceSlitType">
				<distanceToSample unit="mm">50.00</distanceToSample>
				<height unit="mm">1.52</height>
			</divergenceSlit>
		</incidentBeamPath>
		<sampleMovement xsi:type="spinningSampleMovementType">
			<spinnerRevolutionTime unit="seconds">1.0</spinnerRevolutionTime>
		</sampleMovement>
		<diffractedBeamPath>
			<radius unit="mm">145.00</radius>
			<antiScatterSlit id="22090040" name="AS slit 9 mm (PIXcel)" xsi:type="fixedAntiScatterSlitType">
				<height unit="mm">9.00</height>
			</antiScatterSlit>
			<sollerSlit id="21020003" name="Large Soller slits 0.04 rad.">
				<opening unit="rad">0.0400</opening>
			</sollerSlit>
			<filter id="20030001" name="Large beta-filter Nickel">
				<material>Ni</material>
				<thickness unit="mm">0.020</thickness>
			</filter>
			<detector id="7010019" name="PIXcel1D-Medipix3 detector" xsi:type="rtmsDetectorType">
				<phd unit="keV">
					<lowerLevel>4.02</lowerLevel>
					<upperLevel>11.27</upperLevel>
				</phd>
				<mode>Scanning</mode>
				<activeLength unit="deg">5.542</activeLength>
			</detector>
		</diffractedBeamPath>
		<scan appendNumber="0" mode="Continuous" scanAxis="Gonio" status="Completed">
			<header>
				<startTimeStamp>2025-10-31T18:31:29-07:00</startTimeStamp>
				<endTimeStamp>2025-10-31T18:39:37-07:00</endTimeStamp>
				<author>
					<name>AutomatedUser</name>
				</author>
				<source>
					<applicationSoftware version="1.7b (136)">PANalytical Aeris Instrument Suite</applicationSoftware>
					<instrumentControlSoftware version="3.2.00000000 20240306">AERIS</instrumentControlSoftware>
					<instrumentID>950485</instrumentID>
				</source>
			</header>
			<dataPoints>
				<positions axis="2Theta" unit="deg">
					<startPosition>10.00943322</startPosition>
					<endPosition>99.99442286</endPosition>
				</positions>
				<positions axis="Omega" unit="deg">
					<startPosition>5.00471661</startPosition>
					<endPosition>49.99721143</endPosition>
				</positions>
				<commonCountingTime unit="seconds">12.495</commonCountingTime>
				<counts unit="counts">3742 3800 3779 3759 3751 3738 3638 3715 3770 3813 3827 3771 3787 3676 3812 3764 3810 3728 3871 3691 3660 3846 3739 3740 3755 3824 3797 3826 3821 3779 3809 3768 3817 3823 3846 3750 3792 3794 3797 3727 3927 3763 3894 3820 3808 3809 3759 3876 3851 3861 3810 3825 3724 3778 3820 3787 3992 3846 3792 3830 3798 3962 3915 3842 3976 3896 3870 3859 3961 3885 3913 3917 3864 3850 3808 3759 3970 3904 3847 3928 3769 3918 3964 3826 3985 3839 4004 3786 3793 3845 3796 4003 3918 3968 3925 3925 3955 3910 3881 3938 3898 3943 3994 3970 3936 4057 3857 3852 3858 3833 4065 4020 3914 3926 3988 3916 4038 3985 4033 3968 3991 4009 4035 3993 3981 3997 3937 4009 3965 4078 3935 3902 3989 4017 3981 3962 4003 4043 4016 4012 4031 4072 4056 4196 4138 3997 3891 4056 4023 4151 4114 3956 4077 3963 3995 4096 4052 4243 4024 4087 4022 3991 4046 4057 3946 4142 4042 4108 3954 3937 3981 4066 4029 4068 4159 4055 4105 4129 3985 4002 4103 4077 4175 3921 4018 3977 4041 4051 4089 3920 4057 3981 4041 4039 4110 4015 4002 4082 4052 4071 4042 4061 4073 4149 4050 4186 4040 4062 3980 4077 4165 4063 4097 4095 4096 4031 4116 4146 4022 4096 4048 3977 4168 4017 4039 4099 4159 4122 4085 3990 4061 4145 4058 4010 4061 4027 4043 4049 4059 4112 4086 4076 4116 4155 4063 4100 3951 4013 4077 4010 4028 4095 4109 3969 4104 4174 4130 4169 4008 4168 4064 4065 4123 4135 4167 4098 4140 4055 4160 4061 4120 4185 4052 4144 4124 4124 4252 4067 4170 4190 4238 4074 4147 4187 4197 4078 4120 4214 4053 4277 4168 4197 4211 4153 4030 4067 4156 4206 4222 4230 4115 4120 4166 4226 4249 4139 4178 4152 4264 4179 4171 4228 4234 4278 4275 4372 4399 4175 4230 4435 4242 4311 4239 4388 4201 4226 4354 4355 4214 4212 4371 4306 4336 4369 4320 4372 4290 4436 4275 4385 4472 4380 4322 4466 4456 4481 4517 4443 4534 4428 4376 4464 4477 4509 4605 4515 4356 4552 4559 4472 4487 4649 4614 4546 4610 4604 4626 4534 4521 4620 4581 4581 4528 4518 4563 4704 4595 4657 4495 4636 4635 4544 4655 4777 4593 4672 4661 4658 4775 4800 4655 4561 4641 4860 4742 4661 4690 4723 4673 4708 4771 4805 4801 4793 4806 4782 4743 4884 4773 4717 4752 4741 4830 4763 4813 4930 4887 4936 4984 4934 4884 4791 4857 4857 4839 4849 4933 4869 4917 4878 4994 5023 5052 4943 5056 5051 5087 4954 5118 4974 5079 4942 5074 5107 5132 5118 5195 5301 5284 5168 5316 5190 5452 5237 5246 5535 5336 5343 5546 5400 5355 5504 5670 5523 5639 5731 5725 5710 5890 5929 5822 6031 6001 6134 5973 6066 6190 6229 6358 6317 6397 6272 6461 6336 6251 6484 6520 6494 6559 6558 6422 6231 6302 6273 6185 6212 6261 6210 6204 6387 6223 6357 6424 6431 6490 6602 6738 6655 6805 6648 6724 6786 6811 6826 6844 6874 6707 6705 6713 6556 6384 6248 6161 6139 5911 5717 5533 5301 5146 5026 5154 4967 4865 4868 4830 4813 4801 4715 4704 4705 4675 4725 4713 4791 4717 4752 4737 4621 4745 4762 4659 4553 4607 4725 4662 4679 4646 4606 4541 4737 4583 4686 4700 4614 4738 4655 4581 4648 4649 4455 4573 4537 4681 4511 4568 4556 4583 4700 4501 4487 4544 4580 4521 4562 4535 4610 4601 4617 4479 4655 4575 4369 4636 4467 4506 4622 4466 4441 4555 4448 4549 4525 4585 4520 4573 4513 4491 4588 4495 4479 4428 4428 4448 4453 4471 4595 4561 4522 4487 4477 4548 4444 4601 4477 4440 4495 4627 4503 4605 4626 4452 4383 4569 4353 4457 4469 4430 4534 4546 4594 4452 4546 4445 4387 4422 4594 4643 4568 4567 4660 4704 4571 4539 4452 4545 4534 4594 4626 4509 4627 4548 4616 4592 4682 4671 4597 4545 4673 4562 4455 4536 4501 4636 4628 4632 4575 4625 4517 4698 4811 4746 4669 4619 4654 4719 4608 4631 4668 4578 4586 4553 4732 4622 4582 4654 4556 4689 4681 4702 4701 4651 4442 4633 4562 4511 4382 4576 4445 4501 4576 4460 4479 4342 4446 4471 4402 4524 4372 4431 4468 4545 4536 4474 4437 4447 4502 4473 4496 4343 4442 4317 4569 4412 4443 4400 4471 4308 4425 4525 4351 4353 4455 4507 4466 4453 4466 4301 4442 4339 4353 4466 4428 4521 4346 4467 4477 4457 4377 4240 4397 4364 4391 4484 4488 4339 4402 4437 4424 4493 4314 4387 4447 4461 4385 4528 4424 4499 4353 4375 4361 4468 4442 4369 4353 4424 4500 4460 4531 4339 4333 4426 4507 4386 4511 4403 4426 4417 4425 4375 4292 4375 4447 4466 4372 4458 4447 4301 4316 4414 4391 4526 4506 4483 4317 4434 4381 4486 4486 4418 4336 4459 4450 4341 4506 4246 4398 4460 4385 4412 4349 4430 4397 4555 4388 4445 4293 4466 4408 4419 4420 4351 4320 4594 4327 4383 4327 4494 4310 4460 4379 4347 4322 4362 4328 4383 4405 4359 4297 4348 4410 4329 4327 4223 4341 4419 4379 4474 4391 4277 4417 4316 4340 4303 4438 4439 4276 4296 4350 4336 4397 4471 4324 4387 4344 4381 4117 4312 4350 4353 4371 4405 4345 4386 4263 4250 4449 4341 4432 4320 4375 4528 4217 4447 4288 4309 4310 4344 4377 4205 4333 4407 4357 4268 4313 4366 4338 4373 4233 4313 4322 4308 4300 4208 4210 4304 4255 4218 4252 4450 4309 4365 4358 4441 4447 4281 4412 4413 4515 4281 4399 4359 4229 4228 4360 4250 4314 4310 4284 4276 4291 4286 4276 4339 4205 4310 4440 4358 4415 4348 4399 4341 4337 4253 4441 4334 4267 4236 4422 4281 4209 4353 4163 4178 4301 4211 4385 4173 4268 4270 4391 4316 4265 4271 4161 4238 4336 4307 4220 4390 4321 4297 4292 4330 4350 4362 4313 4277 4182 4293 4221 4283 4207 4313 4253 4381 4310 4251 4289 4243 4300 4400 4309 4372 4444 4300 4305 4437 4312 4247 4271 4239 4318 4292 4278 4363 4154 4324 4365 4219 4250 4381 4381 4182 4280 4315 4321 4298 4340 4409 4421 4332 4421 4290 4408 4327 4301 4342 4270 4310 4383 4401 4369 4300 4270 4382 4349 4412 4509 4209 4567 4289 4335 4397 4400 4466 4318 4354 4370 4377 4270 4475 4344 4327 4372 4399 4339 4392 4394 4365 4376 4398 4343 4318 4315 4295 4360 4324 4423 4356 4512 4353 4364 4331 4274 4308 4293 4378 4332 4247 4201 4354 4349 4304 4383 4383 4362 4298 4329 4383 4423 4415 4307 4388 4281 4344 4377 4299 4352 4272 4387 4325 4406 4337 4197 4392 4303 4178 4383 4358 4243 4271 4338 4274 4155 4281 4359 4219 4431 4333 4396 4304 4421 4262 4328 4325 4270 4207 4237 4309 4213 4341 4237 4271 4201 4330 4265 4289 4263 4249 4212 4186 4222 4116 4271 4347 4301 4113 4278 4157 4314 4360 4081 4229 4225 4125 4269 4119 4220 4198 4143 4138 4243 4076 4240 4089 4064 4065 4303 4249 4184 4036 4061 4133 4239 4287 4173 4230 4006 4210 3998 4228 4076 4097 4096 4166 4107 4144 4084 4053 4139 4106 4128 4034 4134 4138 4001 4209 4076 4072 4149 4189 3992 4040 4087 4076 4161 4108 4198 4060 3926 3992 4181 4023 4034 4020 4122 3971 4141 3952 4019 3909 3974 3950 3863 3984 3998 3949 4084 3915 3984 3830 4041 3957 3914 4006 3922 3854 3927 3946 3866 3987 3815 3986 3872 3888 3880 3969 3963 3916 4009 3904 4013 3956 3902 3903 3835 3987 4035 3907 3868 3840 3976 3865 3868 3903 3890 3906 3869 4017 3853 3855 3879 3924 3885 3880 3935 3896 3760 3845 3767 3998 3893 3887 3888 3876 3940 3984 3829 3875 3907 3796 3942 3877 3899 3988 3886 3976 3769 3972 3966 3787 3879 3895 3901 3820 3898 4056 3904 3973 3855 3909 3919 3930 3980 3964 4058 3892 3973 3860 3866 3929 3878 3955 3815 3935 3904 3780 3920 3962 3888 3884 3850 4019 3951 4001 4027 3956 4026 3974 4050 3845 3961 3984 3964 3992 3887 3930 4039 4079 4010 3874 3995 3956 3984 3865 3953 4007 3859 3885 3858 3954 3990 3838 3941 3863 3861 3981 3863 3968 3927 3949 3907 3785 3879 3867 4022 3873 3843 3884 3944 3960 3906 3876 3814 3919 3922 3769 3880 3806 3844 3931 3867 3804 3880 3962 3871 3890 3917 3961 3992 3981 3870 3762 4006 3873 3862 3881 3895 3890 3851 3787 3853 3755 3824 3815 3836 3920 4018 3848 3810 3847 3797 3895 3813 3892 4023 3907 3944 3770 3913 3858 3834 3779 3861 3856 3785 3954 3798 3908 3945 3976 3853 3873 3885 3788 3848 3962 3833 3955 3853 3852 3888 3891 3981 3847 3819 3879 3833 3826 3868 3800 3970 3844 3910 3785 3790 3777 3881 3752 3914 3835 3983 3843 3987 3968 3949 3853 3813 3838 3815 3836 3823 3823 3833 3835 3963 3898 3995 3929 3810 3935 3930 3937 3892 3814 3896 3850 3839 3787 3869 3841 3959 3854 3962 3839 3808 3884 3965 3863 3727 3835 3950 3814 3731 3767 3903 3813 3954 3809 3701 3875 3816 3754 3825 3872 3826 3807 3850 3788 3735 3745 3869 3814 3785 3799 3773 3786 3827 3830 3788 3805 3935 3733 3811 3731 3792 3787 3750 3784 3796 3880 3654 3729 3820 3723 3757 3711 3619 3794 3894 3734 3898 3767 3779 3775 3769 3728 3823 3709 3705 3732 3621 3804 3767 3753 3735 3780 3689 3669 3681 3744 3750 3649 3563 3715 3705 3741 3728 3763 3791 3784 3668 3765 3851 3730 3761 3655 3646 3631 3675 3619 3645 3668 3697 3633 3640 3702 3734 3699 3625 3780 3655 3621 3621 3723 3667 3700 3606 3733 3571 3720 3714 3616 3660 3637 3695 3652 3638 3556 3559 3672 3593 3605 3545 3636 3595 3632 3687 3587 3685 3685 3517 3663 3586 3557 3560 3694 3566 3658 3610 3590 3591 3616 3516 3560 3554 3510 3528 3496 3454 3552 3566 3434 3459 3608 3612 3616 3700 3570 3530 3578 3532 3533 3517 3682 3544 3663 3570 3504 3497 3487 3673 3524 3567 3554 3527 3544 3510 3569 3463 3649 3587 3471 3420 3529 3670 3529 3610 3403 3711 3621 3499 3586 3593 3659 3489 3634 3617 3644 3641 3549 3710 3564 3743 3708 3597 3647 3781 3667 3613 3731 3662 3683 3650 3615 3778 3682 3649 3821 3787 3674 3696 3752 3804 3760 3815 3810 3833 3744 3956 3834 3784 3774 3712 3911 3842 3708 3796 3885 3795 3819 3726 3888 3777 3752 3730 3712 3683 3886 3855 3799 3871 3770 3874 3795 3709 3798 3799 3672 3706 3653 3769 3727 3662 3694 3748 3637 3728 3626 3714 3560 3639 3654 3625 3721 3516 3632 3663 3630 3711 3695 3689 3655 3717 3577 3621 3684 3787 3679 3668 3746 3661 3666 3633 3610 3538 3715 3771 3675 3642 3672 3695 3692 3721 3722 3757 3860 3783 4019 3814 3961 3811 3879 3989 4050 3989 3873 3987 3932 3856 3921 3982 3942 3934 3996 3941 3906 3951 3878 4037 3906 4058 3990 4089 4046 4169 4137 4332 4311 4412 4387 4356 4484 4440 4504 4588 4478 4604 4497 4500 4616 4390 4481 4504 4480 4429 4479 4381 4225 4415 4188 4056 4011 4012 3995 3935 3964 3995 3868 3825 3722 3760 3824 3746 3689 3683 3706 3767 3671 3726 3524 3537 3521 3602 3554 3482 3472 3437 3551 3601 3567 3412 3431 3413 3528 3524 3525 3372 3357 3401 3498 3468 3454 3491 3391 3486 3477 3477 3482 3478 3475 3409 3423 3408 3429 3549 3481 3335 3369 3342 3375 3498 3361 3382 3516 3443 3391 3396 3410 3412 3340 3439 3346 3456 3350 3351 3362 3387 3538 3365 3367 3396 3411 3417 3331 3353 3404 3340 3452 3421 3311 3305 3267 3385 3369 3363 3401 3436 3369 3394 3354 3509 3291 3401 3337 3352 3452 3330 3394 3337 3299 3406 3406 3389 3328 3523 3379 3353 3337 3243 3371 3390 3375 3523 3366 3410 3340 3228 3525 3418 3332 3381 3278 3335 3426 3398 3363 3349 3471 3277 3398 3401 3440 3420 3459 3315 3523 3297 3368 3380 3317 3430 3445 3401 3270 3472 3373 3286 3481 3403 3397 3420 3417 3308 3329 3452 3385 3376 3287 3397 3374 3435 3414 3329 3411 3400 3339 3423 3465 3352 3389 3395 3420 3367 3305 3364 3424 3397 3529 3401 3278 3465 3347 3357 3426 3319 3428 3314 3305 3337 3378 3446 3424 3361 3241 3478 3335 3397 3417 3404 3300 3459 3337 3316 3400 3407 3328 3396 3516 3381 3333 3291 3445 3503 3323 3419 3405 3469 3426 3336 3403 3297 3343 3362 3370 3270 3329 3421 3350 3365 3371 3532 3304 3395 3386 3391 3358 3398 3283 3369 3341 3330 3451 3351 3425 3348 3281 3384 3413 3369 3377 3387 3442 3363 3275 3413 3329 3376 3422 3424 3275 3467 3400 3342 3378 3444 3294 3461 3381 3414 3383 3448 3326 3383 3255 3445 3375 3297 3431 3409 3354 3340 3341 3465 3299 3466 3293 3359 3400 3317 3343 3370 3380 3413 3405 3396 3400 3436 3389 3457 3394 3383 3395 3458 3460 3467 3373 3452 3368 3274 3408 3376 3404 3400 3409 3327 3312 3411 3424 3348 3277 3426 3418 3343 3387 3439 3450 3442 3376 3382 3481 3389 3408 3352 3318 3473 3386 3328 3362 3421 3396 3487 3312 3433 3375 3356 3431 3395 3436 3424 3403 3489 3561 3400 3546 3357 3402 3349 3459 3458 3445 3455 3419 3442 3504 3562 3649 3727 3570 3657 3509 3644 3626 3754 3972 3812 3981 4002 4122 4208 4316 4239 4371 4558 4517 4670 4642 4649 4640 4630 4692 4734 5031 4976 5058 4959 5128 5176 5316 5273 5401 5505 5350 5346 5520 5388 5576 5692 5732 5899 5863 5944 5897 6069 6175 6172 6312 6357 6434 6388 6450 6237 6311 6210 6207 6066 6040 5792 5815 5763 5497 5319 5404 5254 5092 5050 5012 4956 4974 4908 4982 4861 4835 4774 4825 4728 4707 4712 4648 4705 4456 4554 4416 4196 4227 4132 4085 3930 3956 3961 3825 3781 3830 3780 3868 3739 3675 3725 3631 3647 3801 3833 3692 3774 3841 3751 3615 3704 3730 3686 3645 3838 3723 3668 3727 3722 3800 3808 3791 3756 3836 3677 3808 3621 3699 3813 3546 3690 3660 3738 3708 3586 3615 3688 3502 3641 3416 3588 3463 3553 3466 3570 3484 3526 3429 3413 3516 3487 3480 3523 3343 3416 3594 3542 3477 3385 3434 3339 3293 3440 3516 3491 3443 3469 3414 3461 3368 3412 3357 3323 3353 3514 3406 3443 3430 3427 3412 3362 3490 3434 3403 3321 3440 3434 3473 3321 3399 3480 3433 3453 3367 3374 3405 3507 3413 3452 3383 3470 3412 3381 3342 3481 3316 3420 3382 3465 3339 3416 3370 3480 3391 3427 3394 3458 3469 3361 3319 3339 3380 3410 3433 3342 3388 3383 3324 3399 3484 3378 3325 3298 3397 3359 3373 3350 3398 3536 3534 3285 3359 3394 3386 3320 3434 3409 3418 3354 3341 3376 3369 3294 3330 3362 3285 3313 3341 3338 3343 3296 3355 3352 3295 3315 3362 3326 3345 3432 3398 3349 3286 3290 3415 3404 3362 3354 3369 3371 3339 3358 3443 3310 3343 3450 3350 3347 3356 3294 3331 3348 3309 3376 3232 3307 3263 3428 3413 3260 3388 3351 3302 3309 3244 3262 3262 3277 3259 3383 3409 3352 3294 3306 3300 3352 3330 3321 3293 3339 3343 3366 3336 3405 3247 3263 3264 3282 3410 3412 3383 3367 3395 3351 3365 3439 3316 3293 3365 3385 3386 3432 3342 3385 3349 3321 3323 3444 3296 3467 3336 3392 3430 3408 3255 3397 3434 3453 3341 3463 3343 3333 3431 3437 3388 3346 3389 3369 3504 3395 3333 3399 3309 3385 3387 3384 3334 3437 3337 3371 3345 3425 3241 3289 3223 3339 3330 3378 3366 3180 3345 3280 3224 3317 3414 3303 3387 3240 3320 3339 3204 3257 3328 3404 3339 3317 3206 3324 3200 3262 3297 3218 3256 3269 3286 3368 3264 3384 3268 3301 3418 3424 3420 3248 3310 3312 3263 3290 3255 3269 3310 3367 3393 3336 3386 3436 3366 3293 3226 3313 3335 3316 3271 3308 3361 3327 3295 3377 3362 3267 3390 3361 3384 3373 3418 3315 3395 3376 3414 3366 3373 3344 3362 3386 3316 3277 3371 3347 3231 3359 3311 3236 3389 3291 3247 3270 3312 3207 3315 3204 3331 3296 3250 3170 3325 3254 3131 3229 3340 3203 3257 3239 3214 3291 3212 3254 3209 3301 3205 3198 3255 3232 3226 3371 3317 3263 3348 3236 3292 3219 3227 3210 3184 3154 3224 3272 3207 3206 3143 3134 3227 3153 3250 3175 3193 3223 3245 3245 3245 3227 3259 3295 3257 3156 3165 3172 3297 3250 3179 3282 3157 3217 3209 3268 3258 3313 3107 3292 3208 3173 3187 3217 3303 3138 3218 3206 3218 3214 3322 3223 3296 3131 3210 3220 3196 3214 3318 3139 3288 3208 3240 3285 3140 3136 3248 3327 3219 3193 3164 3120 3183 3175 3188 3199 3267 3144 3184 3269 3209 3217 3157 3228 3206 3153 3221 3286 3321 3325 3295 3259 3249 3239 3197 3156 3102 3077 3199 3172 3210 3275 3183 3312 3206 3268 3230 3148 3230 3308 3236 3189 3289 3311 3212 3224 3210 3197 3177 3235 3231 3217 3241 3203 3201 3267 3221 3242 3280 3199 3177 3182 3218 3228 3224 3251 3239 3216 3159 3204 3151 3246 3216 3207 3100 3193 3246 3240 3218 3232 3178 3205 3156 3305 3307 3207 3307 3181 3290 3268 3268 3206 3145 3257 3185 3216 3226 3197 3206 3128 3216 3267 3324 3231 3139 3168 3331 3138 3196 3256 3194 3154 3224 3183 3149 3246 3224 3191 3143 3264 3192 3264 3142 3274 3233 3302 3205 3247 3173 3215 3159 3349 3170 3297 3239 3270 3205 3189 3264 3139 3239 3343 3219 3194 3168 3221 3259 3297 3240 3300 3278 3283 3235 3182 3221 3203 3164 3127 3353 3231 3258 3235 3142 3249 3206 3272 3259 3289 3249 3221 3216 3201 3256 3269 3117 3256 3167 3150 3213 3169 3346 3111 3268 3262 3183 3267 3199 3101 3229 3205 3125 3211 3215 3221 3284 3225 3196 3243 3164 3188 3282 3131 3360 3178 3384 3208 3317 3311 3215 3210 3284 3159 3255 3192 3216 3328 3277 3254 3168 3166 3356 3184 3200 3221 3193 3232 3199 3244 3311 3245 3369 3302 3192 3285 3289 3251 3279 3200 3226 3210 3425 3304 3317 3294 3252 3165 3194 3218 3217 3257 3225 3287 3234 3304 3167 3249 3245 3276 3225 3130 3183 3129 3097 3182 3223 3197 3222 3155 3225 3204 3117 3151 3188 3168 3162 3219 3136 3171 3245 3082 3218 3220 3177 3105 3228 3096 3143 3116 3168 3170 3180 3194 3194 3228 3164 3262 3200 3263 3263 3268 3234 3213 3252 3321 3246 3173 3214 3299 3186 3202 3242 3117 3159 3221 3218 3155 3269 3143 3226 3231 3217 3239 3236 3166 3243 3217 3198 3113 3212 3132 3191 3274 3154 3167 3216 3125 3215 3249 3122 3217 3135 3228 3284 3142 3178 3218 3226 3205 3258 3140 3136 3138 3176 3203 3188 3199 3212 3189 3149 3162 3198 3143 3127 3155 3194 3175 3172 3220 3202 3167 3163 3281 3182 3292 3142 3162 3202 3232 3269 3269 3243 3242 3268 3276 3183 3275 3210 3228 3209 3165 3218 3207 3262 3243 3166 3272 3203 3197 3231 3123 3162 3198 3243 3186 3062 3195 3128 3175 3248 3068 3131 3237 3296 3247 3206 3204 3201 3093 3286 3217 3246 3221 3227 3099 3246 3165 3160 3267 3228 3181 3182 3203 3216 3222 3109 3159 3083 3209 3117 3231 3167 3212 3129 3203 3223 3263 3319 3292 3270 3244 3222 3238 3309 3323 3243 3298 3341 3248 3224 3220 3376 3383 3357 3403 3296 3328 3390 3242 3365 3434 3439 3272 3453 3453 3459 3406 3433 3445 3489 3509 3381 3477 3488 3532 3525 3557 3579 3505 3501 3511 3396 3437 3459 3477 3458 3416 3443 3308 3442 3389 3369 3343 3352 3379 3446 3479 3526 3404 3480 3361 3344 3344 3420 3292 3308 3355 3240 3268 3219 3306 3305 3266 3282 3275 3269 3186 3376 3303 3318 3204 3309 3177 3179 3273 3246 3268 3251 3195 3179 3168 3227 3192 3217 3172 3173 3103 3261 3301 3186 3230 3141 3178 3194 3195 3248 3219 3421 3279 3213 3162 3287 3250 3233 3307 3265 3208 3156 3270 3304 3294 3339 3231 3256 3207 3296 3279 3298 3178 3333 3290 3252 3309 3183 3202 3294 3210 3265 3212 3287 3342 3277 3177 3336 3276 3250 3329 3201 3225 3298 3257 3198 3326 3273 3267 3238 3296 3232 3155 3241 3219 3220 3307 3220 3247 3106 3222 3164 3204 3188 3229 3207 3212 3226 3098 3185 3232 3255 3049 3230 3188 3201 3264 3242 3255 3297 3077 3264 3126 3212 3196 3207 3250 3188 3291 3168 3198 3199 3280 3224 3204 3265 3148 3227 3206 3206 3203 3262 3240 3184 3279 3240 3224 3213 3205 3186 3224 3215 3234 3233 3159 3292 3226 3287 3292 3203 3174 3124 3204 3228 3211 3250 3244 3214 3227 3192 3161 3101 3134 3265 3195 3178 3209 3155 3288 3239 3199 3295 3228 3212 3219 3321 3240 3201 3217 3290 3220 3249 3085 3167 3124 3220 3254 3170 3086 3208 3263 3295 3167 3297 3245 3193 3161 3189 3249 3251 3212 3222 3260 3272 3266 3391 3002 3272 3157 3142 3220 3342 3210 3245 3297 3290 3177 3185 3218 3214 3250 3268 3337 3182 3248 3216 3188 3185 3247 3181 3196 3331 3173 3155 3202 3255 3310 3250 3165 3298 3145 3237 3126 3209 3251 3201 3125 3292 3171 3119 3252 3124 3141 3215 3161 3223 3181 3212 3183 3261 3188 3161 3239 3295 3227 3220 3339 3163 3281 3190 3373 3211 3201 3253 3232 3164 3274 3218 3237 3164 3273 3100 3223 3223 3221 3223 3282 3191 3241 3233 3411 3219 3285 3224 3260 3305 3307 3260 3248 3191 3308 3350 3300 3347 3254 3264 3218 3302 3325 3195 3314 3304 3311 3432 3425 3391 3421 3316 3557 3583 3626 3710 3575 3583 3778 3648 3760 3710 3746 3816 3876 3933 3856 3971 3862 3934 3915 3920 3953 3940 4042 4041 4126 4195 4178 4276 4196 4240 4236 4253 4331 4338 4325 4541 4471 4602 4526 4670 4387 4673 4570 4499 4585 4605 4378 4434 4429 4505 4534 4498 4274 4264 4312 4224 4407 4123 4039 4099 3894 3806 3860 3703 3796 3785 3827 3542 3713 3611 3725 3599 3748 3542 3508 3588 3498 3486 3462 3431 3424 3484 3394 3408 3349 3301 3537 3455 3441 3386 3459 3373 3487 3417 3440 3535 3450 3330 3338 3467 3591 3501 3434 3359 3433 3340 3469 3394 3411 3467 3557 3367 3511 3394 3410 3425 3378 3375 3481 3433 3381 3513 3581 3612 3637 3571 3567 3477 3680 3602 3554 3687 3722 3675 3583 3702 3602 3705 3572 3647 3648 3709 3814 3849 3683 3854 3764 3769 3797 3859 3769 3840 3803 3744 3728 3731 3635 3673 3644 3681 3614 3637 3579 3439 3399 3429 3426 3453 3566 3407 3456 3372 3383 3347 3287 3343 3346 3271 3178 3368 3310 3280 3232 3312 3183 3259 3197 3224 3344 3295 3212 3228 3281 3359 3113 3198 3210 3294 3181 3206 3242 3189 3136 3308 3189 3151 3145 3214 3202 3146 3245 3134 3254 3148 3224 3289 3208 3229 3278 3247 3265 3166 3303 3223 3256 3124 3180 3162 3219 3199 3272 3324 3306 3220 3289 3266 3348 3315 3270 3332 3297 3298 3221 3293 3382 3230 3213 3135 3250 3215 3177 3224 3275 3290 3234 3271 3288 3272 3297 3379 3313 3371 3294 3467 3402 3449 3334 3406 3240 3339 3317 3405 3372 3360 3369 3403 3351 3394 3283 3460 3389 3309 3437 3324 3363 3487 3328 3361 3373 3309 3335 3298 3423 3337 3257 3200 3334 3304 3212 3250 3202 3258 3273 3237 3161 3277 3249 3345 3313 3265 3383 3273 3406 3237 3393 3275 3367 3197 3303 3300 3332 3309 3248 3249 3295 3387 3327 3310 3322 3343 3328 3348 3306 3332 3264 3293 3342 3286 3326 3250 3301 3259 3328 3226 3257 3261 3273 3316 3231 3397 3372 3249 3337 3284 3260 3331 3373 3406 3197 3308 3271 3295 3316 3382 3338 3308 3403 3377 3375 3310 3375 3470 3394 3418 3406 3510 3378 3504 3506 3388 3413 3342 3445 3328 3412 3457 3434 3331 3338 3338 3287 3370 3363 3329 3330 3268 3359 3282 3379 3299 3366 3325 3223 3291 3311 3235 3251 3175 3203 3213 3174 3101 3186 3179 3288 3157 3291 3363 3249 3234 3221 3345 3239 3173 3204 3255 3013 3158 3100 3131 3244 3214 3178 3206 3255 3237 3177 3169 3112 3186 3161 3173 3272 3246 3290 3221 3146 3194 3119 3253 3153 3198 3258 3093 3163 3089 3228 3141 3235 3175 3240 3283 3195 3256 3197 3227 3185 3182 3150 3265 3181 3263 3172 3241 3307 3150 3185 3053 3165 3223 3188 3195 3142 3104 3140 3177 3205 3168 3136 3149 3206 3217 3107 3235 3151 3128 3074 3199 3268 3217 3208 3135 3203 3159 3241 3166 3334 3238 3230 3108 3138 3199 3221 3198 3211 3143 3172 3071 3169 3252 3103 3178 3062 3250 3151 3168 3180 3122 3094 3245 3127 3148 3186 3174 3262 3173 3209 3188 3172 3155 3166 3222 3219 3204 3211 3109 3144 3223 3192 3226 3190 3119 3144 3228 3151 3164 3251 3212 3064 3226 3184 3205 3187 3210 3222 3238 3275 3155 3055 3111 3212 3194 3246 3165 3148 3140 3105 3143 3151 3217 3226 3108 3204 3226 3215 3137 3181 3154 3253 3043 3121 3229 3213 3219 3117 3166 3128 3181 3230 3121 3093 3163 3166 3143 3197 3178 3225 3055 3186 3105 3180 3220 3233 3198 3200 3256 3221 3186 3203 3235 3172 3188 3189 3134 3253 3136 3210 3265 3245 3116 3167 3169 3175 3201 3169 3143 3131 3176 3203 3156 3178 3216 3197 3176 3171 3302 3140 3167 3211 3178 3187 3167 3083 3156 3204 3203 3105 3246 3193 3231 3138 3256 3117 3224 3189 3210 3260 3150 3189 3276 3134 3152 3122 3090 3127 3201 3224 3225 3211 3288 3160 3198 3131 3130 3134 3156 3189 3196 3151 3095 3197 3236 3218 3123 3265 3187 3143 3156 3170 3244 3215 3049 3131 3086 3308 3130 3240 3207 3179 3257 3141 3155 3194 3082 3142 3081 3128 3130 3144 3222 3102 3120 3115 3190 3163 3234 3051 3233 3148 3205 3118 3054 3154 3137 3138 3107 3180 3221 3166 3158 3054 3127 3052 3181 3156 3188 3138 3173 3145 3122 3200 3148 3173 3249 3195 3133 3182 3205 3106 3174 3104 3230 3181 3153 3172 3191 3144 3324 3190 3314 3094 3132 3155 3121 3110 3125 3166 3124 3118 3119 3255 3164 3166 3098 3147 3113 3236 3276 3095 3128 3176 3139 3174 3202 3146 3149 3156 3102 3195 3105 3277 3111 3149 3149 3069 3240 3186 3144 3126 3110 3058 3164 3023 3069 3105 3140 3216 3158 3246 3273 3110 3180 3201 3135 3148 3153 3162 3203 3214 3167 3200 3254 3121 3194 3233 3222 3171 3210 3235 3180 3179 3250 3166 3168 3250 3177 3179 3239 3216 3136 3117 3124 3182 3141 3202 3199 3241 3111 3213 3210 3137 3280 3258 3188 3180 3227 3262 3124 3229 3230 3272 3260 3319 3251 3213 3227 3313 3356 3223 3296 3381 3332 3365 3324 3357 3275 3419 3304 3356 3435 3324 3449 3435 3456 3383 3493 3551 3390 3443 3517 3510 3398 3520 3531 3402 3489 3428 3445 3397 3410 3485 3457 3383 3507 3421 3432 3460 3441 3327 3298 3362 3422 3650 3347 3288 3289 3440 3309 3350 3273 3348 3387 3254 3314 3367 3238 3252 3303 3122 3169 3150 3268 3211 3252 3333 3251 3245 3238 3127 3250 3204 3126 3261 3110 3366 3252 3178 3221 3216 3208 3322 3240 3235 3322 3225 3267 3197 3203 3270 3225 3161 3284 3119 3240 3232 3119 3238 3269 3281 3166 3247 3095 3166 3347 3150 3178 3181 3268 3228 3180 3239 3166 3117 3234 3122 3219 3183 3124 3211 3153 3302 3193 3247 3245 3164 3070 3171 3191 3143 3191 3130 3299 3209 3145 3110 3132 3177 3167 3086 3213 3230 3120 3131 3311 3238 3131 3200 3088 3206 3192 3239 3049 3156 3219 3228 3261 3221 3170 3078 3185 3236 3182 3203 3134 3215 3061 3199 3225 3136 3188 3206 3216 3200 3182 3181 3189 3174 3259 3167 3201 3210 3148 3225 3303 3205 3174 3200 3233 3316 3233 3255 3297 3240 3296 3273 3210 3190 3158 3208 3219 3260 3119 3125 3140 3263 3289 3183 3091 3247 3239 3212 3240 3203 3192 3235 3231 3119 3254 3201 3149 3091 3191 3180 3295 3215 3225 3195 3214 3239 3241 3191 3287 3182 3289 3165 3277 3251 3120 3147 3275 3178 3080 3176 3206 3270 3156 3219 3202 3209 3234 3246 3223 3195 3183 3194 3236 3250 3203 3150 3267 3197 3229 3211 3252 3227 3209 3378 3221 3221 3257 3167 3284 3293 3350 3332 3348 3355 3297 3323 3289 3299 3365 3368 3363 3429 3483 3449 3482 3423 3470 3390 3530 3452 3607 3459 3480 3561 3631 3441 3525 3488 3555 3528 3561 3501 3456 3555 3495 3477 3523 3475 3475 3453 3463 3376 3314 3508 3412 3311 3479 3337 3306 3314 3241 3381 3359 3313 3381 3342 3262 3404 3370 3354 3239 3313 3243 3358 3375 3265 3287 3346 3365 3340 3304 3299 3302 3372 3324 3369 3252 3286 3315 3255 3278 3198 3179 3264 3248 3326 3254 3260 3263 3251 3307 3365 3411 3264 3266 3233 3174 3209 3258 3191 3331 3183 3315 3218 3121 3211 3241 3223 3176 3248 3142 3192 3195 3184 3208 3211 3231 3211 3171 3173 3246 3195 3196 3171 3218 3196 3237 3202 3249 3263 3285 3292 3181 3216 3254 3229 3309 3243 3186 3259 3128 3330 3263 3273 3184 3222 3260 3261 3178 3203 3155 3228 3254 3261 3323 3329 3323 3172 3170 3201 3277 3308 3272 3282 3269 3306 3297 3369 3332 3299 3384 3374 3331 3245 3301 3292 3288 3421 3301 3261 3405 3208 3304 3205 3377 3315 3230 3323 3352 3280 3451 3282 3178 3294 3252 3311 3258 3244 3251 3312 3232 3295 3249 3177 3304 3317 3184 3306 3308 3166 3397 3279 3220 3210 3234 3277 3215 3294 3337 3307 3231 3195 3311 3387 3310 3342 3414 3239 3239 3336 3260 3255 3325 3376 3347 3353 3215 3380 3209 3292 3334 3384 3237 3355 3191 3227 3359 3416 3222 3197 3269 3160 3350 3177 3258 3306 3164 3201 3183 3163 3225 3154 3266 3296 3172 3251 3224 3232 3198 3100 3305 3224 3272 3178 3173 3243 3158 3208 3209 3182 3221 3164 3194 3181 3166 3234 3141 3157 3076 3119 3278 3177 3234 3252 3173 3229 3288 3203 3159 3376 3249 3150 3221 3214 3251 3241 3194 3211 3173 3106 3205 3254 3219 3131 3160 3226 3198 3250 3171 3194 3134 3132 3184 3167 3127 3126 3049 3205 3171 3161 3194 3203 3064 3260 3111 3239 3211 3065 3217 3107 3233 3231 3133 3160 3093 3275 3143 3237 3205 3234 3143 3142 3217 3191 3093 3246 3164 3079 3262 3229 3263 3221 3186 3096 3113 3109 3187 3157 3175 3296 3109 3146 3198 3183 3167 3277 3144 3183 3169 3169 3125 3119 3199 3188 3186 3095 3222 3146 3083 3245 3128 3268 3211 3080 3104 3202 3191 3079 3243 3068 3300 3237 3220 3213 3170 3066 3207 3139 3168 3137 3141 3174 3195 3281 3206 3084 3229 3078 3134 3076 3217 3111 3178 3163 3165 3157 3169 3164 3206 3181 3166 3281 3183 3201 3201 3293 3174 3025 3230 3215 3142 3216 3190 3198 3135 3312 3192 3240 3256 3188 3211 3167 3242 3249 3149 3149 3182 3130 3217 3182 3222 3126 3193 3135 3169 3203 3049 3080 3146 3154 3227 3257 3168 3193 3171 3119 3209 3196 3228 3224 3065 3279 3262 3142 3144 3160 3169 3140 3231 3240 3207 3183 3201 3115 3154 3257 3245 3221 3188 3191 3122 3160 3167 3210 3200 3184 3140 3197 3154 3262 3210 3086 3176 3276 3134 3150 3219 3160 3120 3169 3215 3178 3219 3232 3187 3109 3301 3166 3247 3210 3103 3103 3202 3175 3101 3308 3225 3086 3225 3186 3174 3162 3142 3260 3176 3179 3115 3153 3147 3151 3245 3250 3162 3181 3153 3276 3206 3164 3162 3225 3175 3203 3172 3221 3226 3124 3188 3104 3155 3187 3281 3126 3219 3128 3106 3126 3108 3124 3265 3121 3203 3168 3241 3190 3227 3096 3214 3316 3122 3150 3168 3304 3155 3203 3067 3186 3132 3234 3161 3118 3141 3164 3233 3185 3267 3135 3108 3193 3176 3090 3216 3055 3159 3194 3084 3127 3191 3151 3187 3276 3224 3148 3195 3200 3178 3176 3140 3263 3157 3156 3228 3059 3148 3247 3209 3193 3107 3185 3096 3009 3209 3099 3136 3193 3149 3135 3213 3291 3119 3141 3136 3155 3103 3200 3045 3152 3091 3196 3228 3159 3221 3200 3143 3091 3184 3165 3071 3216 3123 3157 3257 3109 3169 3265 3094 3147 3212 3206 3152 3211 3120 3162 3221 3215 3166 3154 3184 3166 2995 3241 3209 3197 3126 3144 3146 3198 3168 3206 3161 3250 3042 3231 3169 3225 3269 3214 3086 3286 3071 3261 3054 3240 3104 3231 3276 3153 3251 3140 3207 3117 3099 3105 3176 3166 3268 3187 3245 3205 3261 3225 3128 3191 3182 3138 3220 3217 3246 3232 3270 3229 3092 3215 3246 3206 3185 3240 3218 3236 3206 3191 3056 3164 3228 3276 3188 3240 3195 3256 3252 3213 3236 3231 3190 3288 3171 3232 3331 3245 3102 3256 3267 3231 3239 3184 3125 3102 3250 3139 3214 3203 3100 3207 3192 3215 3131 3189 3217 3178 3160 3249 3259 3163 3230 3199 3222 3123 3207 3135 3222 3210 3205 3183 3137 3193 3151 3236 3086 3211 3156 3225 3206 3152 3184 3076 3309 3154 3137 3211 3169 3038 3184 3164 3217 3235 3073 3153 3119 3158 3128 3152 3139 3141 3161 3185 3252 3170 3163 3148 3063 3228 3204 3277 3221 3255 3225 3201 3196 3157 3170 3233 3163 3269 3184 3159 3256 3257 3039 3138 3140 3106 3150 3161 3133 3140 3136 3113 3160 3164 3228 3195 3204 3067 3115 3179 3241 3228 3182 3196 3229 3111 3114 3091 3144 3039 3195 3290 3236 3157 3251 3180 3196 3194 3274 3154 3184 3146 3156 3200 3247 3290 3160 3206 3178 3197 3202 3280 3154 3189 3158 3125 3189 3097 3190 3222 3244 3260 3268 3309 3196 3246 3155 3316 3132 3101 3327 3175 3134 3130 3249 3172 3233 3168 3184 3175 3139 3219 3190 3142 3149 3250 3208 3253 3246 3186 3195 3165 3217 3145 3209 3207 3196 3249 3221 3230 3148 3225 3069 3181 3241 3186 3328 3147 3106 3154 3209 3143 3264 3165 3170 3236 3133 3260 3086 3186 3177 3175 3219 3144 3212 3061 3132 3148 3241 3136 3184 3175 3142 3138 3185 3143 3178 3143 3218 3189 3171 3108 3170 3211 3215 3207 3348 3177 3207 3264 3170 3106 3168 3153 3218 3182 3201 3229 3216 3262 3266 3163 3295 3198 3339 3231 3251 3203 3238 3322 3370 3342 3358 3250 3294 3335 3389 3315 3274 3348 3332 3395 3338 3393 3327 3361 3429 3357 3193 3366 3348 3325 3424 3330 3329 3318 3366 3319 3265 3407 3266 3384 3329 3290 3371 3275 3383 3280 3203 3352 3346 3218 3365 3180 3248 3169 3288 3394 3315 3307 3239 3289 3096 3283 3184 3202 3174 3167 3304 3224 3206 3287 3335 3163 3185 3139 3239 3203 3292 3257 3268 3260 3185 3132 3342 3230 3209 3183 3268 3241 3248 3109 3389 3238 3233 3262 3324 3161 3198 3253 3196 3182 3123 3302 3227 3196 3249 3200 3280 3196 3230 3211 3123 3270 3249 3232 3215 3248 3246 3216 3258 3223 3280 3217 3233 3180 3114 3208 3229 3145 3160 3103 3195 3138 3140 3249 3231 3114 3199 3093 3226 3169 3106 3119 3113 3150 3088 3226 3166 3188 3227 3203 3152 3271 3224 3201 3246 3161 3122 3159 3218 3199 3182 3224 2958 3153 3187 3107 3190 3266 3111 3182 3167 3109 3259 3200 3351 3186 3225 3205 3299 3126 3195 3195 3113 3221 3096 3241 3176 3085 3144 3213 3088 3216 3152 3142 3194 3116 3199 3084 3164 3123 3339 3171 3234 3202 3107 3165 3136 3159 3190 3139 3168 3174 3202 3204 3155 3079 3190 3222 3195 3194 3213 3229 3065 3306 3220 3290 3182 3136 3165 3156 3284 3137 3212 3228 3119 3163 3214 3221 3237 3176 3165 3133 3157 3215 3201 3219 3124 3162 3191 3235 3301 3240 3249 3271 3224 3140 3157 3201 3129 3198 3072 3208 3165 3233 3278 3125 3234 3274 3119 3203 3253 3278 3246 3110 3213 3180 3191 3115 3268 3127 3224 3222 3173 3191 3186 3253 3216 3242 3238 3231 3183 3182 3110 3192 3257 3075 3183 3167 3266 3165 3148 3309 3198 3312 3244 3185 3235 3161 3072 3191 3131 3272 3158 3157 3273 3232 3202 3153 3264 3202 3143 3185 3240 3225 3238 3246 3151 3071 3174 3243 3079 3208 3228 3122 3319 3227 3198 3173 3187 3296 3246 3181 3209 3261 3195 3267 3238 3226 3168 3265 3159 3169 3038 3237 3209 3174 3263 3230 3181 3159 3200 3098 3186 3030 3153 3206 3186 3077 3164 3212 3140 3173 3325 3104 3189 3188 3258 3268 3198 3197 3267 3113 3269 3203 3239 3204 3232 3138 3204 3207 3138 3138 3215 3357 3210 3138 3291 3236 3194 3183 3145 3305 3185 3244 3135 3213 3163 3149 3181 3134 3189 3148 3167 3058 3239 3231 3157 3274 3181 3113 3202 3178 3248 3169 3270 3199 3168 3122 3205 3226 3104 3211 3222 3213 3243 3173 3123 3170 3218 3206 3256 3144 3211 3139 3285 3112 3144 3165 3271 3221 3133 3235 3186 3111 3238 3205 3212 3373 3121 3201 3226 3183 3127 3096 3226 3104 3162 3158 3050 3141 3273 3209 3300 3150 3084 3235 3265 3316 3157 3224 3236 3182 3130 3228 3192 3149 3219 3200 3216 3196 3142 3201 3275 3264 3157 3255 3167 3232 3218 3204 3263 3195 3215 3199 3207 3271 3230 3156 3123 3143 3241 3135 3241 3222 3232 3208 3308 3239 3180 3160 3177 3240 3176 3190 3135 3259 3247 3190 3278 3220 3273 3184 3279 3244 3152 3135 3192 3260 3172 3218 3239 3119 3209 3112 3257 3192 3170 3175 3255 3182 3217 3200 3252 3126 3203 3216 3236 3198 3197 3176 3332 3161 3064 3072 3225 3237 3278 3221 3305 3188 3153 3219 3184 3156 3214 3143 3173 3318 3220 3242 3236 3150 3175 3253 3322 3194 3212 3188 3094 3208 3158 3142 3195 3271 3208 3227 3170 3188 3213 3134 3159 3267 3147 3139 3286 3162 3170 3196 3173 3182 3149 3265 3169 3142 3183 3231 3248 3209 3163 3183 3109 3096 3198 3265 3232 3186 3201 3157 3183 3165 3241 3242 3127 3179 3249 3194 3240 3147 3136 3297 3188 3224 3340 3271 3163 3185 3225 3190 3169 3200 3181 3176 3074 3211 3213 3289 3297 3186 3188 3167 3087 3270 3171 3220 3239 3188 3192 3197 3191 3089 3165 3176 3279 3165 3201 3232 3228 3177 3209 3232 3203 3236 3264 3193 3170 3234 3193 3222 3226 3237 3210 3183 3198 3227 3148 3243 3255 3215 3166 3179 3194 3241 3230 3350 3276 3247 3361 3236 3224 3190 3324 3237 3126 3270 3269 3186 3284 3240 3232 3155 3264 3291 3253 3141 3339 3212 3286 3184 3180 3101 3264 3299 3244 3312 3252 3230 3281 3375 3314 3309 3247 3283 3231 3319 3346 3351 3254 3251 3300 3295 3377 3270 3409 3218 3231 3318 3360 3347 3262 3212 3243 3350 3290 3370 3305 3259 3291 3338 3255 3283 3251 3321 3306 3336 3343 3294 3320 3238 3285 3303 3355 3367 3226 3211 3209 3255 3248 3224 3228 3224 3259 3211 3330 3220 3237 3224 3341 3187 3164 3276 3162 3160 3271 3319 3296 3278 3127 3307 3191 3281 3305 3185 3208 3252 3288 3305 3208 3162 3253 3342 3234 3178 3259 3212 3198 3228 3213 3194 3270 3316 3235 3344 3301 3282 3251 3222 3173 3194 3176 3263 3097 3158 3175 3218 3169 3146 3315 3229 3252 3080 3211 3277 3234 3262 3296 3279 3294 3231 3147 3242 3234 3110 3180 3279 3251 3196 3201 3224 3240 3096 3252 3175 3219 3270 3241 3295 3264 3223 3251 3206 3193 3181 3201 3242 3202 3268 3144 3156 3309 3254 3268 3258 3219 3210 3314 3113 3392 3333 3228 3235 3340 3189 3267 3259 3259 3245 3346 3297 3162 3225 3282 3190 3291 3242 3288 3228 3223 3216 3120 3195 3234 3188 3212 3254 3244 3221 3315 3262 3193 3200 3223 3245 3284 3280 3202 3244 3254 3273 3240 3270 3233 3297 3270 3243 3290 3200 3246 3226 3168 3257 3180 3382 3186 3195 3326 3300 3252 3189 3318 3249 3275 3315 3237 3299 3186 3376 3356 3295 3271 3366 3416 3442 3242 3357 3319 3318 3387 3391 3373 3409 3461 3402 3426 3425 3480 3379 3365 3354 3403 3406 3344 3468 3620 3455 3600 3506 3483 3420 3493 3528 3634 3449 3525 3529 3543 3460 3444 3518 3475 3547 3510 3460 3564 3430 3506 3399 3385 3513 3431 3407 3460 3354 3412 3406 3482 3385 3496 3442 3428 3415 3337 3392 3437 3415 3322 3328 3298 3318 3443 3287 3308 3267 3429 3315 3373 3406 3284 3396 3276 3380 3347 3334 3332 3376 3260 3470 3329 3354 3334 3236 3209 3334 3141 3254 3248 3278 3273 3208 3317 3286 3385 3288 3237 3364 3339 3302 3273 3372 3207 3304 3341 3344 3276 3299 3239 3214 3217 3255 3261 3246 3291 3347 3289 3198 3229 3266 3326 3214 3203 3268 3225 3205 3259 3294 3235 3315 3261 3298 3327 3299 3192 3187 3236 3245 3293 3297 3277 3367 3240 3159 3231 3215 3217 3326 3223 3259 3252 3243 3218 3263 3209 3281 3286 3290 3270 3200 3204 3176 3270 3177 3184 3223 3346 3210 3191 3260 3298 3230 3266 3271 3263 3321 3246 3239 3197 3220 3223 3244 3245 3303 3280 3203 3247 3296 3314 3212 3234 3315 3306 3345 3354 3344 3403 3372 3312 3291 3383 3196 3248 3350 3194 3393 3239 3367 3369 3355 3315 3325 3406 3359 3408 3204 3252 3359 3391 3370 3294 3356 3418 3327 3273 3353 3276 3291 3300 3393 3307 3340 3324 3315 3434 3371 3389 3339 3302 3388 3243 3455 3375 3317 3281 3419 3340 3412 3232 3308 3368 3364 3421 3444 3382 3338 3373 3216 3304 3284 3398 3422 3347 3416 3297 3406 3312 3282 3376 3213 3337 3310 3368 3279 3267 3407 3257 3258 3338 3232 3426 3264 3261 3320 3204 3288 3166 3259 3181 3240 3338 3198 3100 3251 3191 3283 3234 3279 3193 3266 3298 3201 3226 3163 3356 3201 3127 3144 3330 3209 3258 3050 3319 3314 3283 3262 3220 3256 3336 3239 3204 3304 3213 3342 3281 3200 3133 3201 3196 3275 3216 3265 3274 3235 3288 3198 3259 3192 3277 3153 3179 3186 3168 3249 3243 3220 3228 3245 3186 3267 3230 3141 3123 3275 3183 3235 3202 3100 3240 3301 3132 3208 3177 3251 3301 3317 3252 3255 3183 3212 3109 3263 3217 3182 3355 3178 3174 3316 3157 3300 3213 3217 3177 3252 3287 3172 3139 3303 3279 3254 3192 3148 3308 3239 3212 3195 3205 3176 3129 3243 3264 3321 3217 3174 3179 3198 3245 3268 3225 3269 3335 3192 3171 3182 3286 3183 3233 3194 3209 3233 3218 3202 3221 3296 3245 3226 3152 3252 3280 3302 3182 3263 3246 3161 3272 3196 3175 3277 3234 3242 3306 3259 3185 3326 3220 3150 3201 3293 3185 3232 3131 3250 3201 3222 3132 3223 3185 3140 3152 3234 3305 3225 3125 3133 3205 3250 3225 3082 3212 3297 3218 3187 3222 3194 3234 3204 3396 3299 3266 3235 3128 3271 3180 3170 3219 3254 3229 3191 3106 3143 3208 3221 3205 3220 3238 3198 3275 3148 3139 3194 3268 3275 3217 3251 3206 3256 3315 3222 3187 3211 3230 3197 3151 3331 3179 3246 3274 3191 3132 3173 3235 3277 3274 3300 3183 3254 3240 3284 3165 3212 3162 3310 3194 3254 3249 3303 3221 3305 3220 3281 3200 3271 3228 3325 3160 3225 3270 3212 3237 3279 3215 3253 3223 3297 3168 3264 3227 3239 3221 3213 3235 3209 3149 3249 3236 3186 3258 3240 3240 3305 3308 3192 3175 3287 3218 3225 3267 3218 3168 3213 3207 3311 3182 3331 3192 3228 3282 3252 3129 3226 3221 3142 3217 3077 3182 3267 3257 3332 3228 3306 3215 3181 3182 3185 3172 3207 3224 3373 3168 3274 3221 3248 3240 3222 3181 3239 3211 3242 3218 3181 3287 3287 3331 3270 3079 3188 3206 3281 3116 3230 3195 3214 3293 3226 3202 3148 3276 3186 3235 3249 3201 3161 3237 3181 3253 3134 3253 3232 3330 3267 3309 3230 3207 3142 3275 3158 3235 3239 3337 3250 3256 3294 3244 3229 3326 3235 3318 3273 3216 3325 3276 3269 3206 3250 3321 3356 3321 3275 3227 3343 3266 3294 3271 3234 3174 3201 3262 3319 3177 3383 3238 3244 3290 3232 3298 3284 3230 3254 3233 3279 3192 3369 3224 3277 3248 3215 3204 3152 3229 3194 3268 3401 3272 3227 3241 3259 3259 3253 3340 3292 3322 3304 3249 3270 3106 3229 3181 3196 3238 3219 3204 3263 3142 3223 3289 3257 3333 3192 3240 3296 3256 3225 3318 3270 3237 3157 3307 3197 3230 3118 3283 3278 3363 3259 3277 3189 3177 3250 3258 3226 3119 3279 3140 3292 3254 3239 3238 3277 3270 3268 3234 3248 3126 3293 3344 3306 3178 3335 3168 3269 3226 3186 3252 3102 3241 3230 3241 3297 3211 3287 3234 3266 3207 3309 3099 3269 3227 3208 3170 3292 3277 3268 3286 3253 3258 3093 3233 3315 3300 3259 3110 3338 3312 3225 3278 3233 3216 3122 3120 3196 3268 3243 3289 3249 3270 3290 3192 3183 3199 3312 3180 3242 3261 3194 3265 3291 3098 3228 3268 3220 3193 3199 3210 3214 3217 3232 3346 3212 3252 3259 3236 3163 3178 3269 3287 3206 3265 3180 3203 3252 3161 3247 3195 3204 3176 3190 3211 3241 3185 3296 3279 3232 3255 3159 3204 3203 3228 3174 3265 3248 3196 3189 3273 3237 3245 3361 3210 3185 3211 3283 3191 3186 3177 3183 3299 3218 3284 3197 3285 3209 3162 3337 3179 3229 3332 3275 3195 3249 3229 3224 3252 3319 3175 3234 3180 3164 3316 3265 3251 3349 3298 3283 3239 3293 3296 3254 3217 3266 3251 3195 3191 3217 3320 3331 3296 3262 3226 3265 3313 3294 3263 3275 3319 3405 3192 3311 3276 3329 3378 3302 3288 3352 3357 3270 3389 3334 3317 3245 3347 3335 3428 3430 3381 3381 3376 3428 3444 3403 3399 3455 3423 3349 3447 3333 3401 3271 3521 3386 3377 3545 3368 3362 3471 3363 3304 3426 3377 3443 3277 3384 3386 3360 3345 3307 3323 3344 3481 3411 3356 3344 3347 3340 3369 3384 3334 3385 3341 3315 3401 3329 3431 3315 3337 3356 3204 3265 3363 3244 3212 3337 3270 3337 3375 3326 3291 3270 3347 3359 3338 3353 3340 3389 3292 3388 3336 3366 3302 3282 3320 3287 3321 3274 3316 3265 3344 3295 3203 3373 3230 3215 3296 3328 3328 3267 3299 3320 3195 3264 3280 3304 3360 3247 3232 3381 3248 3308 3231 3230 3400 3225 3351 3457 3402 3318 3418 3238 3331 3291 3143 3262 3326 3405 3229 3251 3229 3302 3409 3313 3276 3245 3251 3350 3252 3208 3158 3237 3406 3319 3233 3276 3263 3226 3247 3255 3305 3254 3237 3267 3262 3286 3258 3323 3214 3287 3275 3242 3252 3247 3268 3273 3296 3262 3176 3214 3235 3250 3257 3185 3240 3150 3292 3247 3319 3179 3205 3239 3247 3234 3243 3225 3235 3300 3180 3204 3253 3297 3337 3239 3234 3246 3297 3217 3350 3325 3384 3215 3302 3222 3212 3266 3260 3257 3156 3258 3259 3328 3261 3223 3293 3291 3260 3285 3189 3238 3280 3282 3254 3226 3280 3299 3211 3237 3227 3300 3360 3174 3288 3243 3296 3256 3278 3271 3222 3264 3215 3285 3343 3093 3216 3245 3222 3268 3229 3362 3299 3294 3245 3334 3211 3243 3291 3299 3322 3248 3302 3280 3323 3347 3391 3296 3337 3300 3448 3323 3323 3320 3344 3349 3326 3261 3362 3373 3344 3323 3397 3308 3361 3376 3354 3351 3270 3253 3316 3313 3296 3322 3304 3288 3296 3250 3225 3347 3280 3353 3233 3270 3281 3382 3279 3333 3284 3198 3250 3284 3306 3261 3247 3348 3314 3336 3218 3185 3345 3242 3251 3228 3229 3165 3239 3191 3222 3312 3192 3312 3300 3193 3164 3230 3204 3162 3160 3193 3258 3248 3225 3285 3298 3330 3273 3222 3239 3316 3188 3252 3187 3238 3196 3247 3252 3222 3252 3192 3314 3274 3241 3220 3388 3252 3104 3214 3171 3188 3271 3198 3269 3243 3268 3351 3186 3198 3245 3106 3204 3271 3200 3275 3254 3282 3077 3249 3200 3168 3202 3192 3135 3246 3169 3079 3240 3229 3277 3274 3208 3233 3251 3220 3143 3305 3202 3327 3293 3203 3180 3255 3288 3232 3175 3197 3177 3235 3286 3267 3224 3175 3234 3254 3231 3189 3232 3281 3304 3303 3272 3325 3159 3258 3137 3305 3288 3266 3278 3258 3233 3312 3224 3263 3157 3243 3304 3205 3289 3215 3141 3257 3253 3308 3267 3350 3207 3331 3365 3253 3157 3241 3230 3317 3276 3212 3242 3304 3221 3292 3305 3242 3273 3246 3149 3254 3198 3272 3195 3219 3283 3250 3315 3242 3374 3273 3248 3270 3295 3220 3213 3332 3315 3212 3308 3269 3263 3261</counts>
			</dataPoints>
		</scan>
	</xrdMeasurement>
</xrdMeasurements>
