<?xml version="1.0"?>
<xrdMeasurements xmlns="http://www.xrdml.com/XRDMeasurement/2.3" xmlns:xsi="http://www.w3.org/2001/XMLSchema-instance" xsi:schemaLocation="http://www.xrdml.com/XRDMeasurement/2.3 http://www.xrdml.com/XRDMeasurement/2.3/XRDMeasurement.xsd" status="Completed" recordIdentifier="{BCA4D705-7E7A-4684-AE21-D97D92566489}">
	<comment>
		<entry/>
	</comment>
	<sample type="To be analyzed">
		<id>GPSS_Li1p4Ca0p6Mg0p2Nb0p2Cl4_102025_68f72594028f64128e25d0d0</id>
		<name></name>
		<preparedBy></preparedBy>
	</sample>
	<xrdMeasurement measurementType="Scan" status="Completed" sampleMode="Reflection">
		<usedWavelength intended="K-Alpha 1">
			<kAlpha1 unit="Angstrom">1.5405980</kAlpha1>
			<kAlpha2 unit="Angstrom">1.5444260</kAlpha2>
			<kBeta unit="Angstrom">1.3922500</kBeta>
			<ratioKAlpha2KAlpha1>0.5000</ratioKAlpha2KAlpha1>
		</usedWavelength>
		<incidentBeamPath>
			<radius unit="mm">145.00</radius>
			<xRayTube id="1010048" name="Empyrean Cu LFF HR (9430 033 7310x)">
				<tension unit="kV">40.0</tension>
				<current unit="mA">15.0</current>
				<anodeMaterial>Cu</anodeMaterial>
				<focus type="Line">
					<length unit="mm">12.0</length>
					<width unit="mm">0.4</width>
					<takeOffAngle unit="deg">6.0</takeOffAngle>
				</focus>
			</xRayTube>
			<sollerSlit id="21010002" name="Soller slits 0.04 rad.">
				<opening unit="rad">0.0400</opening>
			</sollerSlit>
			<mask id="22031000" name="Fixed mask 13 mm">
				<width unit="mm">9.00</width>
			</mask>
			<divergenceSlit id="22120001" name="Divergence slit 1°" xsi:type="fixedDivergenceSlitType">
				<distanceToSample unit="mm">50.00</distanceToSample>
				<height unit="mm">1.52</height>
			</divergenceSlit>
		</incidentBeamPath>
		<sampleMovement xsi:type="spinningSampleMovementType">
			<spinnerRevolutionTime unit="seconds">1.0</spinnerRevolutionTime>
		</sampleMovement>
		<diffractedBeamPath>
			<radius unit="mm">145.00</radius>
			<antiScatterSlit id="22090040" name="AS slit 9 mm (PIXcel)" xsi:type="fixedAntiScatterSlitType">
				<height unit="mm">9.00</height>
			</antiScatterSlit>
			<sollerSlit id="21020003" name="Large Soller slits 0.04 rad.">
				<opening unit="rad">0.0400</opening>
			</sollerSlit>
			<filter id="20030001" name="Large beta-filter Nickel">
				<material>Ni</material>
				<thickness unit="mm">0.020</thickness>
			</filter>
			<detector id="7010019" name="PIXcel1D-Medipix3 detector" xsi:type="rtmsDetectorType">
				<phd unit="keV">
					<lowerLevel>4.02</lowerLevel>
					<upperLevel>11.27</upperLevel>
				</phd>
				<mode>Scanning</mode>
				<activeLength unit="deg">5.542</activeLength>
			</detector>
		</diffractedBeamPath>
		<scan appendNumber="0" mode="Continuous" scanAxis="Gonio" status="Completed">
			<header>
				<startTimeStamp>2025-10-26T16:10:44-07:00</startTimeStamp>
				<endTimeStamp>2025-10-26T16:18:51-07:00</endTimeStamp>
				<author>
					<name>AutomatedUser</name>
				</author>
				<source>
					<applicationSoftware version="1.7b (136)">PANalytical Aeris Instrument Suite</applicationSoftware>
					<instrumentControlSoftware version="3.2.00000000 20240306">AERIS</instrumentControlSoftware>
					<instrumentID>950485</instrumentID>
				</source>
			</header>
			<dataPoints>
				<positions axis="2Theta" unit="deg">
					<startPosition>10.00943322</startPosition>
					<endPosition>99.99442286</endPosition>
				</positions>
				<positions axis="Omega" unit="deg">
					<startPosition>5.00471661</startPosition>
					<endPosition>49.99721143</endPosition>
				</positions>
				<commonCountingTime unit="seconds">12.495</commonCountingTime>
				<counts unit="counts">2908 2892 2828 2935 2855 2797 2826 2862 2953 2838 2827 2920 2858 2965 2849 2890 2822 2902 2851 2816 2835 2737 2839 2854 2782 2733 2871 2800 2954 2829 2935 2890 2869 2939 2844 2919 2854 2881 2940 2847 2852 2851 2914 2863 2965 2932 2916 2959 2865 2905 2945 3009 2894 2921 2900 2871 2890 2912 2924 2908 2905 2957 3016 2882 2912 3028 2972 2963 2983 3019 2983 2874 2975 2837 2956 3029 2934 2960 2894 2916 3046 2912 3020 2953 2946 3000 3049 2965 2992 2957 3022 2990 3051 2920 2950 2995 2997 2995 2941 2930 2898 3092 2977 3039 3031 2958 2996 3048 2889 2968 2972 3044 3087 3050 3037 2989 3070 3082 3047 3094 3096 3022 3079 3115 2968 3028 3009 2991 3093 2968 3064 3033 3075 3099 2963 2951 3106 3088 3073 3034 3043 3077 3060 3019 3065 3071 3039 3114 3105 2982 2922 3030 3020 2940 3099 3113 3014 3087 3127 3074 3095 3057 3147 3053 3006 2998 3003 3068 3102 3122 2957 2957 3038 3030 2956 3071 2956 3150 3047 3014 3034 3101 3018 3076 2939 2991 2959 3076 3038 3033 3094 2975 3054 2935 3080 3033 2998 2976 2947 2970 3091 2980 3071 3045 3068 2968 3062 3048 2920 2883 3014 2921 3114 3045 3098 2943 2992 3007 2972 2966 2926 3040 2907 2927 3002 2958 2933 2932 3038 3031 2993 2973 3092 2988 3034 2942 3007 2828 3091 2925 2898 2947 3062 2992 2941 2992 2882 2907 3003 3034 2911 3003 2975 2970 3046 2952 2942 3014 2920 2970 2913 2899 2918 3018 3033 2971 3017 3047 3018 2986 2980 2934 3043 3024 2979 2987 2990 2972 2935 2998 2948 3012 3066 3038 3031 2923 3079 2973 3100 3016 3114 2902 3058 3085 2923 3195 3137 3077 3096 2992 2968 3097 2933 3100 3071 3050 3081 3169 3002 3105 3085 3115 3116 3120 3015 2970 3150 3204 3177 3139 3180 3206 3204 3220 3084 3061 3010 3191 3172 3117 3107 3225 3128 3156 3238 3061 3193 3260 3260 3195 3217 3213 3179 3239 3305 3406 3198 3164 3244 3221 3372 3220 3236 3240 3169 3324 3234 3280 3336 3226 3308 3302 3233 3339 3287 3307 3426 3388 3337 3337 3378 3330 3380 3342 3375 3397 3381 3387 3404 3464 3438 3380 3409 3470 3519 3455 3479 3361 3444 3480 3381 3455 3353 3443 3488 3506 3504 3537 3519 3426 3574 3533 3588 3518 3476 3614 3593 3523 3519 3554 3674 3544 3655 3672 3602 3664 3763 3641 3864 3655 3710 3542 3711 3695 3733 3764 3732 3822 3747 3759 3763 3872 3804 3847 3793 3742 3714 3689 3621 3667 3682 3733 3627 3527 3519 3557 3477 3499 3412 3435 3503 3432 3473 3535 3374 3458 3457 3518 3508 3522 3500 3564 3570 3582 3611 3592 3665 3722 3742 3713 3642 3675 3589 3623 3572 3421 3357 3351 3417 3453 3389 3447 3367 3384 3393 3389 3225 3257 3278 3234 3235 3183 3200 3269 3183 3310 3268 3193 3132 3222 3232 3240 3142 3119 3230 3073 3127 3185 3156 3116 3108 3143 3141 3168 3041 3115 3201 3037 3042 3081 3003 3042 3065 2953 3054 3016 2944 2984 2931 2912 2986 2986 3006 3010 3000 2987 3008 3002 2878 2975 2937 2884 2962 2997 2974 2982 2945 3016 3033 2858 2968 2816 2831 2878 2870 2897 2868 2945 2895 2975 2996 2842 2853 2914 2955 2965 2834 2759 2833 2796 2719 2883 2734 2821 2807 2806 2870 2828 2847 2933 2912 2902 2818 2789 2855 2802 2830 2830 2719 2761 2833 2751 2824 2731 2804 2851 2895 2825 2904 2779 2793 2744 2720 2776 2759 2818 2816 2748 2694 2733 2768 2664 2827 2699 2790 2735 2724 2819 2782 2807 2720 2665 2887 2803 2630 2698 2829 2691 2749 2775 2800 2726 2660 2753 2800 2654 2610 2756 2672 2715 2732 2680 2676 2625 2750 2769 2600 2600 2654 2695 2646 2647 2699 2786 2729 2713 2653 2623 2700 2625 2738 2664 2831 2724 2664 2624 2752 2625 2742 2704 2654 2672 2657 2645 2633 2695 2694 2758 2664 2656 2680 2683 2631 2742 2708 2631 2607 2687 2590 2635 2710 2644 2624 2641 2624 2535 2651 2609 2542 2569 2723 2608 2648 2674 2658 2613 2622 2653 2650 2571 2666 2567 2619 2662 2607 2596 2601 2680 2630 2649 2658 2558 2529 2563 2658 2630 2532 2586 2617 2681 2543 2587 2629 2566 2589 2546 2605 2501 2496 2593 2558 2596 2451 2665 2608 2590 2597 2560 2630 2584 2718 2587 2666 2539 2542 2524 2478 2602 2516 2669 2554 2603 2560 2573 2605 2520 2557 2511 2565 2500 2515 2558 2547 2623 2448 2463 2563 2524 2512 2454 2479 2603 2564 2611 2484 2465 2486 2576 2544 2581 2478 2585 2481 2512 2400 2453 2468 2486 2516 2449 2560 2481 2427 2572 2503 2416 2577 2422 2470 2548 2527 2458 2495 2356 2427 2516 2545 2392 2575 2512 2415 2424 2478 2431 2492 2432 2574 2557 2497 2534 2467 2429 2527 2422 2443 2436 2545 2489 2524 2411 2460 2490 2504 2539 2451 2495 2493 2461 2372 2453 2483 2416 2434 2498 2411 2486 2544 2386 2478 2437 2506 2392 2536 2457 2535 2521 2500 2538 2551 2526 2584 2543 2557 2662 2606 2603 2716 2790 2822 2930 2948 3000 3155 3223 3184 3325 3382 3599 3794 3711 4007 4074 4112 4295 4460 4596 4623 4723 4756 4756 4671 4493 4489 4288 4218 4097 3968 3716 3489 3469 3251 2998 2974 2834 2816 2693 2585 2609 2600 2512 2539 2483 2521 2477 2450 2367 2444 2423 2364 2426 2379 2419 2383 2329 2356 2321 2359 2358 2380 2298 2347 2255 2369 2360 2428 2325 2240 2303 2289 2479 2373 2405 2436 2343 2372 2332 2322 2327 2364 2291 2382 2335 2313 2317 2325 2443 2274 2274 2369 2254 2385 2292 2311 2342 2281 2255 2202 2243 2413 2287 2293 2371 2267 2261 2233 2370 2320 2313 2293 2419 2155 2231 2176 2334 2313 2381 2336 2284 2272 2217 2280 2270 2265 2288 2432 2259 2308 2324 2324 2289 2374 2274 2273 2330 2179 2280 2316 2362 2332 2366 2220 2360 2351 2190 2302 2293 2292 2286 2291 2340 2285 2269 2267 2248 2305 2302 2350 2242 2288 2226 2267 2236 2345 2196 2309 2273 2267 2247 2316 2326 2316 2270 2299 2306 2349 2329 2375 2330 2268 2291 2234 2369 2234 2297 2230 2359 2240 2323 2288 2289 2294 2351 2278 2247 2386 2271 2304 2301 2258 2267 2275 2327 2210 2262 2323 2273 2283 2285 2184 2224 2285 2225 2266 2232 2294 2263 2253 2251 2331 2255 2314 2219 2224 2278 2206 2145 2263 2246 2236 2323 2278 2366 2292 2275 2283 2328 2281 2267 2229 2247 2222 2182 2164 2296 2338 2307 2221 2298 2257 2316 2296 2366 2299 2317 2301 2336 2251 2369 2436 2347 2318 2393 2451 2419 2415 2443 2466 2475 2544 2484 2464 2444 2428 2580 2471 2373 2536 2494 2505 2571 2563 2467 2547 2548 2441 2417 2435 2495 2400 2406 2352 2371 2358 2379 2196 2294 2313 2191 2250 2172 2149 2162 2117 2121 2045 2210 2073 2101 2020 2011 2028 2034 2096 1956 2002 1956 1871 1977 1944 1946 1870 1924 1955 1953 1896 1946 1857 1886 1957 1866 1853 1829 1942 1893 1865 1806 1829 1850 1819 1887 1785 1804 1800 1773 1891 1827 1832 1877 1738 1810 1753 1734 1744 1761 1742 1757 1731 1777 1739 1710 1730 1785 1763 1763 1798 1637 1769 1747 1753 1759 1806 1725 1731 1703 1662 1722 1682 1675 1709 1694 1729 1697 1673 1627 1705 1656 1619 1709 1623 1642 1670 1675 1651 1615 1618 1703 1613 1689 1607 1602 1618 1642 1644 1629 1643 1660 1624 1621 1708 1665 1605 1699 1607 1592 1632 1583 1579 1659 1591 1598 1682 1598 1612 1614 1534 1637 1656 1583 1537 1644 1559 1581 1629 1536 1595 1557 1634 1542 1722 1708 1627 1624 1654 1585 1581 1599 1561 1584 1538 1502 1573 1580 1603 1652 1526 1551 1593 1525 1612 1623 1596 1567 1520 1628 1529 1540 1495 1618 1556 1483 1603 1519 1578 1509 1579 1605 1553 1552 1524 1556 1558 1484 1509 1555 1528 1577 1550 1517 1547 1549 1544 1608 1497 1540 1521 1558 1526 1498 1547 1482 1537 1567 1541 1589 1584 1594 1583 1584 1580 1565 1525 1524 1529 1549 1508 1575 1538 1566 1592 1628 1556 1551 1567 1574 1599 1568 1569 1530 1598 1559 1566 1632 1602 1643 1602 1589 1515 1588 1659 1646 1636 1624 1690 1655 1708 1764 1766 1838 1778 1765 1795 1878 1851 1919 1886 1924 1923 1968 2093 2013 2052 2014 2038 2033 2017 1990 2011 1999 1940 1841 1810 1890 1780 1747 1792 1704 1704 1786 1670 1622 1561 1588 1656 1581 1641 1588 1653 1557 1595 1619 1647 1582 1543 1582 1580 1630 1539 1497 1565 1484 1609 1514 1559 1517 1584 1531 1587 1498 1575 1489 1625 1550 1527 1541 1482 1552 1494 1459 1480 1557 1542 1591 1529 1544 1527 1511 1524 1438 1474 1544 1450 1581 1521 1477 1440 1421 1531 1542 1546 1526 1471 1550 1472 1432 1411 1409 1471 1518 1455 1455 1419 1454 1498 1417 1489 1410 1427 1411 1409 1425 1513 1449 1496 1463 1489 1461 1429 1379 1365 1368 1374 1440 1458 1387 1387 1424 1426 1383 1339 1410 1391 1382 1423 1414 1376 1294 1384 1475 1316 1373 1350 1392 1295 1328 1381 1337 1322 1360 1390 1303 1340 1353 1337 1314 1308 1378 1367 1376 1344 1270 1347 1303 1342 1360 1239 1253 1309 1356 1298 1277 1245 1262 1337 1288 1304 1242 1261 1273 1292 1250 1299 1260 1200 1229 1336 1222 1261 1222 1184 1287 1340 1245 1266 1199 1271 1194 1237 1255 1213 1224 1216 1255 1293 1207 1198 1236 1258 1227 1167 1215 1184 1230 1213 1194 1273 1160 1215 1243 1174 1248 1241 1193 1157 1257 1202 1164 1216 1207 1202 1236 1191 1264 1285 1245 1245 1242 1189 1296 1267 1372 1305 1274 1350 1378 1350 1292 1389 1355 1369 1517 1477 1560 1508 1616 1574 1594 1581 1659 1771 1783 1852 1803 1811 1821 1886 1858 1915 1881 1944 2052 1977 2000 1917 1938 1856 1854 1768 1809 1796 1728 1716 1767 1685 1672 1641 1646 1645 1525 1496 1516 1493 1498 1398 1428 1440 1350 1351 1329 1304 1268 1354 1337 1340 1328 1304 1293 1253 1249 1372 1326 1258 1355 1288 1308 1409 1404 1424 1460 1542 1610 1649 1694 1789 1958 2068 2259 2365 2477 2703 2914 3097 3357 3422 3589 3762 3922 4160 4254 4472 4448 4353 4460 4266 4210 4017 3786 3645 3464 3218 2964 2732 2578 2414 2227 1980 2063 2005 1913 1810 1851 1973 1954 2009 2030 2111 2282 2377 2310 2476 2630 2644 2837 2824 3017 3010 3167 3097 3150 3135 3056 3146 3022 2837 2784 2754 2610 2456 2343 2288 2168 2155 2063 2079 2031 1982 2060 2105 2186 2314 2333 2613 2735 2995 3134 3286 3493 3716 3807 3838 4241 4266 4483 4477 4599 4667 4662 4444 4638 4433 4286 4111 3737 3669 3429 3085 2938 2627 2482 2362 2131 1844 1790 1581 1588 1477 1392 1368 1215 1150 1133 1144 1080 1027 1007 1088 1029 1020 1027 1021 941 986 974 945 992 966 940 890 981 966 931 1029 870 980 950 978 970 955 1004 941 1045 963 949 985 982 1004 991 988 977 933 913 904 996 856 954 910 880 910 940 896 929 901 986 877 885 888 878 917 894 1030 1049 1005 980 1025 999 996 1116 1139 1139 1201 1247 1323 1425 1379 1523 1528 1595 1675 1709 1887 1895 1907 1945 1920 1958 1985 2009 1851 1855 1761 1663 1627 1593 1509 1376 1332 1275 1116 1086 1125 1047 986 995 975 982 959 1001 936 909 884 912 864 873 909 883 920 910 908 855 904 962 976 939 1018 912 1046 971 1070 1059 1042 1053 999 1056 1074 1101 1049 1115 1125 1068 1074 1087 992 1003 1038 1001 940 1008 906 877 836 886 886 835 828 828 847 793 830 820 783 815 779 787 718 792 763 780 760 799 765 788 825 774 790 741 776 745 789 742 731 737 772 788 787 777 784 778 772 753 764 789 776 754 780 774 765 793 739 785 754 737 747 736 739 724 719 745 714 731 815 743 700 776 767 737 697 751 715 793 785 724 722 727 779 717 694 759 742 793 709 673 748 724 709 753 744 696 733 732 755 669 705 709 702 709 761 747 747 726 738 792 739 709 692 711 758 716 777 721 741 698 746 665 673 780 728 738 706 737 695 678 697 702 701 721 787 689 721 695 722 699 646 717 691 732 661 690 703 695 719 730 744 744 708 748 767 741 668 751 727 790 729 731 725 703 700 733 711 726 750 708 734 699 769 750 761 722 767 733 719 704 732 748 729 726 735 751 802 758 803 761 725 820 793 775 760 797 791 822 815 895 820 913 899 922 938 953 966 1055 1068 1106 1200 1191 1290 1433 1399 1461 1555 1647 1755 1875 1942 2065 2183 2238 2462 2388 2514 2591 2718 2780 2763 2680 2679 2751 2582 2579 2519 2350 2266 2248 2156 2114 2080 1956 1836 1752 1688 1654 1610 1582 1559 1643 1578 1632 1659 1614 1802 1843 1787 1988 2107 2242 2314 2517 2606 2838 2854 2977 3103 3197 3413 3490 3503 3687 3607 3592 3638 3565 3631 3440 3354 3155 3075 3057 2818 2643 2381 2299 2096 1991 1900 1742 1564 1528 1421 1251 1219 1117 1078 966 954 869 937 828 827 770 800 764 759 722 737 755 734 726 690 697 745 755 689 671 695 666 692 676 682 681 681 692 704 666 714 676 708 711 671 660 628 647 657 677 672 661 673 680 649 681 668 696 627 685 624 640 648 625 642 680 662 692 662 632 600 677 666 640 683 645 678 679 683 656 705 669 690 655 669 643 633 644 631 676 671 653 626 640 685 667 669 722 670 656 675 677 673 629 606 666 673 694 653 693 597 661 668 676 628 713 655 676 667 684 654 676 655 676 644 664 684 681 676 710 724 731 729 724 717 699 715 740 744 749 747 768 789 764 777 773 768 813 829 753 753 805 800 829 812 822 830 781 806 798 760 801 800 785 788 782 717 721 775 706 754 793 752 747 732 765 728 741 696 653 710 692 668 740 667 717 717 689 664 658 644 629 634 618 660 643 655 606 614 653 628 580 647 654 635 587 613 617 622 627 672 601 667 631 618 632 600 543 590 596 662 634 626 614 627 602 587 660 615 607 516 589 636 622 590 635 571 587 602 613 573 598 603 625 576 626 598 611 628 628 648 648 624 643 580 608 592 596 647 595 609 611 633 619 621 658 661 635 694 732 715 769 789 899 916 965 987 1099 1091 1206 1259 1277 1398 1378 1462 1439 1523 1549 1513 1487 1463 1390 1434 1320 1274 1237 1251 1169 1068 1075 1021 962 965 913 895 920 896 843 820 907 890 934 982 895 1055 1015 1136 1219 1342 1417 1591 1611 1737 1887 1819 1900 2034 2225 2186 2287 2301 2387 2268 2187 2147 1963 1936 1885 1831 1696 1616 1507 1360 1252 1327 1097 1046 925 926 894 812 775 775 747 717 702 648 660 690 603 619 621 649 579 587 597 581 582 591 547 562 572 554 570 550 566 584 594 609 525 515 500 535 549 523 559 494 537 529 583 532 516 576 533 612 554 542 510 509 540 559 580 577 510 532 526 570 570 540 556 532 515 547 529 566 517 543 526 505 582 530 559 553 549 555 570 526 530 535 520 527 575 510 568 573 512 544 525 591 514 566 532 579 569 536 587 586 535 583 551 553 555 571 565 601 593 601 653 644 699 701 723 760 828 885 874 970 1061 1136 1110 1190 1322 1352 1316 1378 1392 1428 1422 1347 1323 1254 1193 1216 1112 1079 1058 955 871 830 878 751 693 696 649 616 643 553 557 537 579 545 523 506 513 559 529 520 543 503 520 526 494 515 511 501 503 541 527 525 535 515 530 496 502 525 514 503 512 513 508 499 529 515 489 505 503 468 494 496 492 487 460 456 512 491 492 516 492 520 487 489 512 520 501 498 496 498 481 480 525 540 440 502 469 506 463 491 485 456 526 509 494 500 500 535 510 515 481 494 463 490 491 469 522 502 506 491 498 509 476 532 463 463 502 520 491 484 476 505 517 505 492 505 488 488 475 541 520 541 490 512 530 507 462 491 483 505 489 464 453 521 462 497 476 515 531 471 475 500 483 484 508 464 507 494 443 481 477 485 467 480 518 507 498 535 505 466 471 482 453 505 507 464 505 543 510 501 453 476 478 470 488 483 496 439 510 502 451 513 476 536 481 475 487 477 494 463 503 497 489 469 439 492 502 460 463 516 493 469 528 473 543 504 508 490 518 482 486 479 529 508 512 501 506 507 490 542 481 493 539 487 539 501 474 507 512 525 458 485 499 468 459 490 512 445 493 468 522 486 518 472 480 499 502 486 448 468 448 503 479 448 514 499 537 499 535 512 468 491 515 503 526 582 502 589 492 535 531 567 550 608 653 639 679 707 755 833 810 853 952 1017 1036 1019 1056 1158 1085 1177 1136 1060 1053 1042 959 976 869 955 869 831 783 778 743 691 674 582 586 530 563 533 547 526 448 484 490 493 455 486 490 503 500 483 527 453 449 480 430 434 484 430 432 474 461 485 462 478 473 461 451 445 422 414 472 429 481 442 488 447 460 469 439 427 456 479 457 433 437 454 444 446 464 438 432 468 425 468 451 431 475 481 466 463 471 455 495 447 481 454 477 488 447 468 503 480 473 492 479 513 517 522 527 470 570 491 545 514 500 544 515 528 559 530 504 574 523 497 523 508 477 504 516 495 514 473 474 473 497 455 442 451 495 486 507 497 502 469 503 466 487 504 525 537 535 553 536 520 533 549 567 574 551 539 617 601 595 546 622 591 558 588 586 589 565 585 542 579 528 554 513 568 474 524 511 521 464 501 510 474 460 456 459 446 443 467 479 494 478 467 452 471 453 496 481 483 468 447 480 478 510 523 518 494 473 495 453 509 499 491 520 511 532 504 535 485 509 482 483 531 518 535 528 467 516 535 521 543 525 504 490 536 518 554 494 534 517 494 495 483 529 515 508 548 516 509 546 497 465 524 514 534 519 495 474 487 507 504 501 527 506 446 481 476 465 489 482 489 430 424 456 462 451 450 452 425 431 442 459 465 442 421 395 438 414 409 428 421 396 407 426 428 461 429 448 416 412 451 425 427 428 402 412 438 429 410 429 429 412 415 429 377 422 420 424 411 391 399 434 396 407 418 378 423 436 409 459 389 426 449 382 407 436 423 409 406 440 461 401 402 428 400 425 477 391 442 451 397 422 428 421 435 404 451 417 481 445 470 462 479 456 466 477 513 473 521 519 502 531 530 578 607 631 645 682 694 730 826 861 935 994 998 1109 1111 1141 1160 1246 1292 1188 1197 1114 1104 1017 1091 1050 1034 1079 931 939 930 862 833 779 744 668 693 619 597 588 574 599 519 548 553 476 495 491 525 537 520 518 558 518 612 575 612 595 678 690 665 717 748 777 734 799 783 772 735 745 693 681 623 679 684 641 640 643 551 546 557 524 518 568 508 523 534 457 435 483 468 480 451 455 415 429 485 474 484 461 439 473 495 435 473 499 482 535 477 465 483 519 569 574 613 609 625 663 612 672 668 718 705 721 709 804 823 808 787 843 799 705 692 726 639 671 659 643 609 650 663 568 569 595 553 539 599 481 530 561 574 582 553 569 592 613 599 625 589 629 652 644 693 696 821 759 844 887 920 961 1066 1112 1107 1188 1242 1241 1349 1363 1363 1350 1332 1303 1333 1296 1271 1236 1205 1239 1216 1109 1100 1092 1007 1019 909 961 897 861 811 800 820 762 646 746 650 635 580 584 580 592 592 606 553 556 622 550 593 580 568 604 647 614 638 677 665 674 707 819 841 941 972 1006 1037 1064 1202 1211 1279 1345 1391 1492 1489 1573 1678 1644 1615 1658 1663 1685 1652 1714 1628 1570 1486 1432 1396 1359 1260 1248 1152 1136 1064 1097 943 927 873 866 795 714 703 679 613 665 624 563 552 536 578 545 565 518 530 526 544 500 527 525 536 478 514 517 577 508 514 483 463 467 500 466 515 520 500 554 476 512 502 509 485 550 516 574 543 607 534 605 568 608 595 633 617 707 687 688 667 719 694 682 672 667 647 698 669 622 604 586 570 580 530 583 536 495 513 473 492 476 453 471 468 448 437 395 397 424 427 370 436 389 418 381 435 396 409 443 445 453 378 395 376 388 395 365 387 332 393 366 373 399 359 392 390 379 375 385 398 424 368 424 382 385 403 424 413 410 419 406 407 431 392 410 407 419 435 379 452 410 449 439 442 390 429 407 409 375 430 377 414 392 412 396 408 390 424 382 398 392 404 416 410 406 400 402 477 438 450 442 451 454 460 460 480 483 520 492 503 456 463 434 462 437 475 391 437 443 433 428 415 395 427 435 417 381 391 400 402 404 361 363 358 408 377 366 378 398 336 372 346 363 328 353 389 370 353 363 348 374 366 366 376 389 346 379 389 371 351 384 350 395 373 359 364 380 352 369 364 364 404 378 374 375 362 345 360 374 352 362 325 350 345 341 345 341 344 375 370 366 347 356 340 368 384 361 353 317 368 369 318 369 349 357 339 354 370 353 354 375 398 379 362 328 331 351 335 336 348 347 359 331 349 357 306 339 309 330 340 345 335 347 385 391 395 321 319 357 355 326 375 355 368 353 377 326 327 357 353 350 363 355 325 376 364 355 313 348 335 370 353 352 376 339 346 345 324 361 351 370 300 340 347 333 349 368 334 309 326 357 361 379 354 340 339 324 354 355 381 367 376 400 398 389 370 418 412 390 424 438 471 450 479 506 500 554 504 551 567 606 561 586 586 572 593 546 556 572 552 545 488 486 524 521 522 496 492 504 467 433 501 429 455 426 392 454 441 404 441 416 435 396 464 404 386 398 423 412 407 379 428 390 378 429 389 440 400 411 370 426 391 444 367 389 443 406 470 432 407 365 399 405 399 452 440 411 394 430 395 432 404 446 400 434 399 427 380 384 428 417 407 421 397 403 425 392 379 392 398 375 377 382 361 371 353 351 356 381 378 375 346 377 378 364 396 349 400 328 378 358 344 370 372 365 361 343 375 359 372 357 384 383 339 367 319 361 356 384 353 403 374 334 335 353 346 331 357 343 347 363 326 360 342 329 360 353 370 352 329 348 379 364 329 352 352 389 365 362 344 391 383 386 394 344 361 369 345 324 380 363 375 343 352 343 361 378 366 382 353 379 407 402 388 348 383 347 354 367 368 354 355 351 363 355 338 367 362 344 361 376 344 355 330 358 352 295 305 315 319 329 291 335 307 339 329 324 329 323 304 340 271 317 297 349 312 321 319 315 302 287 332 321 335 342 309 380 349 348 349 307 329 330 380 305 334 376 315 352 341 308 330 327 324 350 342 354 308 331 317 294 312 317 335 336 308 330 309 301 332 294 353 336 310 324 315 294 315 341 321 312 374 277 314 280 350 316 313 325 302 277 290 310 303 326 333 331 311 300 344 279 314 323 294 286 345 332 318 354 313 339 298 319 313 315 343 307 305 310 303 314 331 351 331 290 308 300 308 333 316 346 318 331 315 327 305 295 292 328 293 316 311 318 328 301 311 318 338 314 321 317 330 318 320 327 318 356 364 335 296 346 333 314 346 342 356 372 376 351 370 391 406 400 416 396 461 462 463 472 460 509 506 549 568 542 564 501 583 545 566 586 586 559 566 610 596 628 576 596 516 511 500 571 522 524 545 515 558 505 501 494 479 484 518 484 563 510 511 518 531 483 524 518 549 500 542 528 469 485 487 513 457 489 481 528 489 510 493 560 503 518 491 552 503 549 537 505 560 541 557 595 600 572 591 612 646 685 722 686 767 738 700 751 817 853 930 942 904 885 919 952 912 972 969 882 909 892 871 842 855 861 803 784 795 716 695 722 722 652 670 611 616 563 513 500 492 517 434 427 440 385 436 355 398 377 377 353 362 349 373 361 326 342 309 346 335 321 310 320 306 307 328 308 280 336 302 318 311 296 303 329 300 301 287 308 336 339 334 298 323 318 303 354 326 342 300 326 324 303 335 356 320 318 336 341 343 327 407 394 439 435 454 472 483 493 549 561 558 579 589 581 645 621 598 601 599 563 556 560 513 508 535 497 493 481 510 503 471 467 456 441 469 426 401 366 398 372 381 364 386 332 319 368 350 328 338 358 322 366 339 334 319 323 328 334 347 310 284 333 336 331 338 288 341 301 331 302 339 309 319 330 320 324 333 333 341 335 315 348 358 367 342 408 372 443 422 425 468 452 494 482 456 469 531 487 507 493 505 490 457 456 462 431 486 498 442 451 446 444 407 481 405 472 416 417 356 455 428 409 394 416 350 393 349 346 368 364 378 360 402 377 435 431 481 434 488 433 488 452 455 425 421 377 384 403 386 382 368 418 382 409 384 333 389 431 409 360 386 353 371 386 407 385 391 471 424 440 440 460 444 497 509 483 537 480 526 601 601 567 591 611 595 550 553 620 608 545 610 621 568 571 526 512 512 497 492 452 432 448 472 434 422 410 415 361 377 397 408 360 360 370 322 352 323 314 305 297 321 302 272 306 298 295 264 308 274 298 318 325 275 260 302 260 267 268 293 249 297 290 278 271 257 259 275 282 297 315 285 257 288 337 312 287 243 273 242 282 315 329 287 258 296 312 287 297 314 280 314 287 332 294 276 297 294 328 302 311 356 291 307 320 324 350 365 351 349 349 397 350 405 417 396 402 436 411 398 401 391 345 383 427 377 375 413 369 384 353 358 360 380 358 368 392 350 357 347 375 322 345 367 328 345 372 371 352 347 359 331 361 365 333 350 317 338 314 322 347 312 323 318 303 302 287 274 315 321 294 297 270 320 313 290 279 262 271 289 243 311 279 317 302 293 299 297 287 295 282 260 287 292 284 287 277 287 274 275 260 297 276 293 251 245 288 273 310 319 281 283 277 322 271 314 308 281 261 311 295 305 327 295 304 290 277 295 305 308 281 280 306 308 305 313 319 307 340 294 328 332 332 347 340 336 393 331 332 336 348 385 340 339 368 352 338 319 313 330 305 310 334 336 314 305 312 285 302 313 290 320 297 284 287 292 306 275 267 280 260 290 275 301 232 292 283 259 280 235 285 269 275 245 236 278 271 306 260 260 239 284 279 291 292 267 259 240 244 261 293 233 263 233 245 267 274 265 260 220 282 257 217 236 263 246 260 250 262 270 260 269 258 282 238 222 261 248 265 228 274 290 249 267 246 239 248 260 224 248 257 250 282 219 259 259 248 234 283 237 274 249 233 270 249 263 265 240 293 247 270 235 267 279 259 247 264 250 234 258 263 276 261 261 245 236 241 227 296 238 225 247 234 278 256 247 273 217 264 226 263 259 246 260 266 289 242 269 240 270 230 265 240 231 240 267 244 244 274 226 256 267 224 284 269 243 275 273 266 261 275 279 286 256 244 256 289 229 276 236 234 263 279 248 256 226 245 234 233 235 225 226 239 233 235 267 247 256 257 227 256 249 245 238 229 237 250 242 243 243 250 267 209 249 288 274 247 242 220 232 224 239 238 267 269 258 270 225 249 242 240 256 236 237 230 287 215 241 226 257 257 271 243 258 229 275 262 228 267 219 256 217 238 212 245 208 265 228 247 215 244 258 233 232 229 236 236 229 228 211 262 269 257 244 249 230 258 248 236 274 249 236 245 261 243 216 232 232 214 231 212 247 217 212 237 233 227 229 224 260 274 249 217 246 233 227 234 220 221 242 249 268 244 233 243 224 216 245 232 270 235 248 229 249 263 240 206 260 245 278 226 234 226 219 278 233 249 237 221 225 272 257 267 275 287 233 250 258 271 219 279 286 311 300 246 266 286 263 267 260 266 248 268 250 275 231 307 259 304 282 271 291 243 279 283 303 270 279 301 258 300 268 301 251 274 282 263 268 231 241 295 260 274 274 215 277 302 261 239 261 273 292 265 267 207 221 246 260 236 273 266 244 273 257 283 238 250 248 230 251 235 226 229 239 237 259 215 239 205 272 236 269 267 256 259 247 250 257 248 261 245 299 239 297 271 268 278 286 285 258 257 287 292 312 277 328 295 326 303 326 293 278 298 317 297 291 258 311 230 277 268 298 291 281 275 266 300 263 296 271 280 284 288 233 278 262 295 282 300 293 311 288 287 306 322 298 286 291 259 274 282 265 290 311 287 266 307 277 271 296 306 287 291 288 316 285 294 332 294 315 314 292 321 322 338 360 320 326 382 366 344 320 373 383 360 376 333 340 307 335 330 322 278 304 322 298 319 327 327 320 325 292 315 297 317 281 290 268 300 248 232 270 278 251 274 264 270 267 247 248 283 212 264 250 256 236 264 247 293 236 214 231 235 283 271 268 260 214 256 244 223 225 228 245 265 242 260 258 235 265 269 246 256 233 220 272 228 223 201 240 233 247 218 222 210 246 229 257 257 233 240 240 221 249 240 223 228 242 260 262 270 246 264 234 278 243 268 279 245 234 248 258 243 287 290 268 296 274 269 287 316 260 293 297 274 303 292 318 309 287 267 286 336 311 300 314 313 334 278 280 311 293 298 267 283 301 289 297 272 290 269 273 297 279 263 282 308 273 259 279 272 229 274 260 267 262 240 247 233 233 237 206 275 242 247 256 248 277 205 248 242 260 237 270 208 241 210 227 256 283 258 238 262 256 239 260 230 232 264 250 259 234 249 226 270 223 258 267 248 275 246 268 236 258 280 276 288 276 280 283 274 317 276 308 316 344 299 321 317 329 350 317 359 343 340 313 335 351 355 357 334 319 363 335 321 333 364 325 284 345 301 302 298 341 328 313 298 318 288 318 284 294 274 281 271 281 281 303 276 297 260 271 259 238 293 225 236 262 243 222 265 250 237 277 238 247 263 260 209 240 235 238 234 236 232 248 269 228 274 245 246 261 256 267 275 289 270 265 271 275 266 262 269 271 261 263 267 246 249 280 270 300 269 243 274 264 247 274 238 292 260 274 244 248 256 256 230 241 267 222 225 262 265 258 225 224 247 214 232 222 234 216 225 234 263 259 260 233 237 226 205 196 200 215 243 239 273 227 235 267 234 242 211 228 202 220 209 216 280 240 223 241 240 266 246 246 206 234 249 270 267 244 244 242 261 258 234 264 279 269 249 258 228 208 264 259 240 237 284 226 272 238 245 246 269 285 226 257 290 264 262 245 229 238 256 238 248 264 249 259 240 264 245 234 240 241 236 241 239 243 239 219 240 256 265 260 264 242 241 243 286 293 317 284 280 300 261 305 324 337 320 350 371 323 362 381 364 385 367 340 396 375 386 348 386 367 378 387 373 416 366 361 386 380 384 407 401 340 355 352 350 398 365 363 378 383 426 414 373 421 410 429 403 389 416 406 383 370 348 372 320 293 352 328 319 303 313 307 282 307 300 306 280 295 305 304 275 296 278 301 262 282 262 268 257 269 258 222 280 234 210 238 274 269 256 242 225 263 261 241 249 225 276 258 250 234 244 233 195 246 213 247 231 231 229 234 221 243 231 243 238 228 213 234 244 217 234 244 230 246 262 243 214 250 210 286 271 263 237 267 233 246 246 239 232 228 266 276 273 279 238 238 241 265 274 261 265 269 274 265 287 288 266 344 270 287 296 278 316 281 292 303 327 258 272 311 258 274 297 265 275 259 273 298 320 275 270 267 257 316 287 273 243 272 243 244 259 247 282 229 279 259 257 219 272 258 235 260 231 272 264 265 267 296 282 266 274 243 246 215 298 259 250 250 267 238 290 271 284 310 288 264 314 289 326 263 290 303 286 256 271 283 242 279 292 310 328 345 283 319 310 275 344 316 365 354 329 346 334 355 362 361 326 324 280 346 337 339 304 315 298 310 335 317 302 324 297 298 346 337 354 357 340 309 312 323 343 345 361 369 345 407 364 414 410 352 394 404 360 391 397 360 362 402 370 349 345 325 309 342 353 361 367 369 385 351 365 394 345 354 354 344 322 336 347 355 326 289 286 320 313 282 301 320 298 307 283 284 260 286 297 307 264 239 265 285 301 283 284 273 282 270 246 291 278 259 248 263 266 277 276 260 246 261 246 300 269 236 260 285 276 278 260 257 263 230 286 276 303 307 279 289 269 285 323 333 312 307 321 297 293 300 300 310 324 305 273 279 326 290 330 276 307 287 306 310 299 331 288 298 316 269 268 249 264 266 285 286 236 266 283 270 286 288 249 266 282 267 247 291 289 238 265 265 273 285 247 244 248 261 240 247 256 281 262 279 269 231 263 266 272 226 270 237 234 269 260 265 266 270 275 273 266 256 271 267 297 299 263 230 297 240 270 257 258 267 278 265 279 285 267 257 274 307 342 279 287 260 292 272 325 308 299 301 306 317 311 358 348 352 337 369 366 363 393 416 406 402 415 428 423 445 475 431 476 481 470 465 472 462 460 460 461 460 448 454 424 423 420 383 385 403 392 380 376 422 372 392 404 404 376 377 413 364 312 324 316 393 319 335 328 331 314 271 306 320 325 297 325 268 276 298 283 282 304 303 262 263 300 264 276 237 267 270 246 244 263 259 278 271 241 270 242 272 264 277 266 277 258 286 274 266 275 277 273 290 291 307 299 291 307 273 302 319 326 315 307 312 327 354 370 374 360 361 371 401 390 424 409 414 424 437 465 449 464 441 450 463 463 462 431 423 431 425 414 409 379 406 386 390 408 392 413 378 386 439 426 413 398 387 407 376 378 376 352 348 338 353 338 303 341 345 308 329 340 297 305 305 284 319 280 277 275 284 281 296 262 280 285 270 249 236 244 271 271 268 278 267 263 256 283 270 268 276 291 229 282 278 320 257 294 297 304 295 303 318 322 294 308 292 315 324 318 297 345 288 306 318 320 325 316 326 305 326 330 333 322 332 363 399 377 359 392 388 422 374 387 455 417 428 395 436 419 440 435 448 443 487 448 500 484 489 470 508 506 496 505 470 444 498 416 500 454 449 470 438 419 410 441 419 445 394 405 406 407 396 343 388 373 392 389 368 385 380 359 373 368 352 368 352 331 350 354 366 363 340 352 355 358 359 347 342 327 319 297 326 289 308 296 280 283 294 275 297 282 265 317 262 270 273 279 290 314 279 263 299 282 298 301 277 267 292 275 265 235 246 227 225 236 271 271 263 270 273 236 242 217 274 247 227 266 241 270 243 266 258 250 244 258 277 302 257 265 297 299 228 247 237 236 228 246 272 286 228 270 269 237 247 246 229 277 237 246 234 248 249 267 251 240 241 242 245 265 260 245 271 235 258 229 258 268 223 229 246 230 226 213 234 236 246 213 223 223 262 216 265 204 208 225 240 228 235 220 249 235 220 218 247 233 242 213 241 208 231 214 241 230 238 223 265 220 237 226 230 203 271 230 244 227 225 215 245 215 256 245 224 213 244 229 230 235 246 233 218 245 220 249 236 257 243 269 249 234 217 266 246 270 230 267 288 263 298 286 264 271 298 275 297 290 262 221 281 256 276 234 258 267 250 309 249 233 199 250 242 244 241 269 270 297 214 237 264 222 265 280 258 219 231 225 246 234 221 232 211 234 212 223 201 216 230 201 233 218 217 229 211 243 217 222 209 210 205 221 205 236 205 212 219 210 244 211 247 224 216 210 206 224 207 188 233 223 226 211 242 235 223 210 226 219 218 201 216 216 227 256 218 208 209 213 188 231 205 224 211 200 223 239 210 192 274 205 219 210 232 212 229 200 222 188 215 192 225 204 203 214 213 215 228 219 210 209 209 200 217 219 228 202 223 199 202 205 206 191 244 231 203 249 211 196 228 221 222 223 209 212 217 221 223 207 221 213 197 186 212 192 217 241 219 219 242 212 242 207 184 200 216 216 211 175 224 201 214 204 192 200 216 189 208 217 244 210 223 206 226 196 229 202 214 191 263 208 186 216 202 223 196 200 213 218 246 229 198 226 197 219 232 209 215 221 217 198 225 196 219 218 235 224 210 214 237 237 209 215 212 217 229 219 219 219 242 209 220 219 216 219 208 206 219 204 194 222 219 241 230 222 195 199 233 214 235 216 214 222 236 234 226 226 196 210 215 211 201 209 205 237 244 258 218 215 210 236 220 216 226 221 220 221 234 221 231 221 216 206 227 213 220 239 208 210 209 245 233 235 201 223 221 219 230 209 215 193 213 226 215 231 233 225 216 264 211 243 222 213 217 224 227 201 214 221 213 222 261 222 239 242 221 202 236 232 263 231 220 263 227 271 219 243 215 233 231 231 204 234 202 227 217 223 234 213 234 239 243 210 224 209 250 246 219 240 221 244 242 232 233 248 250 224 246 239 221 217 232 228 218 244 258 205 218 200 200 208 221 204 222 222 203 219 229 245 214 210 191 246 213 206 221 205 228 223 222 213 217 237 240 242 242 238 226 204 242 244 242 226 245 261 234 257 240 246 213 228 231 221 259 210 218 260 226 259 222 235 221 257 256 238 204 222 199 234 236 229 233 234 237 219 222 242 223 210 238 204 216 237 234 215 209 192 197 233 236 224 228 238 214 242 223 219 200 215 238 216 246 250 219 261 203 238 232 225 226 196 232 212 230 219 240 221 212 248 203 227 204 220 221 243 228 213 244 227 223 221 232 222 225 233 261 236 229 210 211 275 234 215 229 243 217 233 219 223 223 239 227 244 239 235 257 238 232 238 234 245 262 229 220 245 257 261 245 228 259 261 262 291 279 270 266 270 307 322 296 275 284 310 302 304 356 346 298 295 287 299 297 293 272 292 285 289 285 292 234 288 304 308 291 272 292 285 293 279 239 318 293 298 296 285 317 249 221 280 260 308 249 268 235 265 250 239 261 256 217 247 266 260 273 232 245 232 256 258 224 269 242 273 233 239 270 236 241 234 227 245 275 265 272 258 266 261 256 260 249 241 296 241 278 277 244 269 233 240 263 229 229 259 242 244 235 257 237 235 226 238 243 213 249 243 296 269 234 270 260 261 247 232 223 208 244 219 236 260 223 218 238 234 257 283 223 230 245 247 232 245 271 248 286 285 275 244 281 276 298 280 331 292 307 320 341 313 320 335 328 329 334 345 343 354 336 358 374 333 357 396 387 333 350 361 402 359 328 365 331 375 378 331 362 291 300 338 328 352 312 315 299 339 295 293 292 317 298 307 319 294 324 267 304 306 293 300 265 262 265 247 270 257 241 238 299 241 238 247 223 207 263 227 227 225 234 218 232 214 213 223 193 224 214 230 215 215 227 233 227 236 262 226 222 212 227 239 200 220 213 203 210 216 236 219 240 235 219 246 204 223 231 222 222 264 244 223 260 231 243 214 221 241 228 243 264 234 238 232 223 220 208 213 216 225 223 229 219 238 213 206 234 204 213 207 208 230 225 246 241 243 201 218 199 222 222 216 216 240 234 194 200 209 209 206 210 246 198 192 225 218 227 234 214 212 203 228 211 204 191 224 203 212 220 219 214 239 200 209 215 208 201 201 217 204 196 192 230 221 202 226 213 213 223 201 224 226 224 189 220 211 246 204 199 207 208 210 209 183 246 234 239 225 207 202 211 226 219 204 226 209 201 202 218 239 223 189 200 227 170 211 206 190 182 223 211 197 216 219 225 215 202 204 224 192 211 212 201 214 213 225 232 213 225 198 209 208 210 191 221 217 217 198 195 207 206 218 190 213 208 196 240 234 224 205 209 227 200 218 208 210 202 204 240 201 224 213 206 181 216 203 210 219 200 218 217 232 201 192 211 221 178 210 204 201 215 191 201 228 206 185 202 187 181 210 191 197 209 215 228 200 191 214 193 226 213 196 196 231 193 207 199 188 200 206 201 215 207 209 213 212 241 225 213 204 211 225 203 216 198 222 207 204 207 235 209 222 191 188 223 189 212 198 206 210 212 201 216 232 210 218 217 210 227 190 214 191 205 207 219 206 206 234 198 226 211 218 220 216 187 226 227 209 187 247 217 189 193 204 221 221 239 194 186 205 207 173 206 205 235 232 211 211 198 245 219 210 237 208 222 228 231 257 228 246 219 243 219 219 237 209 219 260 180 220 216 233 237 214 259 210 219 199 203 222 243 217 215 206 228 222 224 234 237 221 222 221 218 211 203 199 207 212 225 212 238 239 229 227 218 210 228 246 226 240 229 258 212 209 225 217 207 240 212 234 238 226 227 234 238 271 223 239 266 238 221 212 231 226 236 236 225 226 187 230 230 221 224 226 209 223 236 227 263 241 244 249 233 247 228 234 218 242 240 234 239 236 270 243</counts>
			</dataPoints>
		</scan>
	</xrdMeasurement>
</xrdMeasurements>
