<?xml version="1.0"?>
<xrdMeasurements xmlns="http://www.xrdml.com/XRDMeasurement/2.3" xmlns:xsi="http://www.w3.org/2001/XMLSchema-instance" xsi:schemaLocation="http://www.xrdml.com/XRDMeasurement/2.3 http://www.xrdml.com/XRDMeasurement/2.3/XRDMeasurement.xsd" status="Completed" recordIdentifier="{3F43A024-7DB6-4FEB-B70C-9A26EB5F7EC2}">
	<comment>
		<entry/>
	</comment>
	<sample type="To be analyzed">
		<id>GPSS_Li1p5Fe0p5Cr0p5Cl4_111125_691433ae47a6a0fd7c6576f6</id>
		<name></name>
		<preparedBy></preparedBy>
	</sample>
	<xrdMeasurement measurementType="Scan" status="Completed" sampleMode="Reflection">
		<usedWavelength intended="K-Alpha 1">
			<kAlpha1 unit="Angstrom">1.5405980</kAlpha1>
			<kAlpha2 unit="Angstrom">1.5444260</kAlpha2>
			<kBeta unit="Angstrom">1.3922500</kBeta>
			<ratioKAlpha2KAlpha1>0.5000</ratioKAlpha2KAlpha1>
		</usedWavelength>
		<incidentBeamPath>
			<radius unit="mm">145.00</radius>
			<xRayTube id="1010048" name="Empyrean Cu LFF HR (9430 033 7310x)">
				<tension unit="kV">40.0</tension>
				<current unit="mA">15.0</current>
				<anodeMaterial>Cu</anodeMaterial>
				<focus type="Line">
					<length unit="mm">12.0</length>
					<width unit="mm">0.4</width>
					<takeOffAngle unit="deg">6.0</takeOffAngle>
				</focus>
			</xRayTube>
			<sollerSlit id="21010002" name="Soller slits 0.04 rad.">
				<opening unit="rad">0.0400</opening>
			</sollerSlit>
			<mask id="22031000" name="Fixed mask 13 mm">
				<width unit="mm">9.00</width>
			</mask>
			<divergenceSlit id="22120001" name="Divergence slit 1°" xsi:type="fixedDivergenceSlitType">
				<distanceToSample unit="mm">50.00</distanceToSample>
				<height unit="mm">1.52</height>
			</divergenceSlit>
		</incidentBeamPath>
		<sampleMovement xsi:type="spinningSampleMovementType">
			<spinnerRevolutionTime unit="seconds">1.0</spinnerRevolutionTime>
		</sampleMovement>
		<diffractedBeamPath>
			<radius unit="mm">145.00</radius>
			<antiScatterSlit id="22090040" name="AS slit 9 mm (PIXcel)" xsi:type="fixedAntiScatterSlitType">
				<height unit="mm">9.00</height>
			</antiScatterSlit>
			<sollerSlit id="21020003" name="Large Soller slits 0.04 rad.">
				<opening unit="rad">0.0400</opening>
			</sollerSlit>
			<filter id="20030001" name="Large beta-filter Nickel">
				<material>Ni</material>
				<thickness unit="mm">0.020</thickness>
			</filter>
			<detector id="7010019" name="PIXcel1D-Medipix3 detector" xsi:type="rtmsDetectorType">
				<phd unit="keV">
					<lowerLevel>4.02</lowerLevel>
					<upperLevel>11.27</upperLevel>
				</phd>
				<mode>Scanning</mode>
				<activeLength unit="deg">5.542</activeLength>
			</detector>
		</diffractedBeamPath>
		<scan appendNumber="0" mode="Continuous" scanAxis="Gonio" status="Completed">
			<header>
				<startTimeStamp>2025-11-13T16:42:01-08:00</startTimeStamp>
				<endTimeStamp>2025-11-13T16:50:08-08:00</endTimeStamp>
				<author>
					<name>AutomatedUser</name>
				</author>
				<source>
					<applicationSoftware version="1.7b (136)">PANalytical Aeris Instrument Suite</applicationSoftware>
					<instrumentControlSoftware version="3.2.00000000 20240306">AERIS</instrumentControlSoftware>
					<instrumentID>950485</instrumentID>
				</source>
			</header>
			<dataPoints>
				<positions axis="2Theta" unit="deg">
					<startPosition>10.00943322</startPosition>
					<endPosition>99.99442286</endPosition>
				</positions>
				<positions axis="Omega" unit="deg">
					<startPosition>5.00471661</startPosition>
					<endPosition>49.99721143</endPosition>
				</positions>
				<commonCountingTime unit="seconds">12.495</commonCountingTime>
				<counts unit="counts">2899 3031 2967 2990 2991 2923 3023 3061 2857 3015 3050 2891 2986 3005 2991 2931 2951 2978 2921 2986 3001 2950 3063 2947 3043 3030 2961 3007 3063 3010 2975 3149 2952 3025 2999 3080 3054 2991 2910 3024 2925 3069 3045 3081 3090 3034 2958 3036 3071 2998 3085 2932 2996 3028 2977 3120 3150 3087 2985 3048 2999 3072 3135 3005 2949 3017 3044 3043 3100 3060 3114 3167 3106 3039 3106 3045 3090 3216 3053 3101 3060 3057 3148 3074 3202 3167 3102 2979 3136 3112 3048 3080 3054 3018 3186 3109 3199 3127 3164 3085 3117 3146 3033 3174 3166 3197 3079 3170 2976 3123 3131 3184 3136 3249 3168 3096 3178 3166 3199 3136 3131 3181 3229 3077 3106 3255 3124 3252 3120 3183 3035 3108 3166 3288 3137 3192 3272 3138 3239 3153 3142 3124 3165 3165 3114 3183 3183 3253 3065 3183 3115 3107 3305 3171 3186 3291 3178 3188 3182 3200 3071 3160 3156 3186 3101 3091 3089 3263 3229 3194 3095 3182 3135 3181 3167 3164 3188 3182 3158 3166 3236 3182 3156 3166 3145 3034 3160 3162 3215 3180 3066 3189 3116 3163 3105 3238 3155 3120 3046 3208 3075 3105 3131 3183 3191 3097 3140 3222 3143 3080 3171 3064 3109 3217 3136 3132 3102 3216 3187 3089 3168 3177 3206 3229 3256 3110 3104 3198 3107 3218 3278 3268 3175 3154 3011 3151 3123 3201 3193 3061 3179 3165 3163 3258 3264 3176 3118 3161 3113 3186 3115 3158 3141 3194 3116 3132 3111 3242 3169 3081 3075 3195 3245 3267 3216 3203 3206 3157 3059 3225 3285 3164 3113 3221 3085 3248 3196 3193 3130 3086 3161 3242 3158 3133 3167 3201 3125 3301 3162 3215 3183 3172 3072 3086 3326 3200 3235 3132 3210 3219 3125 3185 3132 3235 3168 3241 3129 3240 3296 3189 3128 3112 3271 3316 3245 3301 3241 3317 3194 3246 3218 3266 3332 3221 3271 3285 3352 3353 3323 3312 3253 3330 3335 3301 3253 3207 3285 3327 3298 3456 3330 3377 3355 3427 3321 3381 3339 3372 3435 3532 3507 3466 3432 3465 3454 3310 3542 3484 3437 3496 3535 3471 3552 3540 3426 3515 3571 3462 3445 3528 3606 3401 3618 3525 3524 3520 3556 3450 3548 3618 3516 3494 3589 3583 3515 3546 3594 3646 3529 3582 3559 3571 3572 3597 3604 3669 3660 3669 3629 3706 3618 3725 3499 3657 3614 3569 3697 3645 3753 3766 3651 3650 3721 3840 3830 3692 3793 3806 3631 3749 3892 3886 3814 3917 3912 3777 3904 3990 3841 4074 3892 3918 3978 3993 3958 4100 4013 4046 4063 4195 3988 4049 4157 4028 4058 4092 4247 4191 4296 4234 4330 4404 4493 4453 4415 4440 4520 4452 4637 4581 4634 4715 4789 4703 4783 4787 4770 4898 4961 4991 5175 5100 5162 5160 5146 5111 5143 5220 5319 5251 5340 5340 5381 5348 5466 5327 5285 5279 5301 5459 5385 5279 5382 5286 5188 5273 5344 5156 5326 5254 5353 5285 5218 5099 5020 5301 5079 5264 5111 5260 5071 5193 5175 5270 5214 5197 5178 5174 5307 5280 5337 5194 5115 5142 5074 5024 5128 4910 4924 4815 4800 4831 4756 4797 4779 4505 4254 4270 4031 3860 3811 3637 3674 3742 3532 3557 3547 3649 3642 3533 3653 3451 3615 3527 3513 3445 3471 3447 3568 3442 3492 3582 3554 3416 3486 3426 3406 3376 3397 3507 3399 3502 3524 3421 3410 3417 3389 3421 3368 3338 3354 3355 3322 3368 3360 3338 3430 3344 3421 3377 3304 3356 3354 3418 3348 3374 3281 3365 3433 3324 3354 3269 3295 3241 3292 3336 3287 3343 3293 3368 3276 3382 3332 3315 3311 3337 3280 3217 3301 3250 3319 3217 3318 3235 3409 3264 3395 3224 3202 3347 3318 3275 3309 3325 3246 3198 3310 3263 3282 3313 3413 3278 3315 3169 3327 3303 3316 3309 3298 3277 3408 3255 3290 3253 3373 3340 3217 3300 3298 3336 3352 3381 3260 3260 3306 3360 3250 3367 3277 3418 3357 3310 3345 3303 3369 3320 3303 3253 3381 3476 3351 3360 3359 3359 3352 3385 3415 3334 3542 3359 3375 3365 3404 3411 3322 3394 3375 3413 3333 3384 3344 3335 3456 3407 3310 3235 3359 3277 3327 3303 3381 3317 3296 3283 3315 3224 3259 3322 3214 3338 3238 3193 3247 3214 3116 3247 3234 3275 3166 3247 3269 3190 3199 3122 3110 3188 3289 3213 3239 3104 3208 3111 3151 3269 3169 3271 3224 3098 3153 3204 3160 3126 3156 3174 3121 3348 3264 3183 3160 3114 3171 3280 3172 3210 3248 3029 3210 3157 3233 3089 3157 3057 3242 3058 3160 3181 3165 3172 3147 3179 3099 3102 3016 3154 3102 3164 3148 3042 3133 3189 3134 3124 3150 3143 3234 3082 3060 3130 3204 3114 3120 3115 3185 3096 3187 3151 3133 3247 3062 3149 3155 3145 3161 3091 3181 3061 3078 3052 3123 3140 3142 3170 3026 3011 3193 3069 3063 3048 3089 3166 3101 3063 3125 3094 3200 3129 3092 3121 3110 3049 2946 3180 3103 2973 3061 2955 3020 2992 3174 3099 3061 2989 3073 3145 3056 3061 2970 3027 2934 3020 3011 3051 3024 3118 3121 3071 3022 3074 3014 3117 3021 2929 2956 3065 3082 3013 3047 3152 3098 3126 2993 2948 3033 2966 3033 3040 3027 2987 3034 3038 2997 3064 3015 2996 2991 2971 3138 3145 3085 3079 3045 2959 3034 3004 2958 2930 3071 3021 2981 3010 3004 3007 2972 2977 3016 3017 3072 2910 2978 3050 2993 2999 2926 3064 3053 3027 2990 2984 2962 3034 3014 3023 2977 2921 2960 3060 3019 2999 2961 2991 3012 2865 3059 2922 3031 3009 2911 2932 2878 2951 2872 2981 2910 2960 2986 3007 2898 2983 2971 2919 3035 2936 3088 2978 3037 2871 2885 2895 2991 2995 2969 2936 3073 2894 3022 3018 2978 2885 3010 2933 3098 2938 2904 2944 2906 2869 2960 2960 2994 2947 3006 2999 2951 2909 2889 2850 2975 2913 2944 2908 2821 3038 2921 3035 2979 3011 2889 2905 2913 3017 2845 3001 2847 2939 2885 2998 2932 2772 2979 3048 2935 2960 2918 2949 2952 2914 2992 2961 2985 2893 3020 2838 2922 2861 2875 2912 2810 2893 2997 2936 2914 2866 3066 2938 2890 2922 2998 3005 3049 2920 2963 2951 3030 3038 2980 3002 3026 2962 2976 2922 2961 2972 2981 2981 2997 2938 2975 2907 2965 3013 2961 2992 2925 2885 2974 2948 2933 2997 3006 2927 2967 2985 2904 2919 2880 3052 2851 3018 2927 2995 2966 3039 3035 2972 3009 2955 2985 2932 2842 3019 2990 2965 2900 3018 2887 2918 3020 2902 2999 2906 2963 2914 2962 2953 2895 2940 2968 2980 2904 2906 2947 2940 2959 3032 2913 2841 2876 2931 3014 2967 2862 3000 2876 2991 2900 2957 2892 2970 2828 2866 2842 2934 2874 2867 2874 2819 2811 2849 2893 2925 2900 2903 2855 2867 2791 2841 2828 2759 2818 2844 2846 2975 2870 2711 2832 2849 2826 2898 2797 2845 2817 2867 2788 2858 2880 2838 2827 2827 2798 2815 2778 2748 2742 2745 2810 2827 2716 2700 2721 2773 2845 2826 2765 2736 2758 2683 2714 2770 2775 2688 2759 2695 2872 2710 2770 2769 2709 2630 2732 2732 2694 2709 2646 2712 2630 2656 2719 2706 2698 2659 2698 2697 2688 2600 2662 2673 2695 2680 2684 2568 2650 2563 2540 2699 2517 2602 2723 2696 2644 2549 2670 2642 2579 2459 2526 2624 2569 2607 2609 2550 2542 2607 2618 2523 2629 2587 2492 2547 2542 2519 2510 2502 2491 2548 2559 2565 2469 2419 2519 2539 2502 2560 2501 2552 2473 2584 2452 2559 2537 2476 2444 2448 2595 2567 2543 2528 2451 2558 2495 2450 2465 2450 2472 2496 2554 2435 2470 2498 2428 2543 2460 2431 2492 2450 2470 2506 2593 2351 2464 2374 2467 2567 2498 2489 2479 2412 2448 2483 2426 2489 2369 2492 2413 2415 2451 2583 2545 2561 2409 2461 2416 2515 2463 2446 2425 2466 2443 2515 2474 2506 2614 2505 2492 2535 2473 2505 2552 2547 2525 2465 2604 2480 2549 2472 2556 2539 2540 2532 2537 2544 2477 2473 2619 2624 2654 2542 2531 2514 2553 2560 2479 2496 2466 2525 2488 2464 2491 2570 2388 2475 2452 2412 2420 2410 2386 2418 2454 2455 2406 2448 2314 2418 2348 2296 2343 2387 2382 2452 2351 2424 2456 2324 2475 2432 2381 2418 2355 2386 2359 2383 2388 2417 2303 2461 2365 2402 2419 2425 2309 2407 2431 2406 2391 2428 2404 2345 2335 2368 2338 2533 2429 2328 2416 2480 2379 2399 2383 2430 2355 2399 2379 2387 2381 2453 2498 2335 2344 2326 2323 2380 2456 2451 2455 2444 2441 2423 2390 2408 2372 2378 2363 2346 2376 2373 2412 2376 2426 2382 2411 2470 2419 2390 2485 2333 2355 2470 2379 2327 2432 2426 2363 2423 2354 2505 2267 2333 2362 2491 2431 2420 2424 2337 2416 2468 2466 2361 2457 2462 2468 2460 2435 2429 2420 2497 2346 2463 2479 2370 2398 2435 2358 2450 2414 2383 2393 2479 2460 2384 2397 2399 2415 2378 2422 2389 2368 2353 2390 2378 2376 2297 2424 2364 2375 2389 2498 2262 2400 2424 2460 2399 2373 2375 2350 2375 2331 2349 2399 2367 2261 2384 2311 2360 2425 2281 2354 2317 2389 2452 2364 2333 2311 2408 2341 2273 2256 2337 2282 2398 2414 2267 2302 2307 2330 2313 2334 2214 2293 2297 2259 2287 2374 2360 2302 2233 2289 2192 2280 2295 2330 2359 2290 2327 2284 2222 2232 2313 2279 2236 2202 2244 2197 2166 2218 2335 2225 2128 2241 2215 2234 2217 2288 2169 2212 2175 2249 2213 2216 2319 2186 2244 2310 2234 2197 2188 2296 2192 2185 2128 2135 2309 2127 2231 2136 2102 2271 2104 2205 2073 2179 2200 2184 2286 2112 2159 2200 2131 2063 2235 2224 2201 2244 2171 2112 2043 2159 2206 2183 2111 2135 2191 2209 2123 2079 2162 2055 2080 2119 2116 2159 2201 2138 2114 2052 2145 2124 2148 2135 2174 2151 2118 2170 2121 2178 2074 2103 2072 2104 2145 2016 2099 2206 2140 2108 2190 2096 2190 2067 2125 2117 2140 2075 2074 2147 2103 2052 2072 2242 2178 2177 2184 2088 2261 2147 2207 2221 2203 2314 2329 2230 2300 2283 2299 2236 2332 2270 2362 2369 2382 2402 2434 2495 2441 2485 2474 2578 2534 2524 2461 2563 2607 2618 2679 2666 2494 2746 2683 2589 2638 2692 2673 2649 2643 2537 2725 2568 2558 2454 2555 2507 2504 2442 2549 2490 2393 2397 2412 2377 2393 2370 2329 2301 2200 2265 2319 2255 2222 2256 2179 2166 2181 2169 2238 2113 2259 2120 2109 2151 2186 2099 2101 2140 2115 2211 2123 2075 2076 2092 2103 2103 2086 2064 2117 2124 2061 2062 2074 2116 2142 2010 2021 2121 2096 2069 2029 2074 2087 2170 2112 2039 2117 2014 2145 2121 2115 2134 2134 2178 2195 2143 2207 2153 2139 2217 2294 2375 2324 2429 2376 2504 2437 2533 2442 2698 2646 2638 2734 2738 2690 2701 2922 2910 2859 2964 3062 3093 3113 3213 3266 3236 3321 3290 3423 3448 3440 3535 3499 3525 3513 3496 3475 3563 3509 3417 3410 3526 3364 3325 3331 3320 3265 3287 3226 3204 3268 3133 3106 3127 3099 3000 2982 2895 2709 2841 2680 2593 2618 2573 2400 2304 2346 2300 2233 2203 2174 2155 2163 2233 2147 2073 2022 2075 2052 2014 2049 2056 2046 2105 2076 2145 2094 2064 2127 2136 2206 2213 2214 2252 2172 2257 2096 2195 2082 2097 2124 2226 2223 2134 2106 2176 2088 2148 2199 2217 2214 2234 2245 2162 2232 2253 2221 2236 2214 2129 2273 2371 2185 2278 2227 2250 2250 2260 2091 2175 2183 2100 2099 2100 2059 2039 1976 2010 1973 2028 1939 1905 1868 1914 1954 1897 1944 1893 1856 1922 1885 1871 1985 1847 1951 1896 1915 1941 1921 1903 1903 1884 1960 1908 1876 1887 1824 1970 1875 1931 1914 1865 1885 1904 1862 1967 1936 1849 1878 1973 1941 1940 1900 1929 1982 1960 1867 1964 1939 1958 1980 1979 1961 1951 1939 1939 1956 1957 1973 1854 1932 1889 1908 1930 1869 1851 1886 1923 1943 1974 1900 1893 1903 1951 1925 1892 1870 1897 1877 1904 1919 1932 1884 1886 1856 1892 1869 1888 1882 1935 1899 1808 1873 1855 1916 1893 1849 1905 1906 1958 1825 1849 1988 1784 1775 1838 1906 1861 1819 1855 1911 1775 1824 1929 1857 1842 1902 1844 1845 1863 1916 1876 1833 1812 1860 1832 1781 1837 1844 1862 1891 1844 1886 1827 1894 1850 1807 1780 1816 1850 1907 1929 1828 1857 1757 1844 1851 1813 1786 1903 1776 1811 1868 1850 1812 1881 1868 1798 1850 1803 1856 1934 1877 1821 1859 1877 1841 1891 1905 1877 1851 1849 1861 1842 1823 1823 1815 1851 1815 1842 1862 1859 1810 1821 1815 1851 1809 1901 1775 1858 1858 1820 1898 1887 1891 1785 1877 1868 1902 1895 1886 1883 1831 1808 1864 1760 1853 1798 1895 1823 1883 1847 1823 1944 1883 1895 1836 1896 1794 1775 1899 1871 1913 1802 1885 1839 1852 1881 1919 1960 1910 1826 1808 1872 1852 1844 1829 1834 1840 1863 1859 1851 1836 1803 1880 1862 1865 1953 1870 1915 1923 1899 1945 1916 1803 1829 1885 1825 1873 1885 1910 1981 1934 1855 1914 2009 1949 1994 1963 2015 1987 1947 2023 1987 1999 2031 2049 2111 2038 2076 2072 2097 2070 2131 2228 2252 2265 2253 2395 2320 2354 2415 2349 2468 2593 2484 2568 2695 2657 2865 2912 3043 3137 3192 3300 3253 3379 3540 3616 3771 3877 4013 4168 4218 4411 4526 4617 4696 4877 4945 5121 5280 5540 5642 5738 5995 5897 6068 6247 6181 6482 6420 6492 6333 6308 6283 6310 6022 6201 6070 5972 5839 5791 5648 5505 5569 5544 5375 5227 5225 5123 4983 4876 4887 4859 4682 4611 4511 4358 4190 4047 3828 3692 3655 3423 3502 3120 3111 2958 2889 2771 2674 2516 2521 2502 2448 2287 2400 2319 2320 2209 2145 2168 2165 2263 2155 2144 2147 2225 2192 2211 2254 2129 2184 2062 2042 2096 1985 2060 1966 1979 2013 1985 2029 1998 2000 2011 1918 1933 1988 1987 2022 1910 1988 1932 1971 1950 1901 1949 1975 1923 1958 2007 1978 1948 1884 1920 1923 1940 1914 1976 1938 2011 1950 1994 1984 2013 1947 2019 1992 1996 1972 1998 1923 1889 1888 1942 1978 1943 2005 1972 1991 2009 2022 2110 1980 2010 1986 2048 1954 1922 2079 2007 1965 2038 2015 1967 2058 1961 2049 2021 2002 2021 2060 2037 2072 2044 2052 2076 2128 2129 2012 2081 2053 2073 2018 2093 2072 2052 2088 2064 2037 1953 1964 2040 2087 2027 2086 2086 2062 2075 2052 2084 2090 2101 2085 2047 2019 2043 1987 1969 1930 1953 1977 1925 1978 1880 1927 1919 1843 1897 1894 1949 1874 1827 1811 1889 1807 1842 1887 1899 1956 1874 1895 1777 1874 1831 1796 1814 1826 1838 1845 1871 1816 1806 1805 1786 1766 1800 1817 1871 1884 1868 1737 1791 1770 1740 1844 1796 1768 1769 1851 1701 1810 1848 1744 1833 1761 1778 1810 1718 1847 1806 1829 1797 1758 1767 1790 1665 1798 1862 1749 1729 1704 1784 1796 1736 1742 1801 1830 1734 1772 1869 1838 1858 1770 1807 1762 1775 1715 1826 1828 1815 1832 1789 1781 1836 1853 1703 1812 1846 1755 1862 1790 1785 1787 1911 1807 1875 1826 1883 1832 1820 1850 1832 1837 1857 1862 1857 1923 1806 1853 1779 1830 1770 1776 1782 1767 1817 1802 1844 1777 1929 1791 1809 1899 1752 1755 1857 1819 1723 1794 1856 1734 1794 1769 1779 1766 1757 1801 1825 1813 1723 1776 1865 1736 1765 1721 1748 1788 1780 1741 1751 1788 1789 1817 1790 1683 1746 1748 1709 1748 1718 1720 1782 1735 1722 1637 1700 1770 1796 1780 1776 1732 1767 1721 1734 1710 1783 1684 1661 1697 1785 1759 1649 1768 1753 1739 1755 1741 1644 1820 1730 1710 1787 1740 1820 1802 1895 1732 1741 1709 1768 1799 1783 1770 1880 1776 1859 1743 1802 1807 1833 1762 1849 1765 1791 1781 1833 1806 1743 1728 1788 1723 1725 1802 1754 1786 1827 1782 1750 1803 1736 1773 1771 1715 1734 1816 1709 1731 1783 1713 1678 1688 1692 1720 1670 1755 1720 1727 1682 1794 1672 1692 1646 1727 1691 1739 1701 1752 1683 1702 1728 1658 1723 1656 1704 1656 1724 1703 1683 1780 1684 1734 1659 1696 1715 1711 1609 1613 1626 1747 1668 1703 1675 1705 1681 1669 1740 1666 1684 1682 1750 1690 1705 1703 1704 1732 1665 1700 1725 1665 1574 1703 1638 1691 1656 1665 1707 1755 1623 1670 1674 1633 1633 1613 1680 1598 1639 1595 1735 1755 1708 1676 1618 1662 1686 1637 1696 1625 1558 1691 1655 1665 1691 1606 1599 1679 1652 1610 1725 1745 1650 1640 1693 1682 1718 1709 1643 1682 1743 1677 1708 1695 1685 1649 1672 1662 1681 1664 1616 1696 1690 1703 1649 1760 1769 1766 1609 1749 1690 1699 1621 1737 1683 1597 1684 1632 1731 1720 1648 1628 1707 1677 1668 1651 1655 1712 1667 1705 1762 1702 1649 1691 1718 1690 1659 1641 1651 1631 1594 1655 1702 1602 1593 1675 1715 1709 1646 1687 1635 1667 1682 1685 1607 1749 1628 1736 1627 1567 1657 1599 1678 1762 1682 1684 1734 1644 1647 1688 1626 1673 1642 1606 1706 1619 1745 1662 1610 1698 1626 1606 1652 1657 1712 1726 1675 1655 1700 1643 1636 1666 1665 1676 1593 1618 1628 1693 1645 1681 1649 1655 1644 1607 1629 1681 1658 1647 1692 1581 1645 1620 1688 1638 1631 1685 1628 1699 1633 1647 1704 1681 1658 1652 1614 1683 1685 1686 1680 1645 1738 1671 1707 1687 1673 1659 1619 1677 1609 1695 1640 1538 1684 1619 1749 1649 1708 1679 1740 1660 1600 1659 1760 1643 1670 1652 1661 1655 1691 1632 1623 1662 1739 1657 1661 1588 1521 1645 1680 1668 1685 1635 1699 1614 1638 1650 1682 1652 1659 1678 1628 1715 1706 1597 1596 1663 1672 1602 1646 1663 1779 1726 1694 1632 1726 1658 1636 1726 1776 1723 1738 1717 1738 1743 1745 1724 1735 1681 1784 1722 1743 1787 1738 1832 1778 1580 1713 1787 1731 1742 1726 1723 1726 1715 1731 1692 1696 1669 1712 1728 1622 1744 1686 1639 1686 1698 1718 1695 1709 1664 1647 1666 1591 1746 1648 1711 1589 1651 1651 1651 1631 1641 1663 1666 1722 1679 1720 1646 1620 1707 1683 1590 1651 1669 1668 1585 1623 1634 1700 1613 1625 1612 1587 1614 1608 1629 1635 1695 1638 1726 1708 1625 1675 1661 1621 1646 1601 1611 1605 1650 1625 1742 1638 1600 1638 1680 1587 1683 1706 1569 1654 1658 1627 1630 1688 1571 1671 1522 1740 1682 1700 1656 1710 1621 1664 1579 1609 1651 1595 1721 1619 1603 1598 1694 1693 1598 1676 1617 1598 1684 1652 1657 1645 1601 1629 1652 1603 1680 1627 1659 1614 1652 1650 1663 1663 1681 1663 1622 1615 1661 1622 1629 1615 1664 1640 1628 1654 1623 1603 1569 1605 1661 1669 1604 1623 1651 1627 1638 1567 1663 1705 1652 1654 1637 1685 1681 1708 1651 1626 1631 1700 1577 1610 1597 1678 1676 1685 1700 1597 1730 1625 1630 1698 1660 1598 1738 1650 1620 1671 1614 1729 1669 1698 1740 1699 1673 1684 1645 1766 1765 1669 1809 1741 1753 1714 1687 1804 1725 1779 1792 1770 1852 1829 1730 1762 1908 1815 1793 1830 2001 1904 2034 1935 1985 2022 1974 1972 1999 2016 1968 1983 2025 2048 2000 1969 2016 2044 1946 2025 2057 2082 2029 2017 1938 1970 2057 1910 2008 2007 2001 1964 1953 1934 1955 1911 1987 1904 1917 1884 1874 1963 1904 1903 2010 1879 1911 1905 1875 1891 1866 1876 1917 1700 1795 1820 1768 1799 1822 1807 1776 1785 1772 1797 1849 1851 1662 1718 1668 1714 1670 1656 1674 1745 1738 1686 1718 1634 1722 1663 1686 1684 1669 1738 1708 1632 1715 1581 1720 1741 1711 1730 1787 1695 1678 1671 1593 1710 1715 1593 1745 1664 1717 1686 1690 1696 1593 1719 1674 1701 1669 1725 1735 1673 1692 1686 1664 1711 1695 1725 1699 1661 1669 1631 1656 1647 1753 1728 1689 1784 1666 1706 1733 1658 1611 1681 1734 1643 1761 1706 1738 1630 1627 1743 1758 1742 1685 1624 1727 1723 1692 1639 1671 1666 1654 1638 1756 1664 1698 1710 1705 1704 1716 1678 1684 1664 1684 1632 1649 1694 1642 1731 1676 1700 1688 1764 1639 1711 1640 1631 1693 1676 1665 1729 1683 1699 1740 1692 1647 1757 1716 1726 1680 1747 1656 1648 1706 1622 1764 1654 1717 1725 1785 1671 1729 1731 1644 1688 1723 1721 1717 1748 1734 1680 1610 1703 1690 1711 1669 1674 1782 1677 1565 1730 1722 1672 1648 1732 1688 1620 1714 1711 1712 1673 1652 1643 1707 1685 1647 1651 1693 1719 1701 1734 1694 1652 1628 1644 1615 1624 1699 1748 1682 1664 1683 1645 1621 1689 1618 1649 1557 1686 1628 1722 1700 1629 1665 1609 1583 1698 1662 1684 1597 1619 1700 1627 1686 1667 1675 1662 1610 1690 1680 1658 1701 1679 1670 1663 1705 1700 1645 1615 1645 1631 1644 1687 1638 1591 1601 1676 1661 1579 1669 1688 1673 1676 1647 1703 1743 1609 1666 1670 1695 1587 1685 1668 1663 1660 1720 1673 1668 1598 1704 1625 1633 1700 1708 1573 1697 1662 1683 1716 1694 1718 1601 1734 1699 1691 1636 1707 1692 1604 1661 1701 1695 1715 1651 1718 1737 1716 1695 1670 1723 1732 1710 1668 1747 1782 1667 1763 1716 1701 1756 1814 1805 1838 1758 1766 1792 1772 1832 1771 1900 1891 1879 1904 1884 1858 1916 2040 2143 2077 2118 2088 2178 2202 2277 2274 2357 2463 2415 2458 2644 2794 2659 2752 2840 2890 3069 2935 3009 3056 3147 3160 3181 3285 3195 3292 3292 3250 3336 3264 3202 3310 3273 3306 3278 3268 3234 3305 3250 3355 3166 3281 3184 3213 3234 3208 3267 3348 3232 3217 3400 3359 3233 3358 3182 3286 3301 3335 3273 3277 3188 3266 3237 3197 3112 3123 2954 2917 2842 2800 2744 2636 2531 2488 2442 2363 2390 2315 2335 2244 2246 2096 2109 2087 2120 2040 1945 2047 1995 1973 2007 1923 1983 1980 1925 2018 1997 1987 1965 1949 2030 2003 1980 1936 2035 2061 1953 2025 2067 2020 2040 2010 1903 2051 2018 1956 2042 1938 1888 1906 1880 1879 1878 1931 1844 1889 1792 1741 1745 1848 1785 1727 1845 1778 1740 1700 1782 1781 1744 1798 1787 1700 1711 1714 1654 1731 1678 1655 1737 1761 1685 1677 1695 1731 1689 1715 1663 1691 1810 1638 1650 1659 1675 1649 1669 1724 1688 1684 1781 1633 1750 1605 1649 1690 1672 1728 1677 1666 1782 1696 1706 1717 1625 1653 1636 1650 1651 1670 1679 1669 1641 1676 1631 1742 1701 1677 1695 1736 1617 1726 1659 1720 1679 1702 1708 1699 1743 1720 1682 1745 1688 1711 1638 1633 1710 1713 1736 1807 1762 1666 1739 1770 1875 1791 1692 1751 1734 1804 1768 1754 1831 1831 1903 1806 1926 1833 1857 1815 1897 1894 1961 1916 1889 1954 1885 1941 1910 1883 1882 1919 1978 2028 1926 1916 1977 1961 1936 1948 1878 1948 1888 1861 1904 1910 1878 1846 1887 1910 1930 1973 1881 1911 1848 1930 1930 1871 1932 1908 1850 1845 1885 1870 1916 1887 1871 1870 1883 1799 1850 1806 1812 1785 1859 1839 1753 1849 1751 1800 1814 1763 1764 1746 1716 1802 1783 1841 1748 1739 1736 1735 1781 1750 1742 1767 1746 1791 1748 1812 1781 1741 1774 1790 1745 1803 1905 1763 1772 1772 1870 1855 1915 1833 1932 1858 1899 1911 1935 1915 1967 1898 1949 1950 1985 1950 2004 2007 1934 1934 1983 1969 1927 1967 1955 1932 1940 1899 1862 1826 1878 1781 1854 1762 1825 1766 1771 1733 1725 1758 1766 1681 1722 1728 1686 1732 1713 1711 1690 1705 1649 1692 1663 1615 1655 1631 1690 1657 1696 1701 1617 1692 1648 1612 1649 1587 1666 1576 1639 1718 1547 1609 1581 1550 1607 1609 1586 1605 1655 1615 1537 1582 1525 1634 1586 1631 1515 1581 1593 1557 1644 1644 1643 1656 1616 1611 1664 1661 1683 1646 1631 1585 1644 1656 1670 1668 1646 1534 1659 1598 1612 1592 1594 1650 1598 1613 1531 1661 1544 1686 1494 1554 1665 1619 1610 1501 1553 1629 1543 1556 1550 1574 1599 1598 1596 1617 1545 1597 1613 1657 1647 1568 1596 1648 1600 1658 1650 1543 1601 1586 1538 1639 1593 1591 1631 1612 1510 1618 1593 1609 1533 1593 1526 1577 1610 1640 1622 1652 1608 1617 1606 1588 1600 1590 1611 1601 1616 1534 1561 1616 1593 1583 1623 1642 1566 1596 1580 1589 1561 1663 1627 1676 1564 1576 1680 1669 1626 1579 1629 1632 1597 1658 1664 1569 1702 1582 1557 1595 1578 1548 1647 1625 1653 1595 1544 1578 1657 1613 1579 1577 1629 1606 1662 1634 1702 1635 1608 1587 1586 1563 1663 1688 1611 1636 1553 1627 1667 1627 1669 1646 1707 1638 1639 1691 1564 1613 1615 1665 1648 1615 1662 1653 1607 1669 1609 1707 1640 1697 1600 1614 1671 1645 1634 1603 1602 1599 1636 1593 1600 1572 1656 1587 1561 1605 1589 1591 1635 1565 1559 1593 1600 1624 1611 1576 1644 1640 1577 1606 1627 1595 1645 1540 1734 1568 1561 1655 1566 1609 1595 1523 1548 1622 1697 1551 1555 1548 1563 1640 1629 1632 1642 1606 1611 1595 1640 1631 1586 1603 1566 1625 1647 1575 1608 1656 1605 1571 1653 1627 1594 1700 1556 1609 1608 1563 1644 1646 1584 1572 1614 1676 1616 1578 1620 1609 1509 1601 1608 1589 1639 1566 1608 1552 1601 1515 1588 1664 1592 1567 1630 1613 1584 1572 1609 1576 1570 1556 1606 1529 1551 1589 1511 1513 1546 1543 1607 1566 1578 1582 1605 1607 1550 1587 1613 1555 1541 1552 1591 1569 1600 1574 1635 1572 1564 1604 1577 1591 1583 1512 1589 1567 1585 1558 1585 1591 1556 1588 1587 1602 1586 1610 1572 1609 1532 1585 1572 1544 1641 1631 1574 1551 1510 1602 1637 1508 1607 1573 1541 1600 1528 1576 1570 1528 1542 1635 1553 1683 1543 1603 1460 1544 1652 1519 1533 1532 1579 1570 1560 1608 1653 1578 1635 1583 1545 1603 1590 1571 1539 1658 1666 1580 1581 1632 1661 1569 1581 1575 1585 1626 1628 1583 1571 1603 1590 1590 1566 1569 1606 1605 1576 1497 1615 1584 1660 1617 1676 1688 1575 1605 1556 1616 1574 1656 1725 1641 1607 1597 1535 1701 1541 1587 1614 1629 1661 1609 1631 1537 1539 1607 1646 1645 1716 1619 1665 1670 1612 1641 1654 1649 1628 1627 1601 1574 1685 1604 1605 1700 1660 1599 1639 1682 1710 1631 1620 1706 1561 1705 1719 1736 1704 1673 1657 1653 1692 1773 1669 1720 1640 1727 1744 1733 1674 1759 1769 1737 1763 1729 1703 1740 1685 1707 1762 1794 1750 1739 1675 1745 1755 1770 1743 1793 1744 1786 1704 1834 1796 1747 1843 1737 1760 1831 1844 1894 1873 1874 1870 1962 1896 1894 1913 1908 1981 1962 2064 1954 2046 1973 1978 1954 2005 1946 1945 2024 1999 1950 1916 1917 1914 2024 1868 1853 1812 1864 1807 1790 1792 1723 1774 1818 1746 1775 1789 1635 1622 1608 1620 1651 1609 1639 1682 1598 1644 1635 1638 1535 1670 1598 1672 1645 1653 1610 1632 1553 1623 1653 1586 1600 1570 1630 1563 1575 1553 1545 1599 1528 1632 1577 1470 1585 1525 1497 1591 1581 1582 1612 1631 1615 1547 1625 1671 1591 1566 1668 1677 1514 1600 1606 1514 1537 1562 1607 1604 1557 1661 1579 1560 1604 1565 1594 1522 1554 1567 1610 1604 1573 1537 1571 1522 1603 1598 1518 1665 1526 1576 1589 1563 1612 1585 1542 1528 1617 1581 1539 1691 1603 1641 1637 1576 1615 1586 1591 1599 1513 1592 1566 1613 1576 1601 1603 1643 1526 1610 1586 1575 1613 1554 1610 1578 1622 1538 1541 1630 1598 1520 1539 1516 1506 1620 1570 1527 1592 1624 1561 1536 1514 1599 1563 1563 1612 1587 1579 1533 1632 1544 1612 1566 1576 1623 1628 1546 1538 1589 1550 1580 1686 1629 1595 1537 1587 1616 1639 1632 1639 1600 1664 1725 1674 1578 1577 1641 1655 1705 1635 1620 1667 1612 1644 1687 1669 1621 1720 1712 1807 1723 1711 1721 1703 1765 1741 1744 1739 1873 1879 1824 1933 1904 1958 1900 1961 1913 1917 1923 1928 1914 1930 1923 2044 1898 1902 1972 1974 1932 1859 1949 1907 1964 1904 1874 1897 1930 1878 1899 1933 1798 1895 1958 1928 1801 1890 1909 1930 1966 1974 1837 1877 1861 1939 1928 1905 1974 2013 1909 2001 1897 1990 2001 2056 2033 1973 1940 1987 1978 2027 1937 1980 1965 1994 1956 1886 1886 1863 1864 1834 1819 1868 1825 1816 1749 1806 1845 1772 1788 1729 1745 1706 1716 1725 1711 1676 1741 1703 1690 1699 1630 1663 1623 1708 1690 1685 1713 1640 1634 1677 1589 1678 1621 1627 1575 1690 1526 1535 1629 1693 1583 1615 1677 1694 1632 1565 1569 1591 1646 1621 1617 1546 1616 1525 1583 1617 1530 1578 1587 1648 1536 1533 1634 1662 1648 1596 1543 1532 1570 1600 1609 1574 1668 1692 1635 1546 1660 1601 1639 1606 1608 1669 1637 1510 1614 1702 1688 1596 1682 1592 1578 1556 1686 1620 1668 1662 1614 1605 1635 1642 1585 1597 1635 1690 1691 1668 1651 1633 1700 1650 1652 1616 1600 1686 1700 1684 1680 1730 1691 1650 1687 1726 1757 1775 1828 1816 1854 1821 1827 1828 1854 1829 1782 1809 1863 1915 1923 1929 1988 2020 1953 2012 2024 1935 1961 1933 1840 1922 1965 1944 1986 2111 1922 2005 1943 1925 1920 1897 1863 1857 1816 1756 1796 1779 1778 1844 1746 1797 1792 1796 1805 1697 1775 1715 1694 1723 1755 1624 1664 1691 1682 1766 1735 1671 1697 1734 1714 1729 1650 1676 1702 1615 1639 1631 1664 1635 1635 1702 1616 1645 1580 1629 1561 1596 1626 1629 1598 1535 1610 1600 1647 1587 1590 1611 1610 1582 1592 1595 1641 1632 1604 1623 1573 1604 1558 1630 1719 1646 1566 1631 1559 1641 1580 1662 1624 1654 1565 1558 1579 1554 1632 1558 1654 1609 1627 1669 1572 1630 1668 1606 1584 1608 1527 1639 1664 1633 1645 1669 1639 1636 1604 1586 1520 1665 1656 1557 1569 1587 1552 1574 1612 1609 1591 1518 1628 1655 1591 1582 1621 1552 1609 1639 1564 1506 1658 1564 1613 1619 1596 1653 1617 1550 1548 1589 1668 1572 1600 1594 1570 1570 1653 1592 1660 1629 1564 1570 1555 1704 1653 1586 1553 1622 1562 1533 1541 1585 1571 1576 1638 1602 1541 1565 1599 1629 1519 1611 1564 1639 1614 1676 1640 1633 1594 1623 1582 1552 1592 1614 1611 1591 1612 1629 1590 1578 1638 1609 1611 1571 1632 1650 1637 1613 1493 1521 1626 1587 1523 1529 1605 1561 1571 1631 1605 1611 1493 1541 1568 1625 1603 1611 1572 1613 1554 1574 1494 1497 1587 1614 1574 1576 1596 1588 1602 1628 1601 1671 1633 1603 1584 1635 1525 1546 1531 1568 1590 1547 1524 1566 1590 1589 1563 1584 1592 1590 1637 1555 1530 1612 1581 1541 1587 1643 1581 1530 1593 1558 1609 1585 1595 1558 1669 1579 1618 1605 1613 1527 1614 1546 1584 1585 1558 1601 1667 1532 1479 1503 1627 1484 1574 1544 1511 1608 1565 1512 1508 1551 1523 1577 1651 1594 1522 1633 1587 1570 1482 1588 1513 1550 1576 1540 1535 1657 1627 1594 1567 1600 1595 1522 1608 1561 1577 1531 1571 1605 1552 1522 1527 1597 1617 1551 1571 1500 1542 1555 1566 1533 1560 1566 1571 1585 1464 1596 1572 1564 1704 1506 1589 1526 1526 1543 1572 1606 1554 1586 1653 1547 1555 1575 1483 1583 1513 1577 1562 1616 1566 1559 1549 1524 1656 1535 1597 1575 1562 1525 1591 1603 1507 1579 1505 1471 1534 1596 1612 1567 1465 1546 1528 1517 1513 1493 1529 1538 1534 1573 1567 1564 1531 1557 1543 1491 1527 1573 1588 1582 1600 1523 1449 1525 1525 1568 1625 1609 1498 1562 1506 1526 1552 1522 1532 1550 1574 1503 1523 1541 1445 1599 1527 1588 1573 1551 1575 1574 1453 1486 1551 1517 1554 1584 1543 1525 1481 1514 1564 1545 1517 1530 1583 1533 1489 1557 1588 1555 1547 1531 1576 1492 1542 1581 1588 1515 1522 1569 1581 1544 1530 1516 1534 1537 1546 1546 1487 1483 1449 1630 1588 1523 1534 1626 1517 1604 1581 1592 1618 1611 1562 1638 1591 1543 1539 1617 1582 1567 1674 1632 1592 1552 1647 1575 1621 1615 1548 1626 1656 1604 1536 1576 1562 1576 1601 1628 1609 1611 1589 1655 1527 1558 1591 1615 1509 1541 1552 1522 1539 1577 1625 1576 1550 1588 1601 1598 1544 1601 1534 1507 1558 1639 1557 1551 1635 1645 1606 1502 1573 1633 1590 1591 1670 1645 1595 1591 1533 1571 1524 1580 1536 1520 1545 1564 1628 1510 1530 1562 1573 1562 1631 1541 1596 1543 1554 1633 1542 1511 1649 1546 1525 1560 1574 1564 1627 1559 1532 1551 1552 1543 1604 1574 1494 1591 1599 1546 1536 1518 1602 1514 1514 1531 1546 1519 1626 1480 1511 1525 1483 1544 1542 1563 1446 1488 1572 1585 1483 1596 1544 1551 1505 1539 1489 1633 1548 1572 1454 1588 1584 1540 1573 1529 1558 1543 1527 1526 1598 1516 1563 1543 1510 1542 1592 1563 1536 1534 1569 1522 1515 1483 1484 1549 1586 1539 1595 1559 1518 1546 1538 1530 1563 1531 1483 1596 1588 1585 1516 1504 1514 1588 1500 1526 1519 1578 1503 1574 1599 1513 1477 1505 1544 1548 1541 1500 1542 1520 1535 1521 1664 1449 1621 1571 1537 1543 1574 1581 1507 1480 1564 1561 1474 1561 1479 1532 1567 1480 1523 1547 1571 1474 1531 1493 1558 1581 1565 1443 1539 1550 1617 1591 1548 1550 1541 1599 1572 1601 1520 1513 1514 1620 1550 1442 1554 1553 1559 1530 1509 1484 1532 1546 1540 1556 1554 1521 1538 1528 1563 1624 1579 1523 1545 1625 1600 1498 1561 1554 1508 1612 1573 1546 1576 1505 1561 1653 1531 1586 1504 1493 1532 1630 1603 1562 1659 1552 1669 1519 1556 1552 1585 1586 1618 1557 1559 1571 1592 1610 1580 1593 1575 1615 1643 1651 1699 1635 1671 1690 1717 1673 1770 1634 1694 1710 1617 1698 1690 1694 1628 1702 1592 1621 1657 1609 1691 1677 1739 1622 1666 1723 1691 1722 1673 1689 1634 1703 1679 1636 1742 1666 1680 1629 1692 1773 1605 1680 1620 1723 1629 1654 1663 1603 1662 1654 1626 1653 1720 1692 1635 1623 1756 1731 1633 1662 1697 1729 1756 1721 1758 1749 1724 1771 1692 1670 1729 1776 1722 1744 1710 1697 1742 1740 1643 1652 1648 1677 1704 1621 1628 1660 1631 1602 1556 1636 1651 1616 1712 1627 1626 1625 1620 1655 1665 1662 1503 1561 1558 1537 1586 1609 1605 1582 1602 1537 1530 1531 1581 1582 1552 1617 1621 1587 1497 1570 1586 1536 1559 1498 1531 1550 1537 1528 1587 1516 1573 1590 1532 1514 1556 1572 1579 1491 1544 1589 1619 1535 1613 1592 1577 1631 1566 1505 1580 1492 1524 1511 1520 1538 1572 1539 1487 1559 1565 1523 1573 1511 1565 1492 1530 1583 1574 1484 1552 1560 1526 1541 1568 1538 1574 1583 1595 1564 1576 1497 1493 1555 1514 1531 1531 1553 1551 1518 1573 1519 1521 1606 1442 1560 1552 1456 1527 1508 1485 1601 1540 1504 1522 1513 1485 1472 1514 1557 1529 1622 1622 1541 1538 1462 1546 1488 1467 1481 1555 1509 1537 1476 1535 1569 1547 1564 1522 1457 1562 1584 1499 1497 1539 1563 1536 1560 1486 1495 1545 1474 1515 1508 1483 1470 1569 1489 1475 1569 1507 1497 1530 1510 1559 1486 1556 1620 1559 1585 1546 1546 1498 1573 1566 1528 1563 1561 1546 1461 1495 1460 1517 1488 1527 1509 1612 1527 1545 1544 1534 1486 1506 1595 1521 1564 1557 1614 1520 1506 1535 1551 1503 1618 1548 1512 1543 1544 1555 1520 1507 1515 1502 1542 1567 1502 1610 1610 1535 1551 1566 1542 1615 1566 1563 1557 1621 1536 1534 1512 1607 1535 1500 1529 1488 1556 1454 1547 1521 1543 1552 1521 1566 1534 1458 1531 1474 1496 1559 1486 1572 1488 1441 1536 1541 1604 1522 1524 1534 1500 1564 1505 1533 1491 1528 1533 1510 1507 1499 1508 1534 1506 1544 1566 1558 1500 1468 1535 1530 1543 1529 1529 1502 1482 1572 1438 1489 1469 1478 1523 1518 1504 1519 1567 1488 1488 1518 1496 1503 1522 1496 1533 1507 1507 1481 1479 1563 1556 1503 1548 1586 1559 1585 1550 1560 1547 1527 1504 1568 1519 1493 1504 1536 1522 1599 1523 1471 1543 1561 1515 1501 1549 1499 1520 1513 1456 1574 1584 1471 1582 1486 1491 1492 1546 1529 1525 1600 1460 1561 1503 1540 1493 1624 1559 1517 1587 1564 1560 1571 1618 1583 1558 1507 1535 1546 1541 1548 1513 1502 1536 1539 1513 1517 1486 1498 1582 1464 1504 1518 1631 1493 1552 1514 1548 1525 1502 1487 1508 1536 1490 1520 1498 1555 1483 1563 1588 1500 1593 1484 1562 1522 1619 1541 1457 1476 1574 1478 1572 1608 1627 1511 1530 1547 1501 1544 1555 1509 1471 1491 1627 1503 1543 1505 1522 1499 1506 1518 1542 1454 1538 1493 1565 1537 1559 1518 1516 1522 1530 1539 1547 1616 1507 1536 1568 1569 1552 1599 1565 1482 1532 1531 1465 1499 1598 1508 1510 1576 1524 1549 1589 1532 1534 1599 1541 1505 1590 1527 1538 1646 1495 1524 1582 1548 1577 1594 1478 1541 1561 1472 1544 1439 1488 1503 1558 1527 1507 1530 1556 1563 1547 1533 1515 1562 1578 1570 1562 1497 1507 1506 1538 1544 1489 1527 1535 1570 1582 1527 1496 1507 1539 1512 1513 1534 1529 1455 1512 1533 1499 1545 1515 1518 1574 1503 1587 1488 1587 1598 1548 1563 1594 1475 1604 1541 1599 1554 1545 1573 1476 1488 1568 1592 1568 1557 1582 1588 1572 1533 1491 1514 1548 1526 1513 1480 1594 1586 1580 1520 1619 1556 1581 1574 1549 1487 1626 1548 1596 1588 1543 1575 1551 1569 1599 1598 1601 1529 1604 1576 1503 1543 1570 1578 1580 1580 1582 1586 1596 1609 1534 1557 1669 1570 1528 1457 1566 1625 1622 1576 1483 1558 1542 1614 1644 1611 1620 1500 1560 1611 1561 1550 1583 1567 1601 1581 1618 1512 1555 1574 1587 1605 1557 1548 1534 1517 1493 1590 1589 1585 1571 1565 1580 1643 1621 1571 1591 1605 1608 1578 1599 1671 1701 1590 1694 1606 1548 1578 1551 1676 1576 1638 1630 1616 1494 1627 1636 1622 1624 1667 1613 1596 1554 1526 1600 1621 1665 1668 1651 1512 1676 1588 1665 1571 1629 1565 1615 1558 1639 1583 1658 1615 1633 1663 1608 1619 1606 1577 1620 1587 1617 1687 1623 1600 1549 1656 1632 1633 1593 1644 1703 1622 1706 1645 1656 1671 1698 1680 1613 1628 1670 1680 1624 1672 1667 1654 1702 1628 1625 1660 1652 1518 1643 1618 1674 1607 1627 1565 1632 1611 1627 1604 1603 1632 1536 1569 1638 1478 1560 1530 1505 1616 1590 1541 1606 1567 1515 1550 1496 1543 1554 1571 1499 1509 1544 1570 1599 1619 1544 1594 1546 1520 1557 1491 1489 1581 1585 1508 1478 1572 1458 1562 1576 1521 1496 1495 1625 1580 1570 1567 1572 1560 1497 1589 1509 1570 1570 1580 1574 1540 1513 1497 1488 1578 1566 1534 1532 1612 1570 1534 1549 1543 1544 1585 1538 1521 1593 1571 1567 1595 1583 1492 1611 1588 1475 1592 1505 1597 1558 1511 1560 1652 1538 1564 1690 1533 1540 1560 1567 1561 1649 1553 1650 1664 1670 1688 1552 1608 1641 1658 1623 1695 1551 1609 1666 1632 1615 1637 1649 1705 1698 1647 1712 1636 1653 1776 1735 1687 1766 1746 1701 1729 1797 1807 1791 1856 1827 1933 1834 1894 1835 1835 1818 1854 1893 1843 1929 1859 1875 1886 1900 1898 1944 1886 1838 1808 1901 1875 1858 1818 1843 1825 1771 1930 1796 1752 1796 1840 1813 1850 1853 1826 1810 1896 1787 1799 1785 1872 1787 1765 1719 1785 1777 1711 1715 1680 1693 1832 1816 1761 1785 1829 1771 1794 1779 1764 1815 1904 1866 1810 1835 1974 1870 1923 1899 1965 1967 2041 2033 1890 1918 1982 1994 2050 1919 1925 1988 1934 1978 1825 1947 1906 1817 1866 1823 1897 1889 1887 1860 1784 1804 1810 1906 1771 1802 1767 1778 1797 1816 1764 1782 1755 1754 1664 1766 1630 1658 1742 1689 1714 1686 1656 1655 1658 1681 1612 1598 1584 1610 1632 1605 1617 1623 1640 1611 1688 1585 1604 1625 1523 1611 1534 1544 1564 1602 1676 1602 1596 1572 1614 1592 1581 1576 1597 1572 1616 1596 1648 1608 1556 1600 1559 1627 1540 1632 1558 1545 1558 1640 1562 1637 1614 1634 1607 1524 1610 1655 1664 1569 1636 1640 1605 1603 1646 1675 1662 1584 1592 1683 1550 1565 1620 1597 1614 1617 1656 1590 1741 1586 1573 1583 1598 1662 1593 1613 1663 1632 1658 1612 1666 1666 1641 1606 1599 1648 1649 1576 1587 1645 1618 1622 1562 1640 1621 1572 1560 1634 1627 1657 1585 1640 1607 1595 1632 1655 1600 1648 1659 1682 1597 1562 1615 1721 1628 1562 1646 1568 1593 1631 1519 1557 1687 1602 1565 1560 1634 1647 1618 1594 1635 1533 1642 1634 1578 1628 1549 1648 1559 1587 1585 1636 1568 1518 1578 1557 1551 1667 1562 1531 1592 1605 1607 1631 1599 1527 1651 1588 1612 1715 1609 1637 1621 1647 1598 1574 1582 1635 1533 1533 1608 1604 1546 1496 1531 1637 1653 1519 1538 1549 1545 1571 1553 1592 1520 1591 1539 1556 1550 1594 1604 1594 1563 1565 1579 1494 1531 1560 1566 1581 1609 1539 1577 1586 1513 1585 1591 1503 1558 1548 1531 1563 1587 1516 1612 1577 1509 1585 1542 1525 1568 1553 1544 1526 1562 1518 1574 1599 1580 1540 1565 1643 1505 1579 1584 1535 1549 1579 1549 1608 1560 1560 1541 1524 1467 1558 1620 1510 1666 1551 1527 1556 1626 1564 1582 1561 1595 1569 1565 1554 1558 1528 1498 1523 1611 1607 1573 1587 1604 1564 1516 1560 1533 1594 1579 1638 1588 1523 1563 1541 1626 1564 1541 1589 1615 1599 1605 1615 1628 1586 1602 1654 1586 1581 1517 1578 1598 1599 1565 1545 1561 1602 1573 1540 1534 1573 1553 1592 1623 1647 1608 1614 1605 1556 1588 1627 1577 1589 1603 1631 1669 1627 1563 1643 1577 1584 1587 1689 1608 1631 1674 1573 1599 1646 1591 1529 1663 1474 1611 1600 1592 1585 1557 1710 1554 1565 1540 1639 1550 1586 1575 1528 1576 1604 1620 1561 1629 1590 1564 1583 1544 1591 1608 1602 1598 1645 1564 1597 1544 1523 1515 1599 1523 1663 1560 1597 1547 1586 1515 1509 1590 1570 1561 1511 1496 1535 1541 1570 1552 1614 1557 1635 1578 1529 1595 1482 1577 1516 1481 1526 1529 1546 1553 1546 1561 1627 1538 1525 1494 1632 1580 1577 1567 1556 1654 1530 1506 1581 1530 1598 1556 1656 1560 1461 1548 1548 1583 1561 1590 1655 1533 1586 1546 1641 1537 1581 1512 1562 1539 1596 1577 1595 1557 1570 1594 1491 1508 1504 1582 1554 1545 1593 1608 1545 1501 1585 1595 1550 1522 1514 1586 1647 1597 1600 1527 1533 1583 1586 1605 1546 1575 1585 1539 1582 1575 1621 1574 1532 1581 1541 1594 1630 1534 1557 1577 1541 1502 1515 1622 1570 1529 1594 1587 1488 1550 1621 1644 1536 1537 1514 1608 1587 1599 1515 1628 1575 1581 1575 1601 1544 1546 1537 1579 1530 1566 1612 1615 1564 1545 1625 1684 1615 1534 1579 1573 1681 1607 1610 1596 1628 1604 1686 1615 1591 1580 1587 1495 1565 1626 1581 1570 1560 1536 1570 1601 1573 1631 1608 1537 1572 1595 1594 1525 1563 1568 1591 1495 1518 1562 1629 1486 1587 1604 1587 1600 1602 1556 1616 1525 1555 1649 1618 1589 1552 1586 1563 1547 1558 1580 1615 1507 1615 1574 1535 1472 1622 1587 1548 1570 1618 1617 1579 1579 1494 1574 1579 1593 1550 1620 1576 1569 1546 1593 1569 1559 1619 1571 1476 1595 1544 1579 1555 1544 1608 1556 1549 1586 1532 1596 1586 1562 1651 1602 1620 1569 1587 1543 1575 1437 1590 1487 1520 1590 1565 1594 1591 1624 1589 1477 1597 1653 1601 1557 1553 1583 1586 1602 1572 1584 1546 1585 1518 1434 1578 1570 1589 1599 1601 1603 1604 1545 1595 1527 1580 1557 1530 1523 1530 1589 1592 1563 1532 1538 1505 1560 1533 1548 1570 1531 1515 1591 1589 1572 1564 1585 1543 1536 1497 1551 1628 1592 1525 1577 1556 1516 1600 1517 1571 1536 1590 1563 1595 1598 1494 1557 1564 1465 1661 1489 1600 1600 1542 1582 1521 1563 1498 1471 1551 1483 1490 1626 1518 1569 1509 1640 1519 1587 1542 1551 1553 1526 1593 1572 1556 1548 1548 1606 1510 1453 1533 1528 1544 1550 1550 1554 1542 1557 1581 1532 1545 1561 1581 1586 1548 1553 1522 1596 1475 1510 1597 1557 1606 1552 1532 1554 1629 1581 1578 1557 1573 1518 1551 1533 1593 1612 1601 1534 1531 1610 1663 1596 1593 1642 1629 1606 1672 1560 1592 1600 1611 1548 1651 1603 1625 1536 1614 1630 1617 1712 1577 1666 1627 1622 1646 1664 1643 1653 1667 1707 1710 1709 1662 1752 1648 1657 1698 1727 1688 1651 1715 1693 1731 1703 1732 1695 1673 1756 1751 1674 1712 1667 1722 1589 1648 1706 1801 1689 1697 1661 1684 1701 1712 1668 1703 1673 1676 1701 1701 1702 1639 1693 1698 1688 1671 1700 1625 1747 1640 1645 1626 1632 1598 1723 1665 1593 1677 1697 1646 1726 1652 1632 1660 1695 1746 1652 1668 1676 1740 1712 1695 1790 1771 1744 1684 1630 1727 1770 1766 1784 1763 1732 1795 1814 1814 1712 1769 1885 1857 1773 1792 1862 1769 1815 1843 1784 1733 1753 1752 1683 1776 1724 1692 1634 1689 1731 1721 1668 1679 1706 1633 1757 1726 1766 1763 1647 1728 1703 1649 1655 1722 1706 1708 1736 1699 1651 1706 1629 1659 1612 1642 1629 1603 1611 1674 1614 1670 1585 1637 1647 1658 1589 1608 1578 1583 1603 1594 1609 1591 1650 1566 1558 1581 1547 1605 1552 1514 1609 1541 1576 1570 1568 1650 1623 1587 1561 1525 1541 1582 1556 1602 1510 1638 1586 1546 1547 1558 1585 1553 1567 1582 1595 1592 1576 1532 1554 1609 1637 1623 1615 1598 1549 1638 1633 1576 1527 1603 1605 1638 1562 1651 1564 1561 1633 1565 1565 1607 1608 1617 1644 1586 1624 1646 1586 1608 1618 1595 1593 1648 1674 1597 1614 1608 1593 1570 1651 1543 1577 1624 1503 1582 1552 1499 1578 1578 1571 1580 1646 1567 1599 1570 1621 1653 1583 1599 1635 1651 1551 1571 1606 1605 1533 1604 1547 1560 1577 1623 1623 1592 1582 1517 1647 1566 1677 1599 1587 1542 1615 1527 1588 1525 1518 1528 1556 1561 1585 1612 1534 1614 1597 1595 1548 1605 1629 1623 1509 1495 1503 1608 1576 1537 1503 1521 1560 1562 1663 1538 1571 1600 1590 1563 1533 1639 1575 1562 1523 1497 1586 1589 1547 1541 1508 1602 1586 1599 1638 1548 1506 1582 1591 1589 1592 1534 1554 1616 1608 1520 1552 1534 1579 1563 1540 1570 1634 1600 1632 1563 1585 1600 1595 1594 1527 1569 1500 1555 1632 1553 1607 1636 1526 1580 1508 1586 1555 1541 1590 1557 1565 1548 1598 1562 1535 1628 1650 1612 1582 1606 1613 1588 1634 1580 1619 1670 1567 1564 1539 1545 1542 1515 1580 1634 1598 1588 1486 1645 1646 1533 1563 1587 1666 1583 1658 1577 1623 1558 1586 1511 1594 1554 1560 1544 1558 1567 1580 1591 1651 1597 1574 1622 1601 1547 1592 1552 1575 1592 1578 1543 1602 1569 1577 1596 1607 1563 1600 1608 1540 1607 1582 1615 1583 1573 1576 1541 1551 1619 1617 1609 1621 1583 1536 1580 1596 1648 1558 1609 1690 1578 1633 1544 1525 1557 1558 1551 1589 1595 1625 1501 1532 1522 1558 1527 1521 1557 1501 1547 1535 1600 1578 1469 1501 1594 1603 1628 1524 1562 1462 1552 1508 1638 1528 1589 1543 1468 1529 1485 1596 1611 1490 1488 1521 1555 1483 1585 1471 1495 1607 1610 1543 1581 1562 1507 1506 1555 1505 1562 1565 1620 1474 1599 1567 1576 1565 1596 1610 1510 1612 1469 1536 1509 1578 1596 1566 1479 1547 1554 1539 1603 1572 1550 1559 1574 1521 1504 1533 1567 1527 1567 1531 1536 1608 1554 1614 1593 1567 1623 1615 1552 1488 1523 1592 1530 1569 1483 1583 1606 1624 1588 1636 1618 1624 1546 1583 1609 1554 1539 1490 1523 1534 1566 1490 1502 1521 1576 1539 1602 1534 1568 1548 1540 1509 1536 1563 1540 1597 1565 1557 1546 1601 1552</counts>
			</dataPoints>
		</scan>
	</xrdMeasurement>
</xrdMeasurements>
