<?xml version="1.0"?>
<xrdMeasurements xmlns="http://www.xrdml.com/XRDMeasurement/2.3" xmlns:xsi="http://www.w3.org/2001/XMLSchema-instance" xsi:schemaLocation="http://www.xrdml.com/XRDMeasurement/2.3 http://www.xrdml.com/XRDMeasurement/2.3/XRDMeasurement.xsd" status="Completed" recordIdentifier="{204FEA29-182F-40B2-A512-CC6ADD6325EB}">
	<comment>
		<entry/>
	</comment>
	<sample type="To be analyzed">
		<id>GPSS_Li1p7Fe0p62Sn0p2Ta0p06Y0p12Cl4_121825_6943d914f4d05ae3d69790c0</id>
		<name></name>
		<preparedBy></preparedBy>
	</sample>
	<xrdMeasurement measurementType="Scan" status="Completed" sampleMode="Reflection">
		<usedWavelength intended="K-Alpha 1">
			<kAlpha1 unit="Angstrom">1.5405980</kAlpha1>
			<kAlpha2 unit="Angstrom">1.5444260</kAlpha2>
			<kBeta unit="Angstrom">1.3922500</kBeta>
			<ratioKAlpha2KAlpha1>0.5000</ratioKAlpha2KAlpha1>
		</usedWavelength>
		<incidentBeamPath>
			<radius unit="mm">145.00</radius>
			<xRayTube id="1010048" name="Empyrean Cu LFF HR (9430 033 7310x)">
				<tension unit="kV">40.0</tension>
				<current unit="mA">15.0</current>
				<anodeMaterial>Cu</anodeMaterial>
				<focus type="Line">
					<length unit="mm">12.0</length>
					<width unit="mm">0.4</width>
					<takeOffAngle unit="deg">6.0</takeOffAngle>
				</focus>
			</xRayTube>
			<sollerSlit id="21010002" name="Soller slits 0.04 rad.">
				<opening unit="rad">0.0400</opening>
			</sollerSlit>
			<mask id="22031000" name="Fixed mask 13 mm">
				<width unit="mm">9.00</width>
			</mask>
			<divergenceSlit id="22120001" name="Divergence slit 1°" xsi:type="fixedDivergenceSlitType">
				<distanceToSample unit="mm">50.00</distanceToSample>
				<height unit="mm">1.52</height>
			</divergenceSlit>
		</incidentBeamPath>
		<sampleMovement xsi:type="spinningSampleMovementType">
			<spinnerRevolutionTime unit="seconds">1.0</spinnerRevolutionTime>
		</sampleMovement>
		<diffractedBeamPath>
			<radius unit="mm">145.00</radius>
			<antiScatterSlit id="22090040" name="AS slit 9 mm (PIXcel)" xsi:type="fixedAntiScatterSlitType">
				<height unit="mm">9.00</height>
			</antiScatterSlit>
			<sollerSlit id="21020003" name="Large Soller slits 0.04 rad.">
				<opening unit="rad">0.0400</opening>
			</sollerSlit>
			<filter id="20030001" name="Large beta-filter Nickel">
				<material>Ni</material>
				<thickness unit="mm">0.020</thickness>
			</filter>
			<detector id="7010019" name="PIXcel1D-Medipix3 detector" xsi:type="rtmsDetectorType">
				<phd unit="keV">
					<lowerLevel>4.02</lowerLevel>
					<upperLevel>11.27</upperLevel>
				</phd>
				<mode>Scanning</mode>
				<activeLength unit="deg">5.542</activeLength>
			</detector>
		</diffractedBeamPath>
		<scan appendNumber="0" mode="Continuous" scanAxis="Gonio" status="Completed">
			<header>
				<startTimeStamp>2025-12-22T11:53:13-08:00</startTimeStamp>
				<endTimeStamp>2025-12-22T12:01:20-08:00</endTimeStamp>
				<author>
					<name>AutomatedUser</name>
				</author>
				<source>
					<applicationSoftware version="1.7b (136)">PANalytical Aeris Instrument Suite</applicationSoftware>
					<instrumentControlSoftware version="3.2.00000000 20240306">AERIS</instrumentControlSoftware>
					<instrumentID>950485</instrumentID>
				</source>
			</header>
			<dataPoints>
				<positions axis="2Theta" unit="deg">
					<startPosition>10.00943322</startPosition>
					<endPosition>99.99442286</endPosition>
				</positions>
				<positions axis="Omega" unit="deg">
					<startPosition>5.00471661</startPosition>
					<endPosition>49.99721143</endPosition>
				</positions>
				<commonCountingTime unit="seconds">12.495</commonCountingTime>
				<counts unit="counts">3134 3126 3180 3122 3156 3086 3008 3164 3149 3147 3087 3144 3170 3100 3123 3165 3187 3086 3173 3113 3052 3201 3260 3147 3219 3165 3196 3162 3219 3199 3186 3232 3264 3235 3201 3219 3222 3226 3263 3267 3305 3304 3277 3256 3267 3233 3245 3291 3209 3215 3272 3219 3352 3310 3265 3366 3254 3316 3237 3316 3460 3236 3247 3330 3240 3236 3418 3309 3342 3495 3376 3283 3307 3393 3337 3435 3343 3350 3378 3433 3368 3388 3367 3434 3381 3401 3376 3513 3417 3516 3394 3449 3268 3429 3509 3487 3450 3357 3440 3331 3511 3607 3543 3590 3537 3510 3567 3598 3431 3516 3584 3434 3467 3539 3468 3591 3648 3497 3580 3708 3512 3529 3514 3634 3566 3567 3518 3524 3773 3534 3544 3562 3591 3662 3678 3672 3573 3712 3454 3622 3535 3581 3659 3607 3617 3663 3699 3756 3595 3619 3672 3691 3656 3647 3710 3715 3773 3688 3730 3719 3734 3595 3734 3671 3727 3549 3683 3687 3743 3730 3631 3795 3790 3764 3833 3731 3786 3624 3782 3672 3670 3751 3855 3780 3692 3622 3620 3701 3731 3741 3896 3797 3820 3803 3613 3714 3753 3726 3707 3631 3727 3693 3689 3755 3613 3628 3704 3710 3686 3631 3759 3673 3664 3771 3669 3632 3717 3690 3776 3659 3755 3628 3611 3718 3614 3695 3605 3521 3808 3615 3744 3648 3631 3670 3758 3695 3638 3677 3589 3632 3697 3650 3783 3578 3673 3649 3684 3574 3640 3725 3596 3672 3595 3538 3559 3632 3546 3598 3602 3561 3656 3719 3484 3608 3567 3616 3673 3544 3567 3688 3591 3559 3650 3517 3518 3585 3579 3606 3659 3635 3562 3517 3558 3464 3562 3593 3531 3515 3673 3599 3663 3575 3584 3695 3683 3577 3556 3601 3538 3629 3677 3717 3750 3657 3593 3599 3638 3630 3642 3603 3661 3718 3649 3660 3641 3728 3670 3626 3638 3653 3731 3727 3681 3589 3743 3690 3660 3671 3612 3751 3624 3788 3765 3618 3672 3735 3756 3640 3720 3773 3747 3803 3686 3727 3655 3746 3712 3837 3734 3858 3821 3861 3767 3668 3753 3769 3831 3854 3736 3798 3787 3765 3766 3889 3831 3865 3916 3866 3887 3798 3903 3928 3951 3808 3922 3977 3900 3891 3888 3938 3848 3891 3969 3948 3879 3951 3944 4042 4060 3936 3998 4064 3996 4014 3914 4075 3955 4090 3939 3975 4034 3960 3996 4051 4009 4014 4049 4186 4108 4149 4091 4096 4100 4174 4139 4187 4127 4245 4144 4340 4350 4397 4351 4328 4423 4415 4566 4513 4580 4605 4645 4604 4608 4798 4617 4685 4737 4726 4795 4794 4647 4709 4721 4703 4808 4824 4955 4878 4981 4905 5002 4940 5027 4948 4828 5006 4783 4825 4886 4742 4663 4740 4651 4690 4519 4527 4240 4232 4319 4313 4167 4141 4087 4120 3996 4083 3961 3963 4011 3963 3815 4046 3828 3931 3829 3909 3871 3983 3915 3805 3968 3729 3805 3857 3816 3794 3815 3839 3823 3800 3805 3767 3904 3853 3787 3864 3854 3830 3722 3871 3717 3792 3736 3782 3748 3781 3776 3792 3780 3855 3861 3622 3720 3710 3825 3817 3706 3680 3902 3691 3709 3759 3900 3762 3798 3670 3867 3869 3620 3681 3661 3779 3828 3797 3760 3804 3667 3698 3739 3715 3697 3884 3633 3743 3616 3681 3824 3661 3628 3650 3663 3624 3666 3595 3714 3608 3579 3537 3539 3501 3416 3563 3522 3542 3594 3564 3546 3599 3580 3491 3489 3602 3504 3497 3548 3530 3564 3516 3454 3469 3420 3434 3525 3428 3554 3602 3440 3573 3467 3284 3476 3518 3541 3421 3477 3383 3421 3522 3403 3421 3508 3430 3417 3555 3526 3437 3396 3482 3357 3368 3467 3277 3360 3332 3390 3438 3396 3376 3449 3515 3322 3527 3380 3466 3401 3356 3313 3468 3474 3342 3308 3288 3361 3430 3377 3401 3277 3385 3464 3486 3403 3404 3404 3457 3354 3406 3450 3360 3253 3568 3346 3380 3337 3317 3398 3426 3407 3406 3339 3445 3394 3341 3342 3370 3343 3402 3400 3442 3369 3326 3327 3356 3393 3382 3371 3273 3322 3364 3427 3297 3370 3330 3351 3312 3323 3412 3399 3444 3346 3300 3313 3387 3312 3319 3425 3344 3263 3293 3424 3351 3456 3270 3377 3231 3427 3290 3276 3287 3234 3345 3253 3287 3314 3295 3270 3231 3283 3307 3345 3301 3338 3226 3262 3333 3331 3299 3310 3275 3289 3155 3322 3221 3258 3239 3361 3249 3290 3162 3327 3261 3185 3215 3227 3275 3116 3248 3279 3318 3279 3354 3208 3258 3151 3271 3233 3223 3235 3167 3288 3232 3180 3161 3204 3264 3165 3224 3273 3165 3174 3306 3131 3252 3274 3161 3203 3133 3180 3165 3241 3185 3272 3174 3245 3132 3090 3165 3225 3097 3122 3189 3197 3191 3194 3278 3271 3239 3152 3211 3215 3114 3226 3137 3241 3164 3200 3145 3197 3227 3223 3086 3133 3178 3147 3155 3178 3247 3062 3134 3107 3198 3098 3149 3153 3137 3152 3156 3078 3158 3059 2986 3134 3185 3136 3088 3211 3095 3099 3155 3145 3193 3247 3186 3121 3173 3136 3069 3194 3253 3075 3040 3149 3137 3108 3093 3069 3032 3156 3054 3073 3106 3048 3002 3090 3015 3088 3028 3182 3132 3015 3129 3005 3178 3166 3122 3035 3121 3115 3127 3000 3038 3183 3061 3109 3106 3065 3016 3076 3065 2982 3052 3063 3102 2955 2933 3131 3007 3015 3045 3043 3118 3004 3058 3095 3095 2992 2947 3014 2977 3046 2985 3005 2977 3003 3076 3081 2976 3077 3029 3016 2923 3031 3112 3061 2975 2924 3056 2977 2953 3118 3013 3017 2982 3059 2862 2967 3088 3036 3017 3108 3061 3074 3044 2893 3042 3137 3025 3093 2976 2994 3024 3013 2993 2951 2988 2983 3107 3017 3008 2979 3021 2972 3013 2961 2964 2987 3003 3020 3008 2888 2952 2968 2883 2990 2856 2956 2945 2874 3069 2983 2952 2965 3023 3022 3025 2851 3047 2978 2916 3008 3036 2972 2965 2926 2960 2984 3043 2960 2951 2875 2958 2935 3051 3046 2941 2981 2987 2998 2951 2947 2940 2937 2938 2985 2899 2994 2989 3026 2987 3057 2970 3063 3042 2899 3010 2901 3156 3084 2937 2928 3032 3069 2953 2950 2988 2948 3015 2950 2952 2950 3057 3097 3147 3045 3058 3007 2882 3140 2958 2930 2962 2985 3092 2998 3007 3002 3065 3011 2975 2955 3070 3034 3017 3166 3033 3024 2989 3045 3070 3097 3042 3008 3032 2930 3012 3148 3133 2960 3023 3024 2987 3066 3053 3022 2949 2959 3035 2990 3064 2998 3148 3072 2976 2952 2983 2987 3084 3024 3007 3074 2961 2967 2987 2920 2933 2936 3006 2952 3068 3057 2970 3060 3114 2925 3024 3033 3086 2924 2931 3048 3003 3024 2990 2893 2980 3005 2935 2825 2899 3005 2926 2943 2911 2861 2911 3034 2870 2811 2892 2952 2978 2974 2944 2955 2983 2853 2807 2854 2904 2861 2976 2974 2838 2884 2957 2842 2930 2915 2822 2848 2816 2898 2859 2944 2932 2898 2955 2981 2804 2945 2808 2794 2845 2865 2828 2847 2704 2788 2760 2843 2809 2803 2782 2789 2681 2846 2976 2835 2825 2701 2894 2737 2835 2853 2728 2753 2781 2783 2745 2761 2771 2700 2730 2737 2765 2772 2726 2718 2721 2665 2668 2706 2710 2686 2603 2644 2796 2678 2665 2677 2589 2740 2597 2598 2678 2646 2701 2652 2644 2623 2611 2676 2584 2605 2738 2541 2603 2569 2641 2602 2573 2688 2651 2511 2599 2516 2647 2537 2544 2622 2546 2581 2584 2574 2613 2603 2504 2661 2489 2634 2560 2526 2520 2540 2445 2513 2477 2519 2596 2537 2559 2421 2528 2484 2405 2470 2400 2407 2459 2503 2537 2446 2510 2420 2453 2438 2487 2474 2443 2388 2423 2453 2490 2550 2473 2451 2378 2423 2412 2454 2457 2588 2467 2451 2471 2498 2454 2518 2442 2470 2528 2475 2494 2441 2452 2442 2481 2470 2478 2486 2400 2455 2494 2436 2392 2333 2381 2397 2447 2461 2383 2425 2412 2459 2423 2432 2477 2319 2378 2408 2426 2406 2390 2390 2417 2395 2445 2437 2464 2412 2287 2389 2432 2388 2408 2369 2418 2476 2316 2434 2390 2334 2360 2378 2471 2338 2324 2438 2407 2278 2412 2345 2391 2290 2314 2322 2398 2324 2391 2353 2380 2346 2383 2381 2345 2326 2388 2337 2407 2345 2390 2379 2315 2432 2437 2325 2398 2369 2392 2444 2369 2336 2359 2373 2319 2358 2352 2363 2256 2368 2339 2405 2332 2427 2335 2415 2405 2476 2268 2377 2356 2343 2421 2252 2437 2369 2334 2397 2433 2399 2441 2309 2344 2419 2388 2314 2422 2367 2451 2320 2380 2399 2463 2315 2344 2356 2458 2377 2322 2399 2347 2475 2382 2327 2385 2327 2520 2378 2487 2366 2424 2337 2407 2403 2374 2453 2429 2359 2373 2436 2418 2380 2414 2350 2356 2435 2410 2370 2411 2246 2377 2411 2406 2408 2363 2397 2409 2332 2375 2303 2336 2434 2395 2394 2414 2342 2446 2439 2399 2384 2337 2296 2335 2370 2273 2389 2360 2357 2362 2428 2363 2446 2403 2381 2402 2397 2395 2260 2399 2257 2310 2394 2392 2371 2294 2264 2354 2309 2312 2271 2311 2319 2318 2396 2314 2308 2398 2249 2346 2253 2321 2340 2278 2325 2225 2394 2322 2328 2318 2309 2255 2417 2311 2283 2284 2292 2287 2300 2243 2246 2246 2231 2227 2266 2192 2225 2234 2139 2221 2316 2243 2244 2298 2232 2142 2206 2145 2222 2216 2232 2294 2237 2168 2200 2164 2225 2224 2196 2258 2139 2164 2205 2245 2288 2190 2173 2168 2218 2161 2196 2224 2179 2153 2178 2112 2127 2142 2177 2076 2136 2094 2187 2180 2123 2142 2161 2152 2168 2153 2174 2063 2142 2164 2162 2057 2120 2092 2160 2105 2082 2154 2175 2030 2106 2063 2104 2088 2181 2151 2150 2138 2093 2112 2082 2106 2079 2070 2168 2067 2088 2071 1977 2099 2111 2066 2114 2113 2103 2097 1993 2124 2040 2112 2076 2113 2107 2104 2156 2172 2179 2165 2228 2256 2292 2227 2294 2357 2317 2435 2371 2329 2488 2512 2534 2447 2522 2561 2557 2475 2492 2516 2508 2580 2484 2475 2538 2560 2458 2638 2558 2537 2605 2474 2531 2413 2503 2504 2449 2379 2412 2356 2399 2276 2356 2242 2217 2222 2145 2160 2209 2114 2165 2174 2094 2138 2140 1979 2086 2043 2040 2060 2128 2050 2037 2045 2046 2011 2000 2012 2081 1943 1977 2086 1999 1958 2004 2066 2013 1978 1955 1930 1974 1918 1926 1892 1903 1941 1919 1998 1955 1978 1967 1963 1853 1949 1870 1962 1876 1964 1958 2017 1977 1966 2026 1938 1966 1915 2005 2033 2020 2175 2049 1988 2186 2072 2134 2177 2222 2265 2282 2405 2419 2532 2441 2630 2662 2676 2692 2760 2904 2954 2889 2992 3088 3026 3168 3090 3042 3121 3062 3140 3059 3128 3156 3153 3191 3141 3154 3169 3155 3282 3185 3170 3143 3153 3081 3115 3051 2964 2892 2952 2829 2721 2836 2690 2698 2605 2472 2497 2485 2402 2381 2376 2273 2399 2264 2175 2225 2240 2219 2204 2130 2187 2089 2099 2076 2024 2006 1996 2012 1907 1985 1987 1961 1927 1930 1902 1936 1953 1816 1929 1782 1862 1818 1923 1836 1900 1867 1768 1872 1760 1804 1818 1725 1763 1841 1751 1812 1730 1813 1759 1739 1825 1851 1818 1858 1773 1725 1677 1739 1814 1835 1758 1784 1785 1702 1774 1788 1777 1785 1807 1751 1816 1848 1775 1751 1756 1746 1800 1750 1793 1858 1809 1811 1780 1750 1789 1717 1746 1828 1757 1771 1847 1811 1859 1878 1834 1907 1893 1963 1880 1894 1943 1947 2049 2028 2018 2077 2017 2093 2108 2162 2119 2210 2276 2221 2127 2192 2233 2270 2338 2273 2262 2294 2267 2215 2286 2222 2270 2237 2300 2192 2173 2169 2050 2125 2132 2021 2089 1944 1999 2021 1966 2011 1893 1844 1840 1849 1891 1788 1775 1823 1728 1716 1817 1687 1821 1832 1698 1741 1886 1717 1739 1787 1720 1782 1815 1758 1779 1793 1810 1691 1869 1674 1783 1749 1740 1700 1752 1675 1712 1853 1721 1755 1820 1732 1681 1817 1742 1679 1648 1750 1702 1655 1699 1662 1760 1702 1625 1716 1688 1811 1620 1752 1711 1631 1721 1670 1664 1722 1711 1692 1742 1689 1658 1667 1754 1640 1685 1702 1734 1648 1642 1692 1672 1657 1695 1667 1549 1650 1627 1658 1638 1581 1567 1637 1674 1641 1728 1666 1655 1645 1721 1580 1705 1683 1634 1703 1651 1595 1681 1665 1640 1722 1598 1756 1671 1656 1733 1596 1657 1653 1599 1609 1651 1680 1649 1663 1634 1639 1712 1625 1674 1698 1732 1666 1666 1626 1744 1603 1702 1666 1610 1618 1623 1710 1668 1640 1681 1793 1671 1658 1742 1703 1668 1700 1684 1632 1681 1629 1668 1732 1676 1649 1742 1712 1754 1732 1735 1702 1776 1788 1771 1710 1785 1741 1682 1723 1777 1765 1768 1850 1841 1889 1776 1724 1871 1869 1757 1801 1804 1790 1824 1862 1827 1919 1906 1880 1921 1786 1861 1755 1873 1865 1870 1783 1860 1874 1825 1790 1827 1749 1825 1872 1757 1832 1813 1840 1835 1787 1799 1836 1719 1808 1754 1751 1750 1830 1884 1897 1876 1844 1933 1962 1937 2040 2063 2065 2138 2289 2324 2340 2403 2631 2722 2837 2930 3099 3272 3329 3633 3792 3955 4005 4302 4542 4571 4695 4797 4847 4984 4958 5058 5186 5246 5389 5137 5481 5541 5477 5500 5341 5327 5427 5405 5304 5188 5168 5033 4990 4699 4591 4613 4346 4295 4051 4058 3865 3764 3594 3463 3236 3211 3080 2958 2855 2795 2748 2721 2574 2559 2456 2500 2416 2384 2288 2231 2255 2194 2241 2184 2262 2145 2166 2136 2026 2106 1957 2046 1977 1970 1949 1972 1912 1911 1839 1858 1864 1709 1870 1773 1830 1875 1678 1737 1702 1771 1729 1773 1698 1709 1718 1684 1708 1700 1680 1680 1659 1690 1661 1615 1727 1700 1648 1658 1682 1618 1718 1688 1656 1640 1627 1665 1633 1688 1698 1669 1639 1607 1592 1602 1584 1668 1645 1586 1678 1645 1710 1664 1659 1593 1679 1618 1627 1655 1702 1634 1567 1623 1642 1597 1652 1592 1618 1710 1584 1665 1641 1654 1610 1650 1623 1566 1683 1628 1664 1645 1709 1638 1631 1638 1683 1618 1647 1694 1668 1651 1620 1675 1734 1663 1605 1693 1592 1616 1623 1680 1570 1659 1534 1634 1609 1640 1650 1668 1628 1625 1601 1573 1646 1587 1628 1658 1621 1606 1662 1611 1606 1627 1550 1610 1578 1594 1565 1669 1621 1626 1580 1579 1600 1642 1610 1616 1656 1651 1599 1619 1549 1633 1599 1602 1609 1612 1636 1596 1566 1646 1509 1649 1572 1616 1656 1643 1520 1618 1578 1600 1533 1620 1648 1596 1646 1552 1609 1510 1572 1596 1611 1557 1622 1518 1647 1551 1613 1612 1547 1598 1613 1541 1497 1552 1569 1586 1635 1557 1596 1605 1615 1581 1591 1607 1615 1577 1528 1594 1578 1644 1602 1578 1569 1626 1598 1583 1612 1560 1624 1588 1591 1573 1580 1570 1624 1588 1567 1576 1541 1618 1629 1559 1619 1707 1638 1674 1625 1519 1637 1654 1629 1629 1617 1566 1631 1590 1641 1639 1699 1545 1534 1637 1655 1609 1583 1705 1644 1649 1518 1548 1634 1557 1650 1555 1535 1635 1591 1599 1647 1635 1605 1594 1531 1619 1612 1593 1598 1524 1626 1543 1606 1520 1555 1603 1476 1555 1499 1539 1497 1561 1546 1497 1562 1535 1543 1549 1546 1542 1547 1550 1567 1617 1591 1495 1572 1421 1561 1532 1518 1512 1534 1585 1563 1509 1525 1642 1509 1498 1582 1536 1530 1536 1617 1517 1567 1574 1602 1595 1507 1671 1581 1471 1533 1629 1534 1579 1500 1485 1503 1564 1540 1595 1503 1479 1587 1604 1577 1512 1541 1471 1499 1597 1568 1619 1442 1566 1541 1489 1567 1523 1524 1548 1558 1587 1633 1585 1485 1582 1587 1526 1574 1627 1494 1535 1553 1547 1630 1536 1600 1554 1561 1611 1541 1560 1513 1626 1556 1585 1557 1540 1584 1652 1535 1540 1572 1584 1601 1534 1529 1544 1531 1494 1540 1547 1532 1497 1466 1500 1544 1495 1581 1516 1518 1536 1547 1553 1565 1608 1609 1541 1592 1588 1523 1612 1554 1559 1556 1488 1541 1527 1529 1476 1460 1557 1525 1547 1525 1521 1495 1477 1544 1560 1536 1517 1572 1570 1547 1585 1570 1492 1509 1571 1490 1549 1543 1569 1620 1564 1496 1494 1527 1452 1548 1543 1565 1532 1496 1508 1574 1567 1498 1526 1464 1538 1631 1524 1546 1557 1606 1504 1544 1516 1515 1545 1548 1483 1481 1638 1510 1580 1611 1581 1549 1571 1607 1587 1535 1554 1512 1527 1590 1555 1567 1483 1527 1553 1579 1555 1519 1531 1621 1597 1511 1516 1608 1572 1714 1599 1612 1659 1665 1618 1715 1723 1731 1695 1669 1719 1783 1737 1728 1803 1809 1783 1753 1824 1804 1692 1793 1822 1870 1871 1779 1848 1834 1855 1907 1812 1813 1786 1816 1775 1771 1808 1718 1606 1698 1642 1655 1714 1690 1648 1637 1589 1640 1611 1606 1567 1634 1555 1646 1599 1555 1616 1578 1563 1628 1535 1547 1583 1510 1514 1497 1539 1522 1541 1543 1515 1519 1551 1454 1500 1525 1474 1468 1548 1517 1579 1513 1475 1505 1509 1515 1517 1503 1542 1531 1566 1536 1492 1524 1437 1522 1526 1485 1498 1598 1522 1544 1496 1480 1508 1558 1586 1570 1602 1588 1524 1544 1537 1496 1535 1493 1573 1552 1476 1558 1552 1452 1578 1520 1485 1523 1513 1549 1592 1491 1551 1524 1597 1522 1543 1548 1576 1508 1505 1493 1560 1470 1599 1559 1525 1453 1499 1590 1516 1461 1451 1550 1550 1463 1469 1503 1520 1468 1515 1532 1542 1556 1489 1562 1539 1597 1590 1536 1571 1571 1536 1524 1540 1526 1563 1494 1519 1573 1508 1569 1563 1581 1557 1629 1589 1596 1578 1546 1535 1596 1589 1618 1558 1608 1575 1556 1542 1621 1539 1553 1612 1549 1568 1585 1543 1537 1623 1641 1488 1563 1505 1489 1629 1515 1501 1509 1549 1525 1489 1544 1518 1509 1556 1552 1595 1606 1564 1576 1549 1578 1515 1471 1520 1549 1519 1527 1540 1540 1616 1504 1513 1516 1530 1475 1495 1534 1530 1450 1513 1519 1574 1470 1429 1553 1520 1575 1553 1603 1523 1511 1507 1506 1568 1595 1566 1539 1547 1491 1539 1515 1460 1524 1514 1517 1510 1433 1581 1525 1542 1539 1559 1571 1535 1476 1535 1523 1472 1502 1543 1564 1564 1547 1492 1560 1473 1498 1511 1580 1607 1563 1553 1543 1516 1539 1523 1560 1583 1542 1516 1570 1572 1546 1549 1525 1531 1504 1494 1512 1572 1569 1538 1558 1530 1576 1523 1569 1590 1520 1550 1581 1532 1561 1579 1523 1576 1501 1550 1567 1570 1580 1513 1452 1510 1561 1539 1446 1560 1516 1608 1491 1583 1560 1566 1506 1554 1584 1549 1460 1489 1550 1537 1497 1592 1477 1459 1559 1488 1546 1534 1523 1497 1507 1524 1538 1460 1510 1539 1500 1481 1509 1506 1510 1614 1572 1577 1510 1469 1528 1567 1498 1541 1556 1531 1548 1592 1505 1602 1627 1448 1539 1564 1632 1590 1701 1630 1641 1641 1636 1686 1749 1740 1750 1751 1769 1836 1836 1882 1979 1924 1870 1980 1879 1934 1942 2017 2019 2040 1976 1964 2046 1996 2115 1996 2007 1995 1998 1980 2037 2002 1962 1846 1892 1927 1873 1867 1839 1739 1770 1723 1833 1691 1752 1658 1684 1653 1639 1668 1566 1648 1628 1591 1569 1549 1625 1566 1619 1628 1544 1588 1480 1588 1587 1557 1626 1471 1614 1570 1578 1552 1586 1586 1597 1564 1639 1527 1591 1593 1578 1500 1536 1487 1559 1577 1524 1537 1468 1463 1522 1502 1510 1495 1525 1501 1496 1543 1610 1567 1450 1561 1489 1540 1517 1485 1488 1517 1554 1606 1506 1477 1574 1440 1549 1460 1545 1531 1444 1448 1518 1497 1562 1550 1555 1512 1497 1439 1536 1485 1520 1491 1473 1532 1489 1525 1510 1529 1545 1560 1485 1600 1495 1526 1480 1485 1440 1519 1522 1513 1434 1512 1454 1576 1490 1493 1464 1468 1400 1523 1499 1508 1466 1452 1461 1587 1515 1559 1523 1582 1562 1595 1486 1477 1516 1551 1473 1535 1492 1452 1564 1543 1468 1503 1524 1529 1470 1543 1533 1524 1526 1513 1478 1529 1475 1553 1470 1530 1462 1473 1492 1525 1534 1533 1569 1532 1575 1525 1475 1546 1525 1421 1541 1504 1516 1462 1473 1536 1514 1519 1514 1487 1493 1509 1463 1513 1499 1486 1464 1519 1536 1522 1533 1549 1445 1520 1568 1511 1500 1493 1553 1529 1522 1472 1487 1568 1544 1519 1555 1558 1488 1504 1522 1481 1577 1574 1620 1531 1570 1547 1473 1557 1668 1550 1559 1505 1568 1538 1634 1540 1555 1500 1568 1609 1536 1652 1569 1575 1598 1589 1566 1516 1632 1559 1530 1578 1552 1572 1552 1564 1574 1549 1601 1547 1528 1557 1587 1487 1644 1535 1573 1582 1573 1538 1518 1535 1568 1504 1633 1553 1574 1611 1572 1612 1585 1566 1580 1648 1625 1625 1567 1628 1601 1660 1631 1669 1625 1652 1653 1706 1723 1695 1759 1554 1755 1659 1823 1732 1788 1771 1745 1661 1781 1812 1764 1842 1827 1778 1799 1808 1802 1862 1741 1769 1730 1664 1760 1795 1719 1680 1739 1687 1648 1775 1718 1637 1623 1704 1650 1564 1663 1625 1595 1699 1746 1680 1603 1732 1658 1647 1669 1745 1751 1753 1831 1845 1897 1956 1952 2068 2059 2237 2202 2301 2543 2545 2690 2793 2856 2971 3044 3276 3239 3355 3457 3537 3687 3870 3722 4006 3857 4055 4088 4143 4256 4204 4394 4239 4323 4169 4153 4149 3899 3815 3830 3707 3547 3465 3436 3321 3213 3071 3034 2861 2657 2605 2685 2516 2352 2387 2176 2319 2215 2085 2088 2085 2017 2066 2063 1951 1988 1893 1925 1936 1905 1952 1955 1912 1901 1939 2009 1958 1967 2030 1887 1966 1932 1921 1853 1829 1813 1860 1803 1819 1801 1836 1826 1758 1734 1731 1749 1837 1694 1676 1679 1672 1689 1670 1649 1652 1710 1600 1614 1635 1618 1590 1621 1515 1602 1520 1595 1533 1614 1521 1544 1518 1522 1512 1575 1592 1524 1533 1519 1557 1588 1581 1550 1506 1642 1528 1489 1609 1512 1532 1521 1578 1519 1599 1550 1531 1519 1516 1542 1511 1521 1591 1568 1566 1574 1490 1475 1483 1547 1412 1602 1470 1503 1526 1581 1539 1533 1511 1532 1501 1549 1533 1513 1480 1494 1518 1534 1513 1490 1594 1524 1551 1507 1491 1531 1464 1501 1517 1552 1546 1487 1454 1483 1443 1517 1517 1532 1515 1587 1420 1477 1545 1573 1532 1495 1496 1600 1541 1518 1482 1577 1548 1558 1530 1604 1539 1603 1479 1564 1543 1560 1596 1562 1493 1515 1513 1517 1535 1542 1569 1559 1631 1582 1700 1608 1674 1709 1646 1655 1658 1708 1630 1699 1713 1754 1756 1758 1811 1718 1802 1812 1795 1835 1754 1787 1766 1841 1820 1909 1789 1838 1822 1892 1765 1721 1733 1718 1756 1792 1718 1751 1693 1667 1621 1704 1579 1567 1549 1584 1610 1556 1638 1652 1556 1627 1664 1486 1566 1627 1556 1584 1596 1609 1526 1574 1524 1633 1511 1541 1514 1597 1564 1528 1546 1578 1638 1539 1606 1660 1566 1548 1544 1544 1518 1528 1557 1566 1532 1608 1492 1549 1553 1608 1534 1574 1528 1549 1527 1514 1554 1549 1663 1532 1567 1582 1569 1550 1510 1507 1548 1450 1510 1531 1562 1500 1536 1462 1605 1492 1489 1522 1542 1529 1582 1510 1440 1516 1491 1502 1532 1569 1498 1481 1500 1528 1516 1545 1534 1550 1548 1516 1578 1562 1483 1470 1529 1524 1551 1557 1536 1458 1496 1526 1508 1666 1561 1548 1518 1500 1536 1519 1493 1516 1538 1511 1609 1564 1556 1584 1580 1533 1488 1572 1587 1601 1517 1537 1549 1540 1567 1514 1520 1525 1548 1566 1511 1655 1518 1516 1497 1605 1500 1527 1594 1536 1475 1492 1596 1504 1506 1487 1521 1512 1512 1519 1437 1465 1462 1494 1473 1505 1567 1457 1476 1421 1462 1437 1476 1489 1427 1488 1432 1496 1481 1438 1442 1538 1437 1376 1502 1413 1444 1536 1475 1478 1515 1513 1487 1511 1524 1428 1469 1403 1503 1492 1442 1491 1510 1469 1524 1366 1509 1507 1443 1453 1482 1527 1553 1501 1503 1489 1496 1532 1445 1472 1404 1535 1502 1509 1474 1491 1528 1508 1474 1517 1434 1554 1467 1470 1443 1457 1473 1449 1514 1423 1459 1522 1469 1514 1427 1513 1471 1487 1472 1385 1421 1434 1487 1466 1500 1435 1505 1490 1496 1468 1526 1494 1487 1464 1565 1462 1390 1453 1494 1489 1567 1478 1466 1529 1417 1461 1448 1385 1483 1430 1551 1526 1498 1522 1405 1477 1433 1475 1478 1486 1359 1588 1420 1499 1453 1385 1518 1476 1580 1480 1477 1455 1530 1386 1424 1485 1498 1459 1533 1498 1458 1464 1505 1462 1465 1448 1449 1485 1472 1461 1447 1421 1467 1496 1474 1489 1406 1504 1466 1465 1443 1458 1547 1472 1506 1426 1429 1441 1420 1479 1443 1464 1497 1459 1460 1392 1537 1499 1433 1423 1533 1481 1461 1468 1417 1483 1463 1488 1491 1513 1439 1470 1523 1414 1459 1520 1402 1498 1512 1452 1450 1433 1461 1465 1502 1422 1449 1443 1411 1523 1456 1452 1498 1458 1492 1416 1444 1452 1525 1454 1484 1443 1496 1480 1488 1393 1389 1490 1459 1463 1423 1409 1450 1466 1508 1466 1511 1463 1472 1458 1483 1425 1470 1403 1438 1462 1513 1425 1477 1508 1513 1555 1495 1493 1535 1414 1462 1485 1538 1362 1466 1492 1478 1486 1502 1468 1486 1424 1504 1453 1499 1466 1455 1476 1421 1560 1481 1564 1428 1456 1443 1497 1464 1512 1538 1415 1536 1465 1417 1410 1560 1472 1453 1410 1503 1427 1519 1472 1442 1412 1431 1471 1526 1460 1506 1456 1457 1442 1434 1430 1462 1504 1453 1487 1510 1486 1361 1425 1478 1437 1426 1463 1562 1444 1531 1483 1548 1398 1555 1464 1538 1451 1470 1441 1580 1405 1514 1422 1524 1491 1328 1439 1461 1476 1496 1489 1537 1432 1435 1502 1507 1436 1503 1545 1424 1537 1525 1452 1549 1476 1503 1496 1498 1588 1538 1628 1560 1513 1468 1561 1579 1592 1620 1542 1579 1576 1647 1543 1574 1536 1555 1599 1526 1538 1472 1497 1542 1552 1542 1529 1565 1512 1501 1487 1547 1548 1510 1533 1478 1509 1552 1435 1507 1439 1450 1564 1455 1558 1543 1540 1509 1492 1564 1570 1487 1558 1542 1528 1568 1583 1606 1535 1619 1603 1616 1609 1613 1658 1686 1694 1652 1674 1746 1750 1724 1711 1781 1696 1773 1664 1756 1769 1724 1828 1820 1776 1744 1768 1831 1812 1775 1711 1794 1809 1827 1807 1722 1721 1742 1754 1670 1704 1652 1631 1602 1638 1674 1631 1669 1649 1575 1549 1583 1599 1599 1563 1577 1639 1643 1637 1535 1636 1573 1602 1531 1663 1553 1586 1545 1505 1604 1630 1595 1643 1607 1621 1603 1598 1538 1602 1589 1619 1560 1544 1687 1577 1617 1634 1590 1628 1570 1615 1559 1586 1515 1634 1583 1578 1525 1520 1487 1540 1464 1587 1455 1513 1553 1506 1531 1448 1521 1519 1483 1472 1476 1477 1526 1521 1491 1481 1568 1545 1502 1468 1459 1422 1496 1460 1511 1503 1441 1452 1404 1477 1468 1441 1507 1454 1483 1424 1481 1481 1461 1394 1519 1386 1455 1482 1472 1434 1431 1422 1403 1504 1390 1457 1430 1442 1455 1478 1466 1478 1449 1498 1527 1450 1457 1407 1485 1414 1507 1457 1409 1482 1471 1451 1538 1449 1429 1498 1477 1451 1411 1428 1427 1394 1490 1425 1543 1432 1486 1425 1508 1454 1482 1474 1444 1445 1453 1468 1447 1453 1508 1454 1504 1446 1438 1488 1546 1464 1442 1519 1387 1430 1445 1474 1392 1408 1486 1540 1406 1431 1392 1429 1485 1405 1458 1382 1482 1391 1454 1447 1486 1476 1526 1523 1455 1512 1509 1504 1470 1531 1465 1447 1465 1491 1540 1537 1550 1488 1580 1525 1480 1461 1537 1466 1486 1475 1580 1526 1553 1621 1568 1517 1635 1604 1661 1674 1698 1764 1812 1742 1899 1855 1870 1936 1911 2052 2048 2089 1940 2027 2015 2116 2051 2090 2190 2140 2115 2264 2162 2144 2167 2129 2150 2151 2076 2125 2052 2036 1941 1948 1916 1939 1850 1852 1820 1785 1879 1810 1731 1642 1685 1719 1622 1646 1618 1633 1631 1606 1593 1602 1623 1619 1559 1616 1445 1540 1490 1522 1504 1599 1474 1495 1545 1553 1534 1555 1509 1549 1530 1503 1584 1542 1614 1468 1598 1538 1510 1477 1561 1484 1493 1599 1564 1550 1503 1527 1512 1495 1474 1457 1544 1576 1599 1595 1509 1558 1494 1604 1504 1523 1485 1496 1512 1475 1488 1451 1464 1472 1457 1477 1489 1465 1475 1431 1526 1523 1460 1526 1465 1459 1375 1467 1403 1482 1398 1420 1429 1446 1488 1428 1442 1470 1452 1428 1428 1392 1474 1444 1404 1437 1443 1463 1376 1392 1437 1399 1439 1374 1474 1460 1453 1383 1435 1428 1530 1391 1492 1454 1445 1457 1500 1512 1463 1518 1469 1460 1443 1425 1462 1432 1379 1435 1461 1424 1453 1518 1466 1423 1486 1446 1496 1457 1455 1454 1487 1451 1458 1464 1491 1496 1537 1438 1528 1541 1511 1604 1616 1632 1498 1571 1540 1515 1646 1580 1604 1560 1559 1647 1596 1704 1668 1652 1614 1640 1655 1660 1650 1661 1606 1588 1563 1637 1600 1588 1568 1494 1564 1490 1513 1506 1494 1578 1540 1518 1472 1448 1485 1439 1496 1478 1455 1476 1422 1463 1451 1495 1541 1473 1411 1464 1488 1438 1462 1517 1481 1424 1422 1475 1492 1474 1452 1382 1427 1504 1440 1394 1432 1409 1387 1400 1412 1431 1514 1439 1454 1413 1452 1455 1472 1426 1429 1435 1396 1470 1392 1455 1498 1461 1504 1479 1463 1406 1384 1419 1474 1481 1383 1409 1495 1437 1440 1451 1455 1436 1454 1464 1436 1448 1429 1427 1422 1500 1395 1389 1445 1421 1426 1389 1455 1424 1498 1466 1463 1477 1456 1493 1427 1397 1450 1405 1421 1380 1477 1381 1461 1445 1475 1436 1442 1502 1465 1393 1465 1432 1430 1471 1437 1555 1454 1396 1503 1458 1422 1437 1409 1446 1521 1493 1509 1524 1532 1406 1482 1495 1533 1496 1500 1515 1514 1483 1479 1500 1419 1415 1598 1453 1470 1387 1447 1446 1439 1427 1524 1417 1472 1418 1443 1435 1408 1466 1449 1452 1458 1532 1417 1415 1486 1492 1408 1395 1409 1431 1448 1422 1410 1494 1442 1426 1475 1396 1483 1460 1406 1365 1369 1454 1438 1412 1420 1430 1407 1405 1468 1432 1412 1385 1400 1394 1437 1438 1362 1377 1369 1443 1443 1457 1491 1467 1468 1421 1385 1501 1445 1367 1406 1382 1392 1503 1402 1395 1544 1520 1407 1490 1373 1496 1380 1455 1417 1396 1426 1402 1452 1424 1438 1460 1471 1421 1423 1420 1381 1442 1424 1461 1451 1418 1451 1366 1391 1440 1420 1442 1448 1490 1457 1391 1365 1452 1453 1376 1403 1414 1422 1441 1453 1417 1440 1392 1399 1379 1514 1419 1413 1423 1377 1434 1433 1475 1443 1458 1417 1384 1430 1488 1475 1459 1380 1415 1477 1353 1465 1472 1424 1373 1343 1340 1450 1432 1419 1411 1412 1431 1442 1339 1468 1436 1464 1362 1475 1513 1426 1414 1456 1456 1331 1472 1487 1457 1428 1391 1433 1410 1441 1420 1408 1470 1455 1413 1496 1411 1388 1435 1446 1446 1450 1419 1495 1446 1479 1445 1465 1485 1466 1471 1489 1484 1460 1381 1462 1462 1376 1444 1481 1441 1480 1467 1447 1485 1409 1496 1444 1410 1464 1418 1465 1361 1404 1451 1414 1446 1428 1504 1462 1460 1493 1430 1548 1361 1503 1413 1429 1441 1424 1386 1465 1429 1456 1452 1444 1400 1431 1437 1438 1491 1487 1428 1487 1391 1383 1407 1471 1416 1454 1460 1373 1336 1427 1471 1415 1400 1406 1420 1465 1450 1423 1399 1465 1463 1456 1366 1432 1418 1467 1390 1507 1413 1381 1437 1458 1401 1368 1374 1444 1363 1404 1443 1420 1344 1378 1390 1408 1404 1436 1431 1379 1443 1371 1481 1375 1475 1356 1415 1451 1451 1424 1436 1455 1389 1421 1468 1417 1492 1452 1442 1432 1494 1541 1526 1510 1466 1561 1429 1531 1471 1542 1516 1492 1473 1566 1469 1537 1531 1460 1588 1513 1551 1503 1590 1612 1526 1543 1451 1496 1552 1585 1432 1521 1528 1502 1511 1534 1433 1386 1462 1579 1535 1452 1438 1439 1476 1388 1459 1450 1461 1446 1454 1433 1380 1443 1390 1455 1435 1455 1410 1440 1510 1436 1420 1435 1431 1446 1431 1475 1440 1401 1447 1414 1402 1457 1482 1426 1457 1445 1430 1469 1406 1409 1406 1482 1459 1446 1469 1409 1449 1463 1483 1427 1497 1414 1475 1463 1381 1386 1466 1367 1378 1462 1329 1461 1387 1510 1393 1385 1429 1385 1398 1429 1452 1499 1460 1373 1472 1478 1393 1400 1422 1426 1402 1424 1481 1434 1404 1439 1381 1442 1406 1445 1479 1421 1446 1393 1418 1439 1462 1435 1457 1386 1405 1444 1379 1484 1454 1502 1454 1468 1474 1426 1430 1474 1434 1414 1437 1389 1419 1433 1431 1476 1399 1363 1447 1437 1375 1365 1364 1384 1420 1338 1440 1410 1462 1429 1456 1385 1420 1463 1391 1414 1426 1392 1445 1477 1396 1485 1430 1424 1388 1470 1423 1495 1418 1460 1464 1462 1450 1396 1446 1468 1456 1454 1446 1512 1382 1406 1420 1371 1401 1427 1340 1472 1391 1436 1343 1429 1426 1433 1392 1456 1404 1359 1485 1429 1465 1446 1458 1381 1354 1386 1385 1470 1450 1454 1427 1375 1372 1440 1387 1391 1442 1405 1379 1397 1407 1452 1408 1416 1458 1418 1489 1458 1405 1440 1390 1470 1400 1452 1396 1390 1396 1426 1416 1445 1393 1404 1441 1409 1386 1461 1402 1372 1428 1404 1487 1441 1460 1456 1423 1368 1474 1383 1436 1398 1461 1450 1487 1449 1520 1501 1361 1399 1535 1454 1468 1444 1384 1475 1474 1509 1477 1498 1545 1480 1515 1586 1528 1566 1561 1596 1621 1630 1641 1524 1601 1577 1611 1633 1737 1672 1665 1676 1675 1665 1653 1672 1675 1712 1676 1647 1662 1692 1677 1688 1555 1642 1528 1602 1656 1614 1566 1535 1520 1623 1568 1577 1570 1632 1560 1467 1521 1529 1534 1455 1410 1485 1469 1601 1501 1449 1476 1493 1500 1510 1585 1416 1406 1490 1438 1445 1465 1388 1462 1466 1474 1484 1464 1444 1488 1457 1521 1383 1431 1466 1423 1437 1432 1443 1434 1474 1445 1444 1421 1447 1466 1511 1405 1460 1524 1406 1405 1503 1499 1460 1497 1418 1519 1451 1413 1422 1412 1393 1496 1440 1403 1546 1488 1403 1410 1457 1426 1424 1409 1464 1458 1469 1384 1404 1433 1401 1391 1446 1470 1357 1428 1401 1436 1459 1427 1458 1467 1395 1442 1428 1419 1423 1400 1398 1412 1421 1424 1395 1330 1369 1390 1397 1405 1437 1407 1339 1405 1450 1418 1393 1492 1501 1454 1413 1424 1469 1456 1418 1409 1498 1426 1375 1442 1337 1415 1358 1401 1434 1400 1399 1478 1433 1435 1376 1430 1459 1359 1416 1397 1408 1454 1347 1368 1428 1427 1438 1399 1425 1420 1404 1415 1528 1411 1446 1432 1446 1430 1427 1417 1446 1460 1420 1504 1485 1375 1393 1496 1503 1489 1426 1333 1440 1471 1442 1396 1338 1432 1410 1419 1409 1427 1385 1512 1439 1423 1414 1416 1443 1500 1374 1366 1350 1436 1450 1394 1474 1383 1455 1451 1404 1504 1395 1417 1342 1431 1421 1442 1471 1341 1455 1374 1468 1406 1380 1466 1409 1471 1476 1413 1477 1372 1473 1376 1419 1456 1479 1514 1416 1421 1464 1397 1428 1446 1489 1409 1450 1471 1464 1352 1408 1415 1440 1435 1432 1378 1421 1405 1410 1424 1481 1417 1416 1447 1373 1396 1361 1425 1369 1496 1377 1385 1484 1416 1448 1426 1437 1428 1383 1434 1388 1436 1476 1434 1444 1436 1426 1422 1373 1419 1409 1444 1461 1404 1419 1392 1497 1406 1427 1436 1460 1402 1422 1495 1426 1370 1456 1420 1497 1314 1439 1500 1412 1420 1475 1387 1418 1464 1466 1418 1416 1440 1416 1478 1514 1360 1446 1432 1415 1431 1366 1453 1378 1403 1402 1339 1414 1429 1382 1346 1444 1473 1407 1459 1463 1454 1440 1408 1444 1417 1422 1460 1401 1453 1413 1434 1358 1401 1415 1460 1374 1446 1389 1399 1413 1459 1375 1425 1432 1377 1462 1360 1421 1386 1394 1471 1403 1392 1390 1406 1465 1414 1449 1396 1535 1434 1441 1429 1425 1389 1449 1413 1461 1492 1406 1426 1490 1458 1387 1398 1471 1383 1465 1438 1434 1420 1473 1412 1365 1408 1373 1404 1428 1430 1436 1395 1354 1408 1435 1481 1378 1412 1418 1511 1422 1409 1468 1471 1431 1447 1390 1516 1426 1473 1484 1401 1392 1487 1385 1447 1518 1419 1418 1439 1416 1449 1461 1419 1427 1407 1413 1443 1434 1432 1429 1477 1387 1467 1384 1391 1490 1499 1433 1432 1432 1404 1536 1423 1423 1438 1418 1395 1436 1445 1393 1379 1437 1412 1397 1450 1468 1395 1305 1467 1367 1416 1465 1410 1446 1421 1383 1496 1463 1462 1418 1373 1441 1386 1445 1432 1428 1454 1441 1429 1420 1429 1493 1393 1470 1461 1451 1473 1441 1465 1343 1449 1379 1450 1428 1393 1461 1417 1372 1432 1410 1430 1504 1402 1397 1419 1400 1410 1426 1469 1453 1391 1410 1432 1430 1436 1394 1457 1459 1422 1424 1446 1352 1430 1435 1349 1411 1433 1408 1499 1444 1377 1442 1378 1438 1472 1486 1451 1407 1446 1445 1433 1493 1483 1356 1449 1399 1410 1441 1430 1429 1429 1458 1417 1405 1412 1368 1399 1447 1393 1395 1470 1420 1437 1447 1485 1481 1439 1482 1436 1445 1479 1456 1448 1448 1424 1407 1460 1403 1500 1447 1436 1453 1443 1439 1439 1410 1493 1557 1447 1432 1474 1469 1501 1375 1484 1425 1577 1451 1513 1510 1462 1508 1516 1482 1416 1539 1473 1477 1541 1591 1517 1587 1507 1614 1592 1508 1507 1488 1471 1520 1537 1447 1492 1507 1528 1518 1559 1503 1528 1538 1521 1506 1568 1582 1578 1581 1459 1590 1512 1585 1573 1486 1519 1477 1559 1546 1530 1457 1437 1468 1568 1502 1477 1588 1524 1539 1467 1530 1664 1460 1597 1555 1501 1592 1542 1534 1485 1549 1555 1513 1538 1514 1569 1545 1532 1605 1500 1501 1578 1463 1484 1521 1563 1475 1466 1414 1602 1564 1426 1542 1500 1503 1571 1465 1538 1541 1510 1552 1560 1549 1482 1447 1472 1451 1461 1541 1513 1531 1474 1449 1436 1499 1402 1461 1459 1436 1404 1493 1478 1448 1476 1452 1470 1469 1506 1420 1536 1443 1422 1500 1476 1449 1440 1391 1399 1452 1477 1508 1452 1485 1493 1470 1543 1450 1445 1440 1463 1499 1464 1439 1460 1490 1451 1583 1469 1512 1499 1489 1519 1446 1434 1488 1476 1462 1433 1509 1543 1486 1435 1452 1516 1536 1480 1445 1465 1481 1445 1494 1494 1492 1494 1448 1558 1516 1488 1481 1413 1432 1513 1469 1489 1473 1479 1512 1464 1458 1520 1425 1543 1543 1442 1519 1507 1487 1421 1516 1534 1414 1482 1438 1514 1471 1532 1481 1483 1473 1507 1423 1504 1441 1538 1483 1510 1554 1497 1598 1495 1488 1522 1504 1543 1451 1467 1455 1530 1544 1474 1469 1550 1415 1484 1495 1504 1507 1451 1484 1514 1408 1538 1446 1507 1416 1481 1476 1508 1516 1517 1508 1493 1487 1521 1471 1486 1526 1447 1523 1533 1537 1510 1544 1555 1544 1595 1536 1582 1546 1576 1660 1615 1713 1641 1697 1738 1743 1771 1795 1885 1772 1909 1873 1946 1861 1945 1935 1905 2015 1955 1941 1953 1936 2024 1996 2067 1980 1874 1929 2097 1985 1939 1958 1986 1994 1915 1914 1901 1952 1850 1882 1932 1866 1829 1700 1748 1772 1830 1744 1806 1725 1806 1741 1717 1641 1699 1672 1681 1740 1687 1561 1641 1506 1584 1640 1538 1527 1595 1516 1558 1581 1468 1574 1522 1489 1457 1504 1559 1476 1508 1446 1480 1530 1493 1567 1562 1564 1464 1557 1467 1538 1540 1495 1544 1451 1511 1465 1465 1509 1505 1514 1520 1593 1467 1516 1490 1482 1487 1506 1541 1519 1476 1417 1500 1489 1532 1524 1481 1566 1470 1426 1546 1447 1529 1553 1521 1599 1470 1480 1503 1507 1507 1445 1487 1466 1498 1517 1545 1570 1457 1552 1468 1514 1477 1476 1492 1570 1500 1548 1520 1518 1540 1518 1451 1521 1414 1514 1469 1493 1477 1407 1426 1471 1514 1433 1536 1431 1550 1440 1520 1508 1566 1465 1450 1495 1450 1439 1480 1384 1419 1412 1458 1448 1493 1464 1488 1440 1501 1456 1445 1507 1510 1505 1485 1579 1461 1430 1543 1489 1436 1428 1445 1532 1500 1488 1509 1525 1445 1527 1516 1531 1570 1502 1512 1523 1421 1519 1485 1565 1485 1478 1527 1462 1471 1500 1449 1536 1432 1418 1482 1459 1466 1415 1442 1488 1512 1486 1502 1404 1460 1491 1445 1455 1449 1464 1477 1476 1501 1417 1479 1441 1496 1488 1478 1501 1456 1480 1477 1481 1483 1392 1457 1504 1448 1444 1498 1467 1498 1499 1602 1495 1555 1532 1476 1461 1530 1471 1530 1475 1495 1457 1456 1464 1524 1480 1504 1526 1455 1517 1518 1471 1509 1560 1477 1434 1462 1488 1502 1430 1459 1468 1503 1450 1485 1510 1442 1457 1482 1456 1472 1505 1513 1403 1465 1466 1393 1520 1410 1396 1546 1474 1532 1392 1417 1468 1458 1443 1523 1477 1458 1427 1460 1450 1431 1466 1461 1495 1476 1387 1449 1489 1412 1509 1429 1405 1374 1470 1443 1423 1446 1429 1418 1421 1457 1393 1458 1471 1471 1413 1478 1431 1419 1435 1472 1420 1420 1412 1346 1436 1383 1488 1430 1398 1438 1429 1433 1382 1432 1403 1446 1440 1406 1448 1361 1447 1487 1460 1423 1446 1438 1361 1481 1412 1426 1387 1442 1414 1437 1396 1459 1376 1451 1444 1403 1503 1396 1452 1367 1390 1470 1465 1435 1496 1568 1448 1448 1366 1454 1376 1443 1434 1452 1377 1438 1461 1420 1418 1486 1460 1431 1427 1403 1481 1437 1436 1440 1416 1373 1423 1385 1410 1474 1416 1523 1454 1430 1443 1390 1399 1453 1486 1479 1452 1409 1410 1382 1376 1396 1375 1472 1445 1521 1424 1442 1360 1447 1504 1432 1451 1453 1426 1456 1446 1369 1487 1430 1465 1493 1474 1431 1422 1418 1442 1512 1416 1440 1477 1470 1488 1409 1437 1454 1429 1391 1468 1438 1481 1467 1436 1435 1422 1419 1356 1419 1449 1393 1444 1422 1430 1433 1510 1435 1472 1436 1355 1412 1463 1552 1401 1370 1489 1455 1457 1402 1441 1483 1395 1415 1420 1430 1465 1474 1463 1447 1445 1440 1435 1424 1498 1404 1445 1444 1430 1413 1453 1486 1459 1483 1470 1494 1447 1437 1454 1417 1384 1462 1461 1439 1493 1496 1485 1407 1421 1431 1444 1464 1445 1322 1409 1400 1487 1494 1423 1402 1401 1441 1452 1433 1497 1438 1372 1479 1413 1421 1490 1438 1457 1509 1350 1397 1405 1465 1416 1470 1483 1432 1422 1430 1445 1428 1449 1344 1457 1387 1390 1435 1500 1465 1402 1450 1468 1431 1393 1446 1456 1512 1424 1456 1356 1487 1487 1429 1432 1460 1495 1461 1473 1485 1438 1465 1480 1449 1437 1473 1449 1508 1532 1433 1460 1514 1503 1487 1511 1463 1397 1494 1520 1531 1420 1450 1519 1528 1494 1496 1551 1502 1504 1483 1452 1525 1520 1459 1501 1530 1511 1544 1432 1437 1537 1519 1487 1496 1512 1457 1463 1429 1518 1479 1532 1459 1447 1425 1406 1421 1492 1523 1445 1471 1411 1410 1455 1461 1501 1489 1538 1493 1519 1482 1385 1461 1460 1464 1462 1475 1461 1484 1388 1513 1421 1454 1466 1437 1448 1472 1424 1454 1436 1446 1406 1478 1408 1508 1476 1470 1429 1435 1445 1467 1436 1508 1399 1441 1395 1476 1416 1422 1443 1449 1462 1434 1451 1509 1431 1499 1418 1460 1465 1478 1413 1407 1452 1470 1445 1520 1487 1476 1462 1452 1464 1444 1428 1425 1380 1517 1461 1419 1429 1400 1419 1418 1419 1431 1427 1421 1443 1453 1379 1511 1504 1410 1467 1520 1470 1469 1416 1455 1428 1402 1434 1372 1470 1457 1475 1420 1462 1494 1503 1500 1532 1449 1515 1453 1419 1543 1465 1441 1432 1439 1491 1503 1423 1476 1463 1423 1550 1428 1408 1446 1453 1481 1475 1466 1445 1477 1419 1429 1439 1442 1528 1521 1414 1510 1464 1450 1487 1358 1432 1483 1403 1410 1461 1426 1489 1498 1514 1413 1451 1476 1470 1367 1392 1406 1411 1461 1456 1348 1408 1461 1407 1435 1436 1452 1432 1483 1419 1453 1479 1548 1470 1487 1521 1438 1452 1408 1424 1415 1497 1448 1437 1485 1441 1436 1451 1441 1449 1487 1444 1472 1511 1491 1411 1406 1435 1463 1523 1421 1458 1447 1501 1466 1428 1535 1417 1476 1359 1442 1533 1469 1422 1523 1485 1487 1512 1501 1574 1568 1531 1571 1493 1519 1489 1477 1551 1593 1548 1646 1581 1641 1620 1596 1592 1576 1637 1659 1733 1708 1695 1723 1677 1770 1841 1893 1793 1843 1813 1806 1818 1839 1817 1830 1799 1841 1865 1848 1781 1747 1772 1800 1750 1735 1786 1776 1764 1721 1710 1827 1719 1732 1737 1777 1685 1664 1753 1716 1665 1696 1584 1687 1693 1644 1647 1649 1587 1661 1657 1570 1597 1504 1469 1548 1606 1654 1530 1574 1551 1550 1508 1563 1513 1539 1491 1517 1450 1576 1506 1497 1561 1500 1536 1527 1465 1481 1473 1442 1537 1465 1455 1499 1489 1458 1534 1471 1456 1484 1464 1489 1487 1414 1468 1466 1538 1510 1454 1475 1421 1420 1448 1481 1444 1450 1478 1457 1499 1441 1495 1506 1470 1458 1489 1511 1442 1517 1434 1489 1499 1533 1445 1491 1495 1459 1472 1519 1458 1531 1518 1472 1433 1600 1437 1514 1488 1494 1522 1475 1524 1491 1524 1517 1485 1480 1464 1427 1537 1456 1513 1425 1454 1526 1448 1479 1442 1579 1456 1489 1417 1448 1423 1434 1418 1499 1515 1454 1554 1550 1497 1473 1536 1451 1473 1526 1419 1493 1505 1522 1478 1483 1497 1523 1441 1460 1537 1483 1484 1432 1491 1465 1490 1488 1409 1536 1419 1432 1474 1413 1499 1467 1433 1453 1484 1446 1486 1462 1448 1461 1471 1469 1510 1460 1496 1446 1420 1503 1448 1498 1453 1413 1447 1514 1456 1546 1468 1452 1479 1526 1436 1492 1441 1456 1431 1495 1443 1434 1475 1380 1429 1410 1472 1413 1516 1483 1461 1456 1470 1449 1445 1488 1386 1445 1471 1436 1426 1524 1500 1476 1407 1422 1471 1475 1418 1420 1468 1468 1461 1501 1426 1467 1392 1473 1445 1493 1456 1472 1482 1425 1483 1486 1411 1467 1406 1427 1440 1421 1515 1431 1491 1505 1435 1528 1429 1450 1433 1428 1459 1429 1431 1441 1500 1457 1504 1473 1389 1455 1388 1414 1382 1429 1430 1462 1533 1404 1426 1488 1393 1414 1451 1418 1421 1435 1385 1399 1434 1409 1499 1431 1483 1441 1437 1429 1418 1446 1431 1470 1436 1448 1426 1431 1448 1470 1458 1418 1449 1416 1448 1399 1379 1419 1464 1436 1440 1488 1455 1471 1439 1361 1394 1437 1477 1513 1365 1422 1405 1453 1452 1460 1408 1414 1461 1427 1359 1495 1443 1490 1393 1504 1484 1414 1473 1407 1465 1499 1433 1450 1446 1425 1391 1496 1472 1476 1419 1450 1507 1354 1447 1387 1424 1431 1394 1391 1401 1449 1514 1392 1418 1504 1442 1480 1442 1470 1434 1434 1487 1493 1541 1412 1527 1413 1428 1455 1377 1485 1421 1434 1394 1407 1465 1487 1419 1412 1429 1505 1454 1470 1500 1462 1518 1473 1461 1441 1376 1488 1458 1450 1432 1344 1407 1468 1517 1430 1472 1459 1466 1345 1380 1431 1510 1417 1483 1422 1445 1445 1352 1421 1389 1415 1410 1418 1376 1462 1367 1403 1446 1514 1442 1417 1476 1407 1510 1388 1457 1466 1412 1393 1398 1473 1422 1418 1474 1495 1476 1443 1461 1509 1501 1491 1483 1476 1399 1439 1402 1436 1508 1394 1408 1457 1505 1416 1403 1441 1409 1420 1444 1465 1434 1421 1425 1464 1467 1502 1451 1454 1440 1418 1389 1420 1446 1483 1402 1433 1478 1406 1468 1463 1451 1408 1432 1493 1446 1482 1474 1366 1384 1420 1437 1468 1430 1440 1480 1435 1439 1409 1443 1395 1426 1434 1491 1524 1398 1489 1412 1400 1426 1464 1544 1505 1457 1434 1468 1451 1437 1390 1417 1419 1430 1510 1411 1452 1446 1424 1469 1392 1439 1473 1402 1506 1472 1453 1405 1368 1375 1499 1434 1494 1436 1430 1440 1478 1414 1480 1395 1418 1397 1440 1508 1437 1438 1427 1442 1483 1498 1507 1401 1532 1452 1485 1431 1425 1431 1449 1483 1479 1466 1431 1439 1447 1432 1477 1523 1528 1474 1491 1511 1525 1512 1502 1505 1503 1525 1491 1478 1550 1441 1519 1475 1506 1582 1491 1541 1491 1586</counts>
			</dataPoints>
		</scan>
	</xrdMeasurement>
</xrdMeasurements>
