<?xml version="1.0"?>
<xrdMeasurements xmlns="http://www.xrdml.com/XRDMeasurement/2.3" xmlns:xsi="http://www.w3.org/2001/XMLSchema-instance" xsi:schemaLocation="http://www.xrdml.com/XRDMeasurement/2.3 http://www.xrdml.com/XRDMeasurement/2.3/XRDMeasurement.xsd" status="Completed" recordIdentifier="{3B505757-E9D2-4FC3-9D73-35D007332473}">
	<comment>
		<entry/>
	</comment>
	<sample type="To be analyzed">
		<id>GPSS_Li1p6Ta0p1V0p1Fe0p1Mn0p4Mg0p3Cl4_122325_694ae824ae15af25ac372784</id>
		<name></name>
		<preparedBy></preparedBy>
	</sample>
	<xrdMeasurement measurementType="Scan" status="Completed" sampleMode="Reflection">
		<usedWavelength intended="K-Alpha 1">
			<kAlpha1 unit="Angstrom">1.5405980</kAlpha1>
			<kAlpha2 unit="Angstrom">1.5444260</kAlpha2>
			<kBeta unit="Angstrom">1.3922500</kBeta>
			<ratioKAlpha2KAlpha1>0.5000</ratioKAlpha2KAlpha1>
		</usedWavelength>
		<incidentBeamPath>
			<radius unit="mm">145.00</radius>
			<xRayTube id="1010048" name="Empyrean Cu LFF HR (9430 033 7310x)">
				<tension unit="kV">40.0</tension>
				<current unit="mA">15.0</current>
				<anodeMaterial>Cu</anodeMaterial>
				<focus type="Line">
					<length unit="mm">12.0</length>
					<width unit="mm">0.4</width>
					<takeOffAngle unit="deg">6.0</takeOffAngle>
				</focus>
			</xRayTube>
			<sollerSlit id="21010002" name="Soller slits 0.04 rad.">
				<opening unit="rad">0.0400</opening>
			</sollerSlit>
			<mask id="22031000" name="Fixed mask 13 mm">
				<width unit="mm">9.00</width>
			</mask>
			<divergenceSlit id="22120001" name="Divergence slit 1°" xsi:type="fixedDivergenceSlitType">
				<distanceToSample unit="mm">50.00</distanceToSample>
				<height unit="mm">1.52</height>
			</divergenceSlit>
		</incidentBeamPath>
		<sampleMovement xsi:type="spinningSampleMovementType">
			<spinnerRevolutionTime unit="seconds">1.0</spinnerRevolutionTime>
		</sampleMovement>
		<diffractedBeamPath>
			<radius unit="mm">145.00</radius>
			<antiScatterSlit id="22090040" name="AS slit 9 mm (PIXcel)" xsi:type="fixedAntiScatterSlitType">
				<height unit="mm">9.00</height>
			</antiScatterSlit>
			<sollerSlit id="21020003" name="Large Soller slits 0.04 rad.">
				<opening unit="rad">0.0400</opening>
			</sollerSlit>
			<filter id="20030001" name="Large beta-filter Nickel">
				<material>Ni</material>
				<thickness unit="mm">0.020</thickness>
			</filter>
			<detector id="7010019" name="PIXcel1D-Medipix3 detector" xsi:type="rtmsDetectorType">
				<phd unit="keV">
					<lowerLevel>4.02</lowerLevel>
					<upperLevel>11.27</upperLevel>
				</phd>
				<mode>Scanning</mode>
				<activeLength unit="deg">5.542</activeLength>
			</detector>
		</diffractedBeamPath>
		<scan appendNumber="0" mode="Continuous" scanAxis="Gonio" status="Completed">
			<header>
				<startTimeStamp>2025-12-25T13:32:19-08:00</startTimeStamp>
				<endTimeStamp>2025-12-25T13:40:26-08:00</endTimeStamp>
				<author>
					<name>AutomatedUser</name>
				</author>
				<source>
					<applicationSoftware version="1.7b (136)">PANalytical Aeris Instrument Suite</applicationSoftware>
					<instrumentControlSoftware version="3.2.00000000 20240306">AERIS</instrumentControlSoftware>
					<instrumentID>950485</instrumentID>
				</source>
			</header>
			<dataPoints>
				<positions axis="2Theta" unit="deg">
					<startPosition>10.00943322</startPosition>
					<endPosition>99.99442286</endPosition>
				</positions>
				<positions axis="Omega" unit="deg">
					<startPosition>5.00471661</startPosition>
					<endPosition>49.99721143</endPosition>
				</positions>
				<commonCountingTime unit="seconds">12.495</commonCountingTime>
				<counts unit="counts">3188 3330 3244 3354 3359 3347 3256 3359 3462 3297 3348 3289 3389 3292 3371 3232 3383 3485 3500 3306 3458 3356 3360 3302 3340 3365 3380 3477 3509 3375 3522 3314 3350 3396 3429 3410 3392 3457 3329 3433 3414 3293 3460 3426 3481 3336 3429 3457 3370 3374 3414 3335 3437 3404 3498 3427 3429 3463 3469 3518 3396 3517 3372 3454 3475 3392 3526 3453 3531 3398 3550 3604 3472 3482 3504 3439 3549 3487 3384 3506 3510 3514 3550 3471 3622 3539 3507 3716 3600 3657 3611 3565 3556 3520 3474 3550 3587 3682 3592 3580 3592 3548 3577 3565 3566 3565 3667 3594 3694 3518 3627 3671 3700 3684 3539 3671 3751 3628 3684 3665 3677 3657 3680 3683 3873 3745 3726 3667 3709 3725 3841 3749 3763 3715 3773 3722 3670 3821 3729 3850 3727 3834 3788 3683 3708 3883 3839 3792 3878 3803 3773 3682 3717 3699 3842 3773 3729 3607 3835 3799 3763 3751 3657 3759 3852 3715 3843 3706 3709 3702 3692 3813 3754 3855 3654 3820 3854 3799 3826 3746 3823 3670 3729 3882 3889 3779 3892 3786 3773 3744 3919 3807 3812 3898 3783 3679 3726 3824 3827 3762 3728 3847 3622 3720 3811 3741 3806 3780 3767 3695 3772 3781 3795 3771 3769 3700 3795 3738 3709 3613 3711 3719 3665 3758 3783 3846 3659 3698 3642 3826 3695 3672 3594 3713 3784 3752 3640 3685 3671 3710 3760 3691 3754 3727 3805 3640 3784 3581 3654 3594 3636 3772 3659 3655 3600 3700 3626 3697 3587 3708 3754 3639 3626 3594 3642 3624 3634 3660 3554 3735 3629 3554 3694 3607 3645 3673 3638 3584 3550 3608 3704 3540 3621 3729 3590 3555 3532 3608 3603 3648 3581 3630 3659 3597 3617 3605 3709 3681 3557 3639 3558 3661 3617 3555 3734 3668 3702 3601 3562 3748 3771 3681 3562 3575 3608 3629 3712 3601 3647 3714 3670 3657 3712 3652 3654 3723 3749 3522 3731 3684 3791 3641 3794 3723 3700 3751 3788 3761 3733 3778 3684 3862 3714 3769 3663 3750 3702 3725 3847 3730 3679 3746 3794 3855 3846 3817 3730 3811 3862 3812 3829 3741 3813 3788 3736 3832 3877 3748 3815 3752 3792 3693 3834 3918 3887 3818 3759 3806 3743 3935 3927 3967 3888 3910 3856 3932 3953 3968 3902 3927 3853 3944 3964 4042 3995 3894 3955 4013 3989 3912 3906 3979 4102 4040 4112 3928 4008 4034 4095 4107 4151 4061 4115 4219 4063 4247 4217 4214 4196 4323 4340 4275 4329 4511 4487 4520 4709 4533 4677 4805 4691 4750 4821 4864 4922 4783 5021 5130 5245 5245 5228 5307 5317 5343 5302 5449 5322 5351 5158 5153 5059 5150 4968 4867 4715 4701 4640 4521 4539 4460 4443 4343 4364 4311 4354 4271 4216 4363 4313 4371 4335 4231 4307 4294 4205 4175 4216 4207 4250 4276 4177 4141 4169 4134 4191 4221 4017 4075 4020 4082 4057 3963 3988 3853 3736 3911 3805 3809 3829 3825 3878 3735 3752 3789 3747 3826 3775 3710 3730 3822 3625 3646 3734 3660 3743 3714 3632 3613 3581 3756 3589 3748 3585 3555 3622 3578 3514 3509 3611 3531 3556 3534 3698 3551 3560 3670 3541 3578 3510 3510 3613 3638 3493 3647 3550 3577 3543 3460 3481 3409 3526 3427 3452 3377 3470 3496 3429 3439 3454 3394 3608 3355 3517 3230 3393 3451 3472 3381 3461 3387 3415 3445 3401 3331 3321 3409 3301 3484 3354 3352 3362 3330 3477 3419 3305 3396 3255 3301 3360 3277 3291 3385 3331 3319 3348 3359 3310 3283 3345 3265 3350 3310 3319 3373 3341 3297 3333 3322 3336 3242 3333 3296 3383 3198 3396 3271 3414 3278 3340 3312 3204 3261 3373 3176 3328 3142 3178 3404 3231 3304 3311 3277 3233 3309 3121 3236 3254 3245 3228 3220 3290 3172 3217 3232 3321 3202 3237 3277 3267 3219 3237 3289 3178 3220 3215 3256 3170 3340 3130 3361 3173 3227 3271 3193 3253 3118 3138 3201 3129 3220 3234 3260 3221 3128 3116 3204 3131 3157 3244 3138 3214 3229 3133 3082 3205 3328 3119 3154 3138 3037 3181 3160 3169 3222 3107 3107 3161 3099 3126 3165 3211 3091 3152 3178 3206 3226 3200 3076 3165 3199 2999 3102 3263 3116 3122 3075 3007 3081 3166 3137 3027 3147 3105 3046 3117 3160 3066 3003 3207 3173 3110 3091 3136 3103 3207 3088 3191 3087 3052 3073 3048 3131 3019 3132 3037 3015 3149 3067 3132 3141 3114 3065 3145 3068 3088 3091 3094 3191 3100 2987 3167 3101 3070 3036 3117 3026 3099 3177 3036 3026 3140 2970 3110 3051 3111 3071 3098 3158 3040 3079 3078 3000 3108 3026 3046 3088 3076 3063 3105 3086 3133 2966 3124 3050 3054 3085 3089 3087 3081 3027 3061 3023 3061 3064 3029 2998 3070 3040 2951 2996 2959 2945 3112 2957 3048 2995 2975 3031 2868 2916 3090 2965 2913 3014 2917 3019 2931 2962 2962 2965 2995 2940 2858 2938 2945 2958 2874 3005 2924 2848 2959 2908 2922 2946 2899 2865 2921 2924 2970 2976 2995 2927 3015 2909 2941 2993 2898 2831 2928 2823 3002 2954 2924 2949 3015 2886 2956 2940 2883 3061 2903 2922 2885 2906 2939 2933 2845 2842 2870 2815 2896 2892 2884 2816 2937 2814 2895 2907 2907 2901 2966 2817 2891 2839 2830 2935 2888 2791 2801 2883 2862 2898 2944 2796 2794 2848 2804 2881 2787 2851 2894 2783 2845 2836 2879 2780 2850 2873 2767 2884 2776 2776 2788 2940 2775 2874 2801 2849 2838 2830 2870 2746 2960 2882 2916 2793 2850 2696 2897 2764 2710 2709 2877 2812 2755 2673 2716 2805 2758 2777 2787 2754 2766 2673 2822 2751 2801 2765 2891 2841 2792 2785 2783 2800 2729 2688 2757 2772 2795 2812 2821 2816 2778 2867 2775 2818 2810 2757 2897 2838 2861 2805 2708 2797 2704 2801 2827 2761 2708 2836 2629 2711 2747 2744 2790 2827 2825 2740 2809 2826 2765 2889 2731 2887 2762 2787 2719 2671 2712 2734 2734 2757 2783 2776 2716 2743 2786 2839 2845 2702 2852 2791 2772 2882 2767 2776 2799 2758 2810 2794 2733 2833 2764 2728 2748 2840 2787 2950 2837 2764 2805 2778 2733 2789 2874 2725 2777 2759 2918 2868 2826 2806 2824 2750 2726 2670 2784 2763 2791 2742 2798 2663 2776 2775 2710 2838 2777 2758 2753 2784 2709 2730 2899 2754 2765 2731 2675 2818 2730 2774 2841 2811 2844 2775 2744 2751 2729 2825 2827 2807 2836 2824 2758 2784 2856 2834 2726 2746 2657 2744 2745 2640 2772 2803 2698 2815 2706 2699 2753 2723 2759 2651 2856 2734 2703 2754 2696 2786 2865 2668 2715 2764 2773 2696 2769 2806 2717 2714 2737 2721 2732 2696 2694 2774 2614 2766 2798 2723 2646 2671 2707 2652 2712 2626 2637 2715 2600 2720 2674 2635 2604 2574 2607 2725 2595 2696 2529 2635 2582 2592 2565 2533 2649 2609 2528 2651 2513 2634 2589 2619 2609 2488 2668 2593 2493 2526 2576 2618 2573 2501 2506 2524 2546 2552 2639 2518 2473 2506 2487 2471 2417 2526 2455 2483 2406 2413 2456 2571 2494 2553 2393 2476 2393 2320 2392 2441 2455 2306 2453 2372 2316 2452 2315 2413 2461 2390 2361 2405 2437 2368 2379 2372 2349 2273 2393 2335 2438 2353 2376 2370 2387 2380 2349 2326 2194 2277 2297 2372 2342 2328 2222 2313 2212 2272 2353 2227 2289 2254 2345 2222 2222 2231 2267 2284 2206 2271 2200 2201 2236 2251 2251 2194 2236 2202 2238 2167 2217 2238 2115 2185 2201 2187 2207 2193 2126 2175 2173 2167 2117 2108 2106 2123 2097 2142 2117 2150 2192 2189 2167 2168 2068 2138 2093 2218 2065 2174 2164 2127 2172 2106 2060 2200 2105 2121 2111 2076 2078 2052 2095 2096 2194 2156 2084 2095 2063 2013 2139 2087 2093 2064 2126 1994 2047 2008 2019 2058 2093 2102 1994 2117 1990 2090 2046 2097 2070 2036 2075 2082 1968 2002 2023 2031 2106 2089 2217 2089 2036 2010 1962 2145 2010 2017 2160 2005 1961 2014 1982 2038 2028 1954 2078 2009 1992 2083 2047 2088 2058 1994 2062 1977 2039 2049 2029 2025 2009 2022 1988 2019 2081 1940 2038 2108 2073 2031 2074 1994 2097 2022 2002 1934 2070 2143 2024 1951 1972 2028 1933 2074 1996 2059 1964 2099 2066 1980 1922 2012 1993 2025 1936 2091 2019 2010 2059 2051 2052 2043 2025 2007 2084 2089 2051 2061 2056 1973 2002 1948 2002 2074 1999 2011 2016 2011 2110 2064 1964 2047 2030 1956 2022 2038 2032 2061 2036 2064 1868 1992 1967 2086 2085 1969 1963 2186 1978 2104 2003 1993 2028 2037 2006 2004 2036 2026 2032 1999 1977 2066 2062 2038 2037 1996 2082 2049 1991 2036 2017 2021 2035 1947 2013 2020 2019 2083 2022 2086 2003 1980 1991 2021 1993 2022 2038 2100 1988 1992 1940 1947 1947 2026 2031 1993 1976 2060 1986 2040 2008 1998 1978 2036 1930 1980 2061 1911 2042 1984 1974 1927 1919 2006 2038 1977 1984 1974 1923 1976 1928 1956 2026 1885 2029 1964 1931 1843 2005 2012 1947 1975 1887 1931 1946 2025 1995 1966 1908 1929 1929 1935 1958 1873 1891 1914 1903 1897 1862 1957 1893 1927 1854 1914 1917 1880 1809 1864 1887 1831 1812 1812 1792 1895 1856 1832 1726 1916 1939 1845 1887 1822 1798 1888 1861 1794 1942 1816 1845 1797 1883 1926 1875 1811 1848 1808 1849 1776 1767 1768 1835 1888 1846 1832 1862 1853 1774 1750 1805 1752 1720 1773 1807 1712 1784 1774 1738 1767 1708 1782 1722 1757 1689 1769 1752 1720 1799 1752 1750 1734 1733 1716 1696 1711 1768 1725 1752 1689 1650 1749 1722 1720 1649 1718 1682 1677 1649 1623 1725 1778 1737 1653 1698 1665 1698 1711 1668 1662 1625 1621 1769 1642 1781 1720 1735 1786 1667 1662 1599 1658 1747 1758 1799 1798 1794 1838 1837 1817 1889 1840 1885 1892 1997 1871 2009 2014 2146 2150 2142 2142 2199 2157 2309 2276 2247 2263 2355 2349 2404 2381 2328 2322 2354 2313 2362 2332 2291 2262 2356 2333 2277 2218 2217 2189 2084 2107 1963 1960 1889 1906 1870 1905 1793 1830 1744 1743 1769 1741 1753 1598 1685 1700 1666 1539 1728 1691 1609 1685 1612 1585 1628 1556 1573 1595 1489 1695 1600 1621 1610 1577 1606 1558 1653 1550 1548 1587 1573 1533 1548 1637 1492 1547 1549 1602 1611 1617 1562 1562 1509 1566 1519 1581 1627 1605 1559 1556 1666 1597 1615 1576 1543 1595 1533 1577 1559 1640 1629 1722 1726 1786 1816 1864 1891 1882 2055 1974 2267 2310 2381 2494 2545 2674 2685 2884 2999 3175 3253 3356 3490 3478 3720 3843 3923 4058 4181 4202 4343 4278 4344 4413 4350 4455 4373 4358 4532 4429 4318 4135 4094 3984 3817 3703 3420 3370 3182 3068 2925 2731 2581 2558 2389 2337 2251 2313 2164 2202 2117 2118 2161 2048 2149 2169 2160 2102 2114 2137 2156 2073 2063 2062 1934 1914 1951 1851 1857 1790 1673 1728 1698 1613 1618 1598 1559 1506 1578 1552 1556 1509 1567 1528 1547 1507 1577 1523 1489 1569 1528 1592 1441 1502 1535 1399 1475 1403 1388 1436 1402 1371 1382 1420 1425 1348 1408 1439 1471 1355 1364 1457 1410 1344 1381 1364 1348 1418 1373 1445 1337 1348 1398 1392 1313 1419 1387 1413 1395 1372 1376 1344 1322 1399 1292 1342 1285 1336 1335 1368 1369 1338 1329 1384 1337 1356 1317 1367 1338 1377 1309 1330 1320 1320 1377 1308 1349 1266 1358 1269 1328 1325 1320 1266 1307 1359 1293 1255 1311 1348 1301 1308 1261 1276 1256 1263 1299 1247 1296 1300 1278 1286 1318 1383 1294 1231 1271 1257 1255 1221 1314 1264 1318 1244 1271 1269 1283 1257 1257 1333 1290 1227 1291 1245 1292 1249 1228 1237 1148 1254 1268 1259 1274 1239 1302 1238 1214 1302 1268 1301 1282 1264 1253 1262 1197 1300 1318 1314 1312 1240 1259 1251 1265 1267 1269 1272 1291 1199 1234 1257 1236 1220 1292 1274 1222 1222 1309 1201 1308 1215 1198 1306 1293 1240 1192 1237 1257 1223 1231 1248 1242 1210 1246 1231 1227 1183 1236 1233 1247 1198 1241 1186 1207 1283 1260 1286 1256 1244 1171 1266 1291 1231 1259 1207 1274 1205 1210 1218 1230 1238 1190 1214 1259 1199 1242 1203 1288 1238 1250 1214 1197 1174 1159 1216 1227 1234 1170 1211 1206 1179 1279 1195 1246 1232 1199 1206 1246 1181 1216 1247 1229 1211 1165 1221 1200 1175 1270 1243 1245 1188 1239 1194 1245 1206 1261 1236 1260 1228 1326 1152 1213 1227 1304 1260 1274 1259 1279 1303 1249 1228 1235 1305 1262 1234 1312 1301 1227 1218 1318 1238 1234 1275 1279 1269 1231 1260 1219 1272 1297 1327 1192 1217 1277 1301 1259 1337 1223 1186 1245 1213 1280 1232 1291 1290 1250 1205 1290 1262 1259 1332 1265 1280 1330 1293 1273 1371 1309 1279 1277 1344 1327 1308 1277 1266 1333 1328 1417 1298 1385 1331 1361 1450 1315 1430 1418 1420 1422 1468 1520 1605 1514 1626 1664 1764 1737 1742 1950 1994 2144 2181 2335 2559 2699 2789 2954 3161 3440 3650 3778 3927 4292 4483 4613 4882 5115 5372 5369 5799 5887 6133 6216 6214 6596 6522 6614 6811 6923 7138 7179 7199 7194 7099 7134 6921 6743 6342 6337 5987 5699 5353 5267 4805 4565 4264 3903 3662 3523 3358 3126 2928 2784 2757 2534 2483 2401 2353 2277 2192 2180 2297 2059 2157 2145 2222 2210 2330 2347 2351 2462 2457 2454 2502 2486 2569 2455 2342 2310 2245 2167 2123 2050 1895 1941 1882 1785 1733 1658 1620 1574 1539 1483 1522 1513 1361 1461 1371 1358 1379 1351 1344 1294 1292 1382 1317 1374 1350 1269 1311 1284 1304 1278 1272 1282 1239 1237 1251 1223 1235 1275 1190 1117 1209 1190 1179 1241 1192 1261 1174 1177 1143 1162 1141 1217 1216 1211 1154 1165 1182 1189 1241 1149 1246 1161 1183 1211 1167 1165 1163 1201 1138 1234 1195 1135 1102 1166 1211 1201 1206 1100 1235 1230 1109 1176 1131 1140 1113 1182 1169 1162 1164 1191 1177 1126 1197 1217 1209 1127 1132 1168 1142 1126 1154 1199 1127 1119 1121 1071 1142 1139 1192 1124 1143 1146 1178 1171 1093 1124 1121 1077 1122 1123 1109 1104 1162 1134 1204 1136 1135 1159 1098 1146 1151 1096 1139 1143 1035 1135 1115 1129 1125 1153 1134 1180 1098 1160 1180 1171 1193 1153 1119 1080 1102 1149 1117 1160 1108 1083 1129 1105 1097 1167 1043 1122 1093 1115 1128 1071 1094 1086 1122 1194 1166 1130 1086 1112 1097 1077 1072 1164 1131 1127 1083 1101 1109 1132 1143 1080 1096 1100 1162 1093 1145 1026 1090 1127 1080 1089 1122 1087 1124 1135 1168 1141 1140 1084 1129 1135 1096 1062 1111 1095 1115 1128 1068 1072 1043 1095 1126 1116 1129 1088 1053 1105 1114 1146 1154 1123 1140 1156 1083 1154 1103 1173 1113 1125 1099 1157 1148 1119 1060 1144 1116 1104 1132 1126 1115 1116 1125 1146 1142 1144 1143 1141 1098 1012 1036 1060 1131 1118 1042 1048 1066 1084 1077 1098 1111 1094 1123 1110 1102 1118 1069 1101 1040 1076 1056 1128 1067 1062 1085 1064 1089 1076 1068 1109 1041 1123 1027 1163 1081 1127 1066 1083 1093 1095 1121 1041 1086 1051 1074 1088 1104 1165 1021 1072 1099 1063 1007 1016 1100 1011 1052 1021 1105 1012 1048 1093 1007 1033 1055 1063 997 1087 975 1056 1060 1027 1006 1070 1022 1062 1017 1071 1060 1032 1015 1036 1023 1028 995 997 989 1060 1034 1005 1020 1099 1011 1018 977 1070 985 1041 1056 1070 1038 1044 968 1000 1006 1017 1013 1054 948 1002 951 1072 1018 1057 968 985 1003 1055 1004 1047 1002 973 1032 1021 1022 1020 1039 1014 1060 1083 975 1035 1021 1034 1031 1046 1121 1060 1016 1031 1020 1029 994 991 1014 971 1005 1018 1002 1021 1048 1023 1006 1040 1007 987 989 1030 991 1009 1005 965 1020 1013 1005 1007 1045 979 1009 1083 980 1020 990 1024 974 1000 969 1016 978 952 982 1002 1017 1030 999 999 924 996 1026 1043 975 984 965 995 1021 969 1021 1013 1042 984 990 1003 1004 1007 1000 982 999 985 995 1026 975 943 1038 1005 998 1003 952 943 971 1019 997 959 930 1027 952 1003 1006 1000 970 972 1005 968 976 974 1004 945 954 975 1011 965 964 1005 995 1048 1013 992 978 1010 1026 997 987 1018 1098 1040 1049 980 999 1011 1054 997 990 1011 968 975 1012 975 940 1000 967 990 1027 976 968 986 1000 969 973 1023 955 997 1020 924 1001 980 948 951 998 975 992 982 991 1005 967 995 964 1004 931 1004 959 972 1004 1012 1014 952 983 1018 940 1024 972 1018 961 963 1011 1012 984 972 979 983 1014 999 968 957 1004 1023 994 942 974 1001 979 1014 962 994 953 995 971 958 984 1003 945 946 945 1000 939 1025 985 939 994 915 982 994 1015 1014 977 981 1005 948 958 969 978 976 991 948 979 976 1044 985 980 983 993 973 1006 1026 1016 934 978 899 987 921 985 1034 968 948 957 919 995 986 919 944 925 967 933 970 942 973 938 966 965 1016 917 976 988 979 967 1000 961 970 924 964 938 979 1003 973 951 1024 970 1024 987 983 1017 933 967 972 945 988 983 911 950 923 941 965 938 919 891 938 969 880 949 976 1020 952 1003 942 951 987 922 916 993 934 912 916 888 1013 983 961 931 942 953 945 980 962 1004 906 909 1006 956 958 939 964 1026 964 982 962 966 949 898 956 960 995 915 983 1009 964 955 922 972 994 944 924 956 945 970 915 968 980 995 954 1022 935 939 979 947 917 884 941 954 979 940 912 946 929 916 956 953 892 979 953 903 988 967 967 912 946 993 978 981 919 969 953 979 1002 976 935 936 980 912 939 971 936 867 950 1015 904 905 965 994 907 943 946 956 1009 939 964 917 945 992 978 940 960 926 984 942 928 947 926 950 971 885 939 948 997 906 978 882 911 966 930 921 911 904 946 965 980 941 918 963 909 995 971 974 892 960 924 911 973 910 956 919 953 972 998 965 983 935 939 971 968 953 893 1012 952 931 967 967 928 940 934 939 922 1012 955 963 970 929 960 985 990 956 976 1012 955 1027 1025 948 989 1012 979 941 930 991 940 1006 997 1025 977 950 959 994 1077 937 1061 967 1038 1140 1058 1132 1038 1145 1149 1085 1079 1136 1186 1246 1229 1293 1275 1321 1306 1388 1402 1403 1454 1465 1482 1459 1505 1577 1491 1487 1513 1541 1484 1492 1508 1504 1465 1460 1495 1532 1533 1442 1414 1451 1365 1333 1279 1278 1267 1279 1216 1216 1183 1141 1056 1118 1070 1069 1161 1068 1048 1011 1000 1048 1021 991 1019 1038 934 967 961 1026 944 1059 931 968 1000 926 982 974 1000 982 964 984 998 997 1011 1000 1069 985 969 982 1024 949 1044 1010 995 977 957 951 965 987 1014 974 1012 975 1017 1024 973 951 976 950 931 977 1021 1032 983 976 944 961 964 944 911 934 991 954 998 974 952 936 962 964 1000 945 942 987 1007 934 949 1019 913 924 934 910 923 980 956 896 942 913 969 951 887 939 935 971 919 937 910 947 913 951 956 904 992 933 917 918 880 917 931 951 974 930 965 970 972 912 864 968 972 917 953 915 915 975 963 924 932 941 894 916 937 999 899 957 921 977 928 961 985 926 957 901 947 931 929 988 957 886 922 903 899 912 946 982 861 948 969 906 942 945 929 937 899 908 911 917 908 887 989 922 950 896 952 896 956 950 940 982 911 914 948 907 889 1014 916 945 867 942 970 906 1019 903 903 950 990 946 933 973 941 887 952 914 918 959 1021 980 989 938 923 926 893 964 932 924 856 948 910 896 974 964 893 945 1022 867 953 974 959 940 941 958 957 979 961 887 977 911 1007 941 998 921 922 974 969 945 961 987 924 988 1004 1008 993 921 966 952 926 920 955 1021 942 954 930 953 1045 940 983 912 987 978 979 1037 905 982 982 924 968 953 950 902 1006 960 906 976 969 985 881 939 972 895 973 1032 892 1073 995 997 993 989 988 959 933 976 1015 1027 949 983 959 986 1009 1062 1009 1025 1040 1076 1037 1010 1029 1052 1055 1090 1137 1131 1065 1145 1120 1160 1160 1237 1227 1312 1236 1272 1388 1387 1438 1550 1622 1653 1727 1875 1990 2142 2211 2338 2401 2628 2682 2794 2936 3032 3293 3331 3601 3604 3695 3733 3862 3958 3978 4021 4140 4118 4215 4222 4140 4174 4090 4101 4003 3938 3854 3757 3791 3531 3481 3377 3290 3146 3014 2804 2790 2661 2511 2411 2352 2140 2090 1977 1895 1842 1793 1623 1567 1501 1543 1434 1489 1453 1338 1325 1343 1288 1246 1290 1225 1294 1245 1227 1245 1122 1248 1231 1197 1238 1263 1339 1233 1325 1254 1318 1318 1271 1306 1375 1339 1373 1468 1380 1420 1411 1421 1408 1456 1407 1451 1441 1352 1383 1356 1375 1310 1328 1288 1254 1241 1280 1253 1276 1225 1222 1271 1245 1220 1200 1243 1156 1185 1158 1117 1151 1123 1120 1077 1099 1089 1087 1055 1086 1110 1061 1048 1067 1062 1053 986 993 975 1069 1009 971 1003 1021 1059 974 1034 1028 1023 996 1037 963 979 969 904 926 941 1031 949 987 995 1007 919 1011 928 942 1021 1014 928 987 949 938 929 906 937 959 971 929 977 939 949 875 918 952 947 914 939 947 980 902 965 951 946 961 886 925 890 943 953 975 940 974 922 896 931 952 1006 951 953 957 975 959 977 970 953 929 959 937 976 956 974 980 1002 1009 1009 1019 1016 1037 1015 1113 1058 1049 1107 1167 1118 1103 1176 1263 1204 1161 1231 1277 1256 1203 1282 1249 1274 1214 1292 1214 1236 1231 1254 1227 1209 1250 1236 1234 1229 1165 1223 1152 1112 1146 1085 1127 1050 1071 1027 1017 1053 1053 1039 1066 997 1043 991 1037 945 944 984 984 934 941 911 984 906 910 911 935 915 914 918 942 938 966 894 921 921 905 874 892 885 907 902 974 912 933 908 885 893 882 903 915 905 904 970 923 898 909 859 910 958 948 902 867 893 934 900 936 892 881 897 892 909 861 912 916 919 866 925 895 903 887 891 927 889 925 899 862 863 883 879 904 915 855 909 924 862 865 853 935 847 870 857 882 908 860 881 937 857 888 854 881 851 871 928 893 838 867 852 861 837 911 912 846 882 924 914 861 877 879 916 903 874 847 827 868 847 874 848 902 856 894 828 870 862 870 892 858 873 910 835 883 876 829 894 888 889 878 864 842 899 888 892 910 846 907 857 827 811 858 905 810 905 903 856 864 857 926 814 898 842 917 873 879 910 857 930 931 867 902 896 911 844 875 872 821 862 860 855 874 842 937 845 844 895 864 853 875 878 855 859 884 886 916 914 860 834 859 910 868 882 846 930 864 828 842 876 879 861 854 885 844 865 843 880 798 853 876 860 867 851 844 835 838 815 903 845 836 911 861 858 861 854 872 884 831 858 822 907 894 870 807 819 826 855 940 891 893 904 846 924 901 891 839 850 907 910 876 837 878 874 882 886 905 910 871 871 835 870 899 846 884 883 871 908 864 876 869 900 850 889 866 824 846 911 874 789 859 830 864 871 860 870 815 863 831 869 885 839 897 807 876 857 871 865 812 826 869 831 854 836 849 792 806 858 850 870 884 783 925 833 903 835 838 830 864 807 870 896 849 826 841 804 821 810 842 851 851 868 890 807 861 848 857 826 831 878 913 814 850 885 890 883 852 861 866 825 864 895 880 875 906 821 854 831 891 888 852 859 868 820 854 832 848 865 768 793 826 887 853 856 875 841 887 850 838 879 816 845 872 861 851 864 833 852 829 828 801 843 886 882 828 869 830 813 881 804 885 806 914 857 835 851 902 847 820 831 842 822 852 850 864 822 871 817 861 855 824 852 835 875 813 842 861 849 861 858 843 877 887 855 849 852 892 829 851 854 818 849 881 826 846 829 809 828 795 830 812 842 888 885 897 849 843 830 823 884 857 792 838 889 841 850 870 811 876 903 864 825 841 857 862 822 820 880 877 850 831 864 796 867 843 853 882 843 791 860 821 911 816 822 852 867 881 853 821 848 876 896 844 937 890 883 922 892 937 909 927 891 857 876 865 921 930 908 869 854 960 870 881 903 900 968 920 925 903 854 960 989 958 854 892 866 928 911 888 871 896 919 845 887 868 863 883 904 889 885 855 911 879 921 857 895 934 949 904 868 957 940 1004 999 941 995 1031 1035 1044 1027 1092 1121 1087 1143 1144 1208 1250 1234 1210 1267 1285 1289 1332 1280 1351 1376 1327 1357 1307 1358 1381 1385 1353 1357 1345 1292 1356 1304 1313 1371 1298 1212 1312 1215 1229 1185 1161 1142 1110 1122 1020 1062 1000 1059 1071 1045 1052 1026 964 1004 936 959 899 950 901 946 958 882 874 891 903 914 901 881 875 921 867 888 850 870 900 872 911 879 863 879 846 889 867 927 903 896 905 901 899 927 922 912 860 978 864 930 996 1000 984 992 961 1049 991 983 1008 1029 965 979 1039 1051 1034 957 1007 1028 1009 930 971 924 961 1005 899 892 942 961 961 909 964 886 905 856 899 843 853 844 919 892 927 812 866 840 877 874 910 872 831 843 881 793 894 759 819 825 792 856 820 841 832 800 808 835 821 775 822 841 846 804 873 799 851 832 832 776 858 884 852 852 770 877 790 786 809 806 797 795 871 805 838 847 791 834 821 827 827 828 809 802 856 809 809 820 872 844 828 798 895 868 804 845 807 889 857 850 824 852 839 842 839 812 878 797 852 773 807 822 857 844 877 805 848 814 837 867 862 831 816 788 817 827 859 840 853 815 893 875 834 844 854 841 876 877 850 849 932 988 858 865 963 904 935 980 969 973 1041 985 1098 1085 1104 1118 1145 1161 1208 1305 1270 1321 1333 1379 1487 1393 1529 1522 1522 1549 1560 1644 1541 1496 1662 1593 1691 1658 1666 1596 1617 1567 1565 1540 1610 1538 1639 1568 1446 1456 1454 1446 1406 1414 1372 1377 1276 1318 1294 1245 1171 1174 1162 1075 1105 1069 1092 996 1065 1019 966 902 934 951 976 941 901 895 906 935 885 861 961 870 920 843 910 885 875 839 833 834 888 842 872 829 866 845 848 899 861 870 865 834 837 876 869 901 871 876 883 900 901 885 892 905 851 911 889 902 899 886 856 927 921 942 879 888 895 885 895 900 818 893 832 887 824 884 873 859 846 889 851 867 762 823 823 887 846 916 838 836 801 816 803 815 778 799 753 804 809 823 894 813 857 815 774 841 904 822 834 861 810 868 865 900 893 825 867 815 866 836 891 907 812 839 851 838 872 848 831 868 838 826 847 921 847 838 890 916 840 888 850 882 867 868 940 849 879 888 871 939 935 986 926 925 918 966 939 1008 964 963 986 999 948 1015 891 993 1008 1022 963 941 1021 983 943 964 952 978 925 981 941 910 891 964 936 881 913 856 899 909 946 861 889 929 922 900 863 874 858 805 842 829 863 818 850 836 851 848 770 815 810 804 799 758 788 828 813 825 793 772 792 791 795 769 848 810 780 811 791 792 790 815 765 779 754 834 753 804 806 811 751 778 812 780 777 777 800 778 841 788 808 801 752 788 791 746 831 764 773 786 774 800 807 862 804 788 775 752 752 760 773 771 861 824 799 783 820 787 818 747 799 764 811 778 802 802 817 834 757 790 815 771 797 795 771 823 783 804 765 758 789 808 834 790 790 815 767 840 868 805 811 819 767 827 762 794 776 787 767 808 795 788 753 801 800 818 783 778 793 819 777 802 757 785 774 832 727 762 781 794 788 791 756 776 809 810 782 774 776 775 780 797 761 771 810 800 735 817 772 782 743 708 745 766 773 766 777 824 783 774 730 754 792 777 762 784 785 763 777 829 724 762 774 745 790 779 753 737 766 727 787 761 771 793 793 806 741 823 793 780 792 803 727 744 744 773 791 763 821 769 807 756 759 728 782 751 752 766 730 783 732 760 767 849 777 828 763 708 798 746 737 762 767 787 799 769 774 779 779 803 757 783 749 765 759 783 764 766 796 762 716 780 738 721 776 718 774 808 779 771 738 767 781 795 835 769 760 741 745 779 752 790 783 771 792 749 758 719 734 784 748 784 771 782 791 789 731 730 786 758 761 735 760 753 795 821 733 755 702 785 781 712 775 793 759 783 806 792 772 787 793 731 724 764 816 799 739 815 758 749 771 829 752 754 798 766 748 696 786 713 819 734 695 631 773 722 725 799 746 761 745 791 772 772 716 757 748 762 745 760 787 705 764 812 744 750 737 740 763 752 754 738 754 767 766 752 752 768 761 747 805 777 776 789 741 766 761 786 795 787 774 762 775 736 775 670 773 713 728 773 730 775 771 785 758 794 733 772 731 735 718 735 791 757 797 718 761 796 751 767 823 784 761 786 737 786 812 774 776 768 767 766 818 769 749 761 828 807 787 775 779 790 781 764 761 804 753 801 775 766 792 756 771 779 744 789 787 755 792 795 798 786 783 790 809 825 760 850 760 844 851 864 851 882 853 845 843 833 801 822 840 879 906 865 875 825 839 835 883 860 815 865 869 835 852 822 780 794 778 843 798 776 814 841 760 821 800 835 784 884 776 790 791 792 770 738 794 779 806 757 791 791 817 749 833 792 814 774 776 760 761 759 698 749 751 794 718 807 816 741 765 731 739 716 768 758 767 818 716 751 786 725 801 786 709 798 724 792 758 797 779 756 728 759 777 759 779 754 771 798 787 715 755 812 853 729 780 763 733 746 735 764 754 744 729 770 760 811 769 805 721 789 738 770 797 770 766 763 788 774 694 786 780 749 772 747 739 715 724 792 789 797 761 775 779 794 750 704 758 721 734 797 781 781 769 790 742 754 750 781 732 789 716 782 787 756 721 805 782 771 772 752 745 779 797 749 717 767 791 778 797 693 715 714 754 720 786 743 733 701 764 745 748 788 791 694 777 741 806 792 692 718 750 726 733 770 771 765 779 775 722 745 725 750 724 768 750 776 779 755 793 763 738 757 700 745 774 740 760 779 727 720 731 761 759 764 748 778 777 776 723 760 788 713 766 664 780 804 774 807 739 743 748 767 736 803 724 786 742 750 788 814 797 773 734 765 754 791 758 746 751 813 829 774 794 825 716 811 803 802 759 786 791 859 850 838 753 821 801 863 828 830 833 847 874 903 880 853 893 893 896 929 935 981 956 981 1011 1056 971 1093 1026 1063 1068 1064 1051 1013 1091 1045 1124 1047 1046 1043 1012 977 1004 993 1049 1056 964 996 937 949 948 980 962 969 886 894 866 897 907 935 836 870 849 839 822 847 864 825 814 870 816 768 803 820 781 813 769 763 785 842 818 846 843 794 789 790 800 735 792 770 773 770 786 786 737 779 769 775 774 813 780 825 781 780 770 781 723 823 732 723 787 783 723 783 750 829 762 776 766 785 742 809 792 799 751 785 822 777 745 775 810 756 785 742 752 833 744 795 758 808 838 735 779 851 825 824 844 823 810 795 811 793 770 836 846 740 827 726 775 759 798 802 761 829 789 772 765 779 728 812 765 780 797 763 757 754 751 763 753 827 747 723 775 730 718 744 801 780 740 830 701 799 743 749 765 729 753 766 761 743 768 728 755 728 744 774 764 707 775 769 746 731 766 798 697 765 732 729 764 739 732 784 762 744 795 751 803 773 779 696 718 732 801 749 752 782 799 715 776 775 740 709 772 742 770 753 778 698 741 720 769 726 756 687 769 738 735 750 718 743 771 740 801 712 717 748 762 736 735 714 755 764 739 764 766 784 718 725 745 774 745 773 745 745 738 731 744 766 819 776 697 738 724 765 748 702 723 774 737 737 755 739 730 769 720 813 757 740 724 717 703 761 708 728 746 777 746 783 758 737 698 776 770 759 750 729 804 705 721 722 750 745 740 685 756 769 729 725 758 752 747 758 766 742 699 754 770 801 731 780 732 760 778 712 769 693 737 704 785 729 702 760 725 767 718 734 747 725 740 776 787 759 721 822 723 739 771 714 745 748 705 732 749 745 736 753 785 761 746 737 720 746 743 758 737 758 778 741 714 769 738 754 763 758 762 716 723 719 751 721 757 732 758 738 766 772 729 804 729 745 685 775 746 719 723 709 766 780 770 733 685 720 742 743 748 746 728 704 733 724 717 726 715 709 717 708 722 748 728 715 733 689 750 688 760 713 768 773 758 781 737 773 723 728 770 769 767 744 748 791 735 729 764 741 769 741 728 745 758 768 718 705 747 736 770 719 704 770 737 766 701 758 732 736 747 729 696 742 721 753 749 751 774 811 812 752 692 762 708 717 748 691 737 745 705 744 729 760 753 756 733 732 802 740 791 723 774 702 721 781 718 760 803 770 743 755 698 747 762 783 734 732 699 802 740 741 754 757 737 751 752 752 764 751 731 705 728 720 754 780 783 751 747 746 746 712 766 761 767 758 769 733 770 680 769 738 758 747 744 676 763 765 808 757 769 731 741 789 807 793 789 735 750 767 707 729 777 734 721 704 736 789 702 826 778 709 729 723 737 754 738 750 725 755 739 732 740 763 764 759 752 804 773 790 767 736 798 733 784 709 762 783 747 747 735 738 721 730 764 781 773 757 770 795 750 771 774 740 748 734 756 786 739 748 749 800 756 797 799 770 773 761 797 719 810 820 806 762 806 806 837 823 860 832 763 817 866 769 822 826 819 864 822 820 811 842 843 857 825 811 827 802 778 819 815 836 863 855 847 818 791 813 787 825 815 842 808 858 830 806 811 806 819 813 871 850 789 836 836 888 830 805 906 835 832 849 882 864 853 887 904 897 861 891 922 910 854 916 906 918 898 896 918 891 899 931 885 904 888 892 870 925 913 892 872 938 872 862 854 879 870 864 866 864 859 853 821 830 858 821 827 863 841 849 830 828 836 850 839 802 769 833 814 748 783 761 791 744 772 807 819 767 745 804 836 739 797 734 774 746 786 719 769 736 828 754 736 783 732 735 751 782 788 745 769 764 766 774 779 757 779 784 779 813 757 760 813 772 802 757 742 800 752 714 753 747 772 785 761 784 777 803 817 825 776 788 787 746 792 796 821 764 790 781 780 776 756 782 756 798 771 801 795 786 795 786 806 791 807 778 793 809 793 771 808 812 813 807 820 849 792 830 834 780 807 822 789 752 821 790 830 882 837 820 752 768 803 803 846 731 801 837 784 754 818 826 798 780 828 776 798 837 792 835 822 818 771 786 744 794 819 820 840 835 826 808 819 783 853 823 809 827 870 816 828 878 855 898 799 931 949 893 864 918 913 961 856 981 959 976 993 1035 1018 1031 1072 1040 1097 1115 1169 1140 1217 1228 1233 1258 1209 1327 1266 1284 1284 1377 1373 1360 1342 1340 1351 1360 1341 1355 1346 1295 1398 1401 1349 1340 1361 1388 1330 1360 1274 1234 1279 1242 1217 1246 1219 1251 1165 1209 1151 1148 1117 1062 1097 1173 1023 1085 1062 1078 1049 963 1006 1074 927 981 911 950 905 921 937 854 926 884 842 888 835 824 872 891 845 834 810 839 829 849 780 826 795 753 814 847 834 803 826 792 815 804 805 825 794 795 774 847 783 823 794 768 755 813 818 802 780 820 764 824 751 796 804 741 827 819 788 782 775 815 789 815 802 795 821 826 828 786 806 786 813 806 835 829 821 802 843 856 820 903 880 823 880 836 843 831 878 840 859 834 944 827 850 828 866 833 895 901 799 880 899 904 901 837 878 872 872 881 912 952 834 933 933 928 902 908 884 872 875 791 866 906 856 864 905 826 892 839 828 869 825 887 787 839 820 893 879 888 851 830 792 824 866 843 879 852 823 810 798 833 857 808 798 877 834 786 801 779 778 767 793 781 766 889 813 816 781 785 849 775 781 779 831 742 771 750 730 856 801 820 780 748 795 771 752 850 777 737 757 772 754 752 746 765 789 734 771 776 746 748 726 785 811 717 709 786 802 755 770 768 748 772 760 735 763 748 773 826 797 741 684 829 733 777 785 734 707 785 756 756 764 826 749 740 700 769 761 803 737 770 807 763 757 778 773 718 741 758 765 773 745 748 743 721 740 759 746 770 775 770 725 720 745 781 769 764 781 770 774 759 747 758 718 758 753 754 778 682 708 777 729 793 781 733 724 738 738 685 763 690 706 730 761 745 816 728 771 739 706 757 765 724 777 699 748 778 737 706 766 759 699 713 704 783 699 741 697 743 745 706 752 757 736 738 752 759 715 737 721 752 740 789 754 744 730 764 758 717 777 720 736 750 714 740 704 755 772 760 768 743 750 743 738 753 731 767 753 716 721 766 727 716 816 745 775 733 738 768 668 751 733 738 737 684 723 770 693 743 766 783 698 715 799 755 716 726 719 737 728 743 700 713 728 740 688 747 711 732 707 674 692 761 739 766 727 754 759 741 747 733 752 720 756 744 691 713 702 790 801 728 728 746 763 692 743 776 731 760 747 745 760 724 688 725 736 655 725 809 692 743 704 739 722 745 749 731 709 727 765 711 757 735 729 754 729 736 749 763 732 722 731 764 764 692 776 724 744 763 756 751 726 756 764 737 680 735 733 750 757 766 729 758 737 742 716 725 742 761 744 731 762 750 741 693 779 750 757 720 738 746 732 699 748 735 727 742 787 750 721 724 724 776 712 778 676 774 773 756 709 779 696 710 665 748 769 742 749 724 737 738 720 737 791 732 768 758 761 741 744 782 728 731 722 752 777 712 761 718 738 758 697 733 742 715 709 747 740 751 754 725 787 789 739 744 798 727 771 729 784 773 763 786 704 741 784 794 781 762 776 801 801 779 763 748 839 853 844 778 811 822 812 801 757 765 752 747 818 812 783 816 804 800 780 817 791 788 765 833 802 799 798 813 783 791 779 767 778 763 799 780 810 762 773 796 780 774 736 783 766 787 761 742 774 755 750 738 730 706 761 750 706 758 778 760 718 714 701 755 735 716 809 724 757 701 813 772 786 721 733 755 779 766 767 747 763 712 728 755 771 703 765 731 769 784 729 729 729 787 797 745 765 745 718 779 727 739 770 717 737 727 698 756 753 740 747 728 746 729 726 728 718 708 721 739 765 736 778 733 742 738 757 750 729 746 711 720 738 779 716 715 775 716 759 687 739 721 761 705 758 696 716 756 759 760 779 726 787 737 710 752 778 747 728 759 746 764 751 749 762 774 743 782 735 706 742 706 770 726 719 704 717 762 705 720 796 771 772 722 722 772 744 754 735 743 717 719 755 715 741 765 772 712 710 766 758 716 720 743 760 735 738 760 741 761 759 741 776 769 749 692 729 781 777 745 766 772 712 754 774 759 711 764 760 739 776 730 778 788 757 705 741 737 750 803 784 723 761 774 781 809 818 805 803 814 793 811 850 808 783 797 805 852 840 815 820 906 833 870 858 860 813 851 850 839 840 873 970 980 903 919 921 946 993 1031 996 959 960 1024 1042 1015 1064 1037 1105 1084 1089 1083 1063 1049 1112 1206 1097 1103 1131 1184 1082 1181 1124 1170 1119 1086 1115 1140 1131 1072 1064 1085 1080 1057 1052 1102 999 1034 1082 1062 1107 1047 1023 987 1008 1007 1004 1004 988 963 1014 961 959 943 949 963 973 912 914 925 897 899 917 878 863 855 843 814 794 884 853 837 810 834 817 832 805 842 839 837 831 825 813 801 832 815 758 778 819 817 837 789 845 835 777 764 735 810 794 816 805 795 767 737 739 774 752 753 753 794 775 732 789 783 807 729 731 760 808 776 829 733 769 765 712 762 748 766 775 735 709 772 766 775 734 807 760 759 769 788 775 806 738 723 739 782 754 770 794 726 792 770 784 806 785 778 808 823 765 821 810 754 839 809 840 817 845 811 816 847 862 866 838 847 793 813 815 867 850 796 816 821 780 833 793 776 853 828 807 858 832 812 823 801 856 836 841 812 822 849 867 792 794 785 804 797 824 844 849 828 807 788 831 794 736 785 729 867 787 741 801 761 815 814 789 764 790 775 779 788 763 823 758 750 775 788 775 723 766 804 779 750 772 787 818 722 742 748 698 766 750 746 744 803 827 752 722 735 701 727 683 712 736 737 710 781 745 718 707 784 733 754 733 732 738 740 792 709 725 758 802 759 760 757 782 770 747 742 752 711 730 697 795 741 751 793 768 727 722 787 802 723 698 712 728 741 730 740 704 740 719 732 786 772 803 771 681 781 744 745 712 725 693 761 757 760 778 718 731 707 738 740 713 743 760 736 780 759 709 720 703 724 720 771 715 691 745 734 744 710 754 762 743 779 703 762 736 725 720 700 720 699 734 725 716 745 697 722 746 746 698 763 694 698 721 734 720 783 737 733 685 744 772 747 762 737 766 680 710 724 758 754 750 719 734 722 697 753 725 710 780 741 734 735 729 672 720 722 755 746 784 771 677 789 712 724 710 718 765 778 756 736 743 675 710 720 737 739 779 748 714 704 738 750 775 798 690 711 740 713 704 711 743 794 727 740 718 732 747 732 712 738 693 695 730 717 747 693 721 717 778 747 749 724 755 797 741 672 713 769 720 737 754 732 724 723 765 682 754 758 766 755 769 739 686 737 781 756 738 752 755 716 738 712 677 755 689 750 668 742 750 749 712 810 727 789 786 741 766 760 743 759 739 707 760 751 752 725 734 733 718 724 740 701 759 698 716 701 745 730 748 760 734 698 739 783 725 725 742 704 741 688 749 722 730 729 747 754 749 718 756 746 758 733 703 701 784 786 766 738 699 738 757 734 672 756 758 701 749 710 798 737 722 700 731 760 726 743 730 656 725 702 698 742 698 767 796 726 800 723 726 749 715 727 743 767 732 747 715 778 767 730 707 771 730 787 764 759 775 763 743 727 758 720 718 752 740 753 797 710 762 739 729 781 744 747 728 778 789 787 756 778 788 767 795 805 805 862 829 812 818 795 802 818 829 825 841 797 830 800 795 840 778 828 761 816 882 853 877 840 828 795 775 785 838 791 860 821 821 832 814 790 849 871 822 819 836 813 802 805 772 831 859 765 837 794 820 856 802 798 798 772 790</counts>
			</dataPoints>
		</scan>
	</xrdMeasurement>
</xrdMeasurements>
