<?xml version="1.0"?>
<xrdMeasurements xmlns="http://www.xrdml.com/XRDMeasurement/2.3" xmlns:xsi="http://www.w3.org/2001/XMLSchema-instance" xsi:schemaLocation="http://www.xrdml.com/XRDMeasurement/2.3 http://www.xrdml.com/XRDMeasurement/2.3/XRDMeasurement.xsd" status="Completed" recordIdentifier="{FF504DA3-005C-4473-BB7C-3402166B5B03}">
	<comment>
		<entry/>
	</comment>
	<sample type="To be analyzed">
		<id>GPSS_Li1p5Co0p4Zn0p1Cr0p5Cl4_121225_693c5ab8f4d05ae3d6974f25</id>
		<name></name>
		<preparedBy></preparedBy>
	</sample>
	<xrdMeasurement measurementType="Scan" status="Completed" sampleMode="Reflection">
		<usedWavelength intended="K-Alpha 1">
			<kAlpha1 unit="Angstrom">1.5405980</kAlpha1>
			<kAlpha2 unit="Angstrom">1.5444260</kAlpha2>
			<kBeta unit="Angstrom">1.3922500</kBeta>
			<ratioKAlpha2KAlpha1>0.5000</ratioKAlpha2KAlpha1>
		</usedWavelength>
		<incidentBeamPath>
			<radius unit="mm">145.00</radius>
			<xRayTube id="1010048" name="Empyrean Cu LFF HR (9430 033 7310x)">
				<tension unit="kV">40.0</tension>
				<current unit="mA">15.0</current>
				<anodeMaterial>Cu</anodeMaterial>
				<focus type="Line">
					<length unit="mm">12.0</length>
					<width unit="mm">0.4</width>
					<takeOffAngle unit="deg">6.0</takeOffAngle>
				</focus>
			</xRayTube>
			<sollerSlit id="21010002" name="Soller slits 0.04 rad.">
				<opening unit="rad">0.0400</opening>
			</sollerSlit>
			<mask id="22031000" name="Fixed mask 13 mm">
				<width unit="mm">9.00</width>
			</mask>
			<divergenceSlit id="22120001" name="Divergence slit 1°" xsi:type="fixedDivergenceSlitType">
				<distanceToSample unit="mm">50.00</distanceToSample>
				<height unit="mm">1.52</height>
			</divergenceSlit>
		</incidentBeamPath>
		<sampleMovement xsi:type="spinningSampleMovementType">
			<spinnerRevolutionTime unit="seconds">1.0</spinnerRevolutionTime>
		</sampleMovement>
		<diffractedBeamPath>
			<radius unit="mm">145.00</radius>
			<antiScatterSlit id="22090040" name="AS slit 9 mm (PIXcel)" xsi:type="fixedAntiScatterSlitType">
				<height unit="mm">9.00</height>
			</antiScatterSlit>
			<sollerSlit id="21020003" name="Large Soller slits 0.04 rad.">
				<opening unit="rad">0.0400</opening>
			</sollerSlit>
			<filter id="20030001" name="Large beta-filter Nickel">
				<material>Ni</material>
				<thickness unit="mm">0.020</thickness>
			</filter>
			<detector id="7010019" name="PIXcel1D-Medipix3 detector" xsi:type="rtmsDetectorType">
				<phd unit="keV">
					<lowerLevel>4.02</lowerLevel>
					<upperLevel>11.27</upperLevel>
				</phd>
				<mode>Scanning</mode>
				<activeLength unit="deg">5.542</activeLength>
			</detector>
		</diffractedBeamPath>
		<scan appendNumber="0" mode="Continuous" scanAxis="Gonio" status="Completed">
			<header>
				<startTimeStamp>2025-12-16T11:34:29-08:00</startTimeStamp>
				<endTimeStamp>2025-12-16T11:42:36-08:00</endTimeStamp>
				<author>
					<name>AutomatedUser</name>
				</author>
				<source>
					<applicationSoftware version="1.7b (136)">PANalytical Aeris Instrument Suite</applicationSoftware>
					<instrumentControlSoftware version="3.2.00000000 20240306">AERIS</instrumentControlSoftware>
					<instrumentID>950485</instrumentID>
				</source>
			</header>
			<dataPoints>
				<positions axis="2Theta" unit="deg">
					<startPosition>10.00943322</startPosition>
					<endPosition>99.99442286</endPosition>
				</positions>
				<positions axis="Omega" unit="deg">
					<startPosition>5.00471661</startPosition>
					<endPosition>49.99721143</endPosition>
				</positions>
				<commonCountingTime unit="seconds">12.495</commonCountingTime>
				<counts unit="counts">3536 3502 3590 3394 3528 3609 3384 3489 3568 3566 3505 3523 3541 3584 3486 3554 3555 3547 3617 3539 3378 3596 3575 3458 3516 3512 3533 3520 3606 3497 3573 3557 3537 3475 3689 3650 3637 3588 3629 3632 3528 3504 3478 3533 3586 3651 3610 3544 3570 3607 3621 3551 3502 3563 3492 3498 3645 3554 3475 3679 3579 3745 3558 3676 3653 3690 3622 3644 3643 3708 3645 3583 3686 3725 3669 3717 3558 3750 3667 3722 3642 3848 3573 3793 3784 3692 3776 3780 3669 3688 3763 3658 3721 3678 3687 3780 3652 3779 3760 3740 3832 3654 3635 3587 3693 3721 3727 3742 3617 3633 3743 3684 3765 3780 3734 3671 3696 3754 3731 3731 3664 3765 3575 3734 3778 3748 3762 3808 3817 3656 3813 3822 3769 3776 3729 3835 3772 3637 3681 3672 3663 3785 3801 3661 3617 3675 3796 3840 3789 3745 3716 3791 3675 3761 3716 3750 3783 3840 3766 3736 3690 3818 3861 3804 3851 3723 3827 3629 3685 3815 3751 3770 3615 3734 3880 3782 3796 3699 3708 3787 3745 3783 3569 3846 3746 3752 3750 3788 3792 3833 3828 3692 3798 3708 3800 3683 3677 3777 3778 3741 3748 3809 3848 3666 3862 3884 3866 3695 3889 3776 3768 3664 3719 3727 3673 3870 3814 3733 3720 3681 3815 3572 3879 3794 3757 3755 3834 3836 3887 3712 3691 3616 3702 3804 3737 3930 3757 3781 3766 3815 3744 3942 3845 3711 3760 3698 3737 3886 3793 3691 3773 3720 3676 3826 3694 3692 3747 3735 3706 3782 3927 3725 3802 3944 3834 3707 3910 3881 3815 3898 3856 3814 3812 3828 3851 3803 3834 3795 3771 3744 3964 3760 3817 3816 3833 3746 3809 3755 3825 3762 3810 3853 3852 3799 3758 3830 3848 3873 3745 3851 3905 3869 3916 3981 3996 3905 3807 3887 3900 3960 3781 3989 3817 3963 3913 3956 4020 3959 3936 4035 3876 3895 4091 3872 3891 3984 3919 4112 3987 4072 4011 3980 4006 3968 3963 4034 4018 4094 4003 4003 3914 4088 4087 4078 3934 4039 4090 4073 4166 4038 4233 4109 4127 4137 4137 4292 4049 4145 4158 4141 4189 4200 4231 4137 4213 4159 4288 4265 4323 4135 4275 4136 4185 4153 4239 4352 4192 4196 4305 4279 4357 4307 4307 4494 4430 4298 4337 4407 4442 4373 4376 4262 4442 4319 4334 4370 4465 4334 4394 4440 4471 4449 4382 4458 4340 4528 4374 4412 4456 4500 4516 4327 4353 4490 4513 4564 4520 4551 4526 4491 4437 4465 4581 4529 4681 4587 4631 4462 4565 4639 4740 4636 4639 4659 4683 4615 4667 4766 4764 4839 4778 4955 4995 4981 4981 5034 5037 5152 5099 5089 5295 5416 5358 5464 5597 5594 5726 5816 6051 6165 6146 6356 6437 6590 6565 6846 7181 7217 7377 7600 7401 7703 7762 7835 8033 7719 7947 7968 8083 7923 8285 8176 8149 8037 8207 8260 8321 8161 8200 8107 7967 7898 7785 7768 7804 7674 7529 7526 7367 7255 7033 6979 6746 6708 6590 6433 6298 6325 6115 6064 5986 6039 5893 5895 5816 5790 5646 5599 5599 5414 5291 5233 5108 4872 4895 4758 4484 4565 4611 4554 4544 4420 4451 4399 4366 4369 4388 4411 4202 4353 4268 4271 4303 4353 4159 4235 4278 4329 4346 4286 4348 4314 4260 4258 4249 4182 4170 4259 4146 4159 4114 4318 4262 4141 4089 4142 4210 4153 4100 4276 4193 4211 4193 4136 4084 4231 4147 4254 4159 4253 4265 4212 4142 4232 4165 4184 4180 4232 4193 4168 4211 4151 4190 4210 4216 4133 4261 4028 4130 4018 3975 4157 4125 4152 4061 4135 4015 4142 4122 4167 4147 4170 4040 4099 3988 4199 3977 4153 4044 4081 4091 4146 4053 4140 3998 4124 4056 4081 4038 4114 3992 4011 4286 3997 4079 4134 4089 4033 4071 4099 4117 4082 4053 4056 4127 4119 4245 4252 4133 4227 4231 4317 4201 4260 4300 4335 4350 4295 4280 4391 4342 4432 4482 4380 4441 4416 4483 4355 4510 4488 4501 4473 4593 4434 4572 4596 4347 4580 4548 4561 4619 4580 4593 4481 4460 4479 4513 4573 4476 4480 4429 4319 4350 4462 4412 4377 4383 4287 4288 4263 4254 4169 4293 4156 4075 4100 4227 4023 4063 3942 4023 3978 4031 3919 3989 3885 3927 3956 3987 3993 3977 3851 3967 3916 4013 3989 4064 4017 3907 3859 3988 4001 3986 4052 3985 3968 3982 3952 3962 3919 3930 3993 3887 3910 4029 3874 3954 3844 3827 3989 4059 4043 4017 3813 4028 3939 3830 3876 3921 3869 3764 3872 3962 3789 3936 3931 3855 4018 3957 3772 3958 3871 3895 3864 3875 3866 3940 3852 3923 3830 3889 3818 3882 3804 3950 3827 3870 3779 3769 3885 3882 3984 3821 3884 3765 3813 3854 4039 3792 3871 3884 3845 3797 3809 3853 3949 3869 3963 3970 3827 3963 3972 3883 3847 3822 3965 3862 3842 4014 3860 3839 3842 3955 3876 3807 3830 3878 4044 3824 3976 3911 3846 3843 3900 3850 3926 3814 3808 3849 3880 3751 3912 3863 3919 3869 3844 3863 3987 3803 3848 3857 3917 3670 3842 3754 3701 3839 3808 3843 3874 3933 3881 3883 3798 3788 3754 3814 3725 3893 3809 3900 3809 3779 3620 3756 3775 3797 3747 3799 3762 3821 3726 3755 3820 3659 3776 3772 3882 3837 3842 3667 3790 3862 3644 3817 3712 3752 3827 3842 3829 3706 3916 3727 3867 3803 3813 3784 3743 3655 3635 3756 3738 3754 3739 3733 3653 3708 3738 3766 3675 3721 3661 3624 3694 3790 3635 3690 3656 3591 3636 3779 3703 3733 3690 3802 3696 3710 3639 3637 3658 3627 3682 3615 3623 3581 3640 3630 3693 3641 3642 3712 3644 3641 3581 3647 3731 3630 3775 3657 3532 3740 3724 3751 3726 3699 3771 3733 3693 3766 3608 3709 3738 3686 3634 3696 3661 3719 3673 3696 3672 3619 3603 3758 3667 3708 3700 3575 3746 3602 3747 3704 3740 3766 3713 3640 3643 3758 3738 3714 3620 3603 3631 3667 3614 3619 3676 3545 3609 3725 3671 3712 3690 3639 3683 3610 3691 3626 3681 3537 3685 3727 3607 3727 3654 3663 3598 3680 3856 3620 3695 3793 3736 3705 3630 3640 3712 3692 3521 3661 3768 3654 3698 3759 3508 3655 3721 3613 3640 3659 3775 3728 3742 3711 3530 3608 3731 3710 3776 3703 3662 3757 3709 3776 3897 3761 3767 3739 3706 3719 3770 3745 3689 3785 3731 3747 3852 3760 3804 3720 3734 3727 3775 3745 3749 3707 3791 3690 3834 3647 3729 3797 3889 3812 3755 3685 3678 3691 3695 3777 3730 3693 3659 3610 3680 3670 3732 3739 3730 3765 3696 3623 3611 3715 3715 3655 3749 3673 3674 3783 3725 3611 3738 3737 3738 3682 3700 3676 3732 3669 3575 3607 3555 3725 3631 3678 3639 3666 3613 3601 3601 3652 3641 3591 3571 3644 3733 3632 3647 3579 3549 3614 3610 3608 3651 3505 3576 3581 3624 3608 3728 3543 3698 3585 3595 3494 3610 3616 3600 3542 3595 3557 3475 3471 3548 3622 3597 3575 3544 3476 3472 3542 3530 3496 3503 3485 3552 3450 3475 3469 3529 3481 3503 3467 3351 3450 3373 3619 3487 3521 3495 3436 3443 3417 3488 3394 3474 3357 3419 3397 3399 3396 3527 3498 3448 3397 3500 3309 3419 3325 3442 3385 3219 3324 3380 3415 3385 3283 3353 3297 3364 3399 3440 3283 3267 3288 3205 3416 3279 3371 3294 3279 3277 3330 3381 3334 3342 3245 3319 3337 3423 3248 3329 3281 3238 3295 3348 3298 3170 3266 3212 3286 3260 3230 3283 3530 3330 3197 3317 3276 3170 3350 3232 3197 3182 3133 3339 3217 3220 3331 3266 3187 3252 3225 3176 3238 3285 3195 3250 3225 3103 3154 3288 3263 3173 3253 3277 3270 3132 3157 3204 3223 3193 3229 3262 3201 3213 3169 3101 3074 3179 3159 3172 3266 3321 3151 3136 3149 3232 3162 3148 3202 3214 3107 3234 3193 3193 3253 3205 3141 3226 3204 3179 3176 3164 3212 3281 3220 3256 3344 3280 3162 3380 3309 3316 3283 3279 3323 3341 3429 3407 3398 3372 3496 3471 3478 3382 3386 3512 3465 3572 3422 3510 3437 3457 3541 3499 3496 3504 3507 3477 3465 3448 3414 3570 3517 3649 3529 3415 3659 3517 3541 3477 3374 3391 3434 3374 3386 3350 3318 3244 3229 3325 3377 3255 3245 3301 3295 3138 3281 3272 3177 3110 3158 3194 3068 3181 3064 3204 3100 3026 3073 3128 3097 3222 3074 3004 3189 3153 3113 3226 3124 3115 3089 3127 3089 3196 3182 3142 3141 3084 3101 3168 3209 3134 3121 3089 3117 3113 3161 3146 3120 3140 3124 3198 3069 3155 3031 3045 3117 3166 3056 3070 3063 3057 3000 3054 3127 3131 3210 3241 3089 3056 3017 3098 3101 3184 3236 3143 3229 3016 3192 3190 3099 3070 3047 3079 3136 3153 3112 3100 3080 3095 3024 3122 3113 3057 3169 3144 3111 3125 3134 3124 3108 3156 3163 3163 3179 3181 3143 3135 3097 3102 3164 3087 3209 3217 3137 3052 3114 3077 3206 3154 3266 3131 3011 3025 3091 3064 3112 3219 3207 3091 3116 3087 3179 3110 3048 3074 3094 3082 3127 3169 3130 3118 3128 3152 3176 3104 3048 3095 3117 3140 3127 3218 3070 3047 2998 3061 2981 3112 3060 3123 3083 3059 3144 3089 3056 3074 3065 3025 3045 3013 3106 2980 2945 3008 2983 2967 3016 3014 2993 3095 3005 3141 3003 2988 2980 2977 3000 2983 2962 2944 2983 2968 2874 2996 2955 2915 2935 3079 2949 2940 2913 2905 2913 3006 2954 2950 2997 3046 2995 2960 2951 2964 2874 2932 2859 2962 2944 2908 2844 2866 2972 2920 2945 2830 2846 2786 2855 2956 2853 2810 2911 2974 2925 2917 2951 2917 2921 2950 2872 2853 2897 2785 2797 2882 2901 2826 2867 2829 2858 2859 2868 2771 2896 2887 2947 2873 2942 2844 2796 2910 2928 2794 2759 2875 2892 2861 2873 2830 2866 2861 2906 2778 2724 2750 2790 2789 2819 2772 2785 2830 2842 2739 2761 2852 2874 2881 2698 2714 2907 2776 2795 2850 2844 2778 2740 2795 2794 2735 2750 2785 2781 2750 2750 2764 2788 2797 2814 2895 2730 2747 2723 2695 2753 2781 2836 2825 2706 2711 2752 2730 2749 2753 2710 2840 2839 2764 2777 2776 2703 2718 2786 2812 2847 2855 2824 2888 2884 2858 2982 2866 2922 2964 3026 2981 2986 3017 3019 3141 3098 3174 3133 3308 3213 3302 3253 3332 3247 3189 3286 3342 3278 3359 3331 3447 3249 3347 3291 3288 3413 3380 3418 3367 3471 3517 3533 3499 3551 3461 3415 3465 3493 3538 3467 3533 3402 3558 3620 3480 3538 3491 3433 3379 3269 3335 3391 3428 3242 3305 3205 3184 3149 3128 3065 3064 2923 2979 3070 2982 2856 2843 2893 2902 2814 2886 2911 2816 2904 2820 2913 2659 2873 2704 2737 2764 2790 2807 2779 2728 2698 2790 2834 2760 2871 2749 2754 2856 2902 2771 2799 2841 2790 2822 2817 2885 2889 2843 2817 2902 2918 2918 2957 2968 2922 3072 3077 3037 3147 3304 3258 3521 3521 3476 3520 3621 3695 3763 3699 4063 4039 4149 4330 4381 4438 4668 4671 4641 4760 4861 4930 5038 4970 5151 5138 5042 5141 5156 5229 5198 5249 5379 5178 5149 5244 5228 5158 5218 4976 4924 4872 4745 4724 4611 4439 4493 4245 4240 4150 4095 4018 3894 3808 3757 3510 3500 3339 3387 3341 3267 3299 3072 3158 3010 2981 3051 3068 3000 3001 3045 3112 3139 3103 3213 3152 3174 3309 3236 3130 3290 3342 3214 3219 3153 3130 3097 3115 2938 3087 3081 3031 2966 2970 2962 2845 2953 3056 2962 2922 2821 2841 2825 2798 2769 2745 2706 2654 2642 2676 2639 2564 2650 2609 2573 2577 2617 2515 2672 2506 2632 2587 2559 2613 2577 2578 2556 2568 2651 2556 2625 2512 2549 2541 2672 2511 2517 2565 2520 2516 2622 2610 2585 2487 2491 2553 2516 2489 2440 2583 2537 2456 2514 2584 2518 2495 2578 2570 2539 2531 2591 2504 2646 2564 2506 2463 2536 2519 2555 2518 2637 2525 2707 2516 2503 2475 2437 2534 2448 2511 2549 2607 2494 2569 2583 2476 2518 2485 2569 2488 2572 2559 2453 2455 2505 2544 2546 2448 2520 2568 2461 2520 2414 2505 2477 2448 2486 2574 2424 2414 2542 2449 2468 2396 2457 2454 2477 2436 2500 2507 2516 2453 2545 2528 2451 2544 2470 2494 2483 2575 2559 2397 2460 2526 2497 2474 2492 2411 2419 2455 2465 2425 2494 2490 2498 2455 2494 2462 2422 2509 2514 2427 2438 2427 2443 2437 2483 2435 2514 2503 2517 2440 2529 2443 2391 2453 2444 2464 2474 2443 2427 2453 2442 2409 2512 2553 2471 2434 2340 2411 2393 2454 2371 2493 2429 2424 2518 2496 2431 2512 2436 2459 2445 2493 2435 2383 2513 2331 2518 2576 2472 2450 2418 2474 2436 2495 2477 2450 2453 2471 2418 2509 2462 2496 2416 2433 2479 2461 2479 2394 2399 2433 2479 2493 2408 2567 2432 2417 2492 2421 2476 2482 2344 2474 2342 2485 2525 2462 2514 2433 2462 2443 2362 2418 2467 2571 2515 2400 2478 2414 2531 2560 2514 2471 2412 2373 2441 2470 2431 2469 2499 2508 2437 2329 2451 2490 2587 2422 2489 2409 2463 2454 2460 2494 2523 2435 2558 2428 2494 2475 2421 2589 2480 2516 2474 2532 2443 2418 2493 2515 2490 2494 2453 2512 2587 2545 2428 2471 2476 2548 2613 2505 2493 2527 2558 2478 2593 2500 2602 2553 2613 2594 2575 2572 2501 2591 2477 2637 2569 2667 2679 2620 2662 2679 2693 2669 2677 2685 2650 2855 2903 2859 2858 2974 3037 3220 3227 3264 3583 3510 3496 3638 3805 3934 4089 4192 4464 4615 4816 4907 4986 5133 5237 5368 5498 5517 5631 5579 5715 5647 5730 5769 5766 5762 5847 5817 5692 5793 5691 5657 5620 5648 5460 5586 5417 5519 5601 5593 5620 5609 5742 5763 5706 5907 6156 5941 6207 6150 6142 6267 6153 6203 6085 6224 6069 6052 5942 6011 6039 5825 5758 5632 5733 5592 5376 5225 4948 4905 4713 4554 4276 4132 3990 3910 3845 3641 3462 3400 3345 3335 3271 3064 2959 3042 2951 2908 2932 2930 2887 2801 2830 2949 2798 2922 2852 2822 2772 2891 2850 2843 2891 2848 2819 2787 2790 2924 2817 2731 2797 2815 2796 2710 2784 2814 2778 2693 2707 2709 2751 2708 2682 2611 2718 2746 2735 2705 2744 2629 2615 2605 2569 2594 2601 2519 2518 2675 2615 2570 2653 2536 2617 2562 2628 2569 2607 2636 2585 2614 2572 2624 2667 2611 2564 2630 2570 2706 2551 2648 2579 2647 2605 2645 2736 2606 2536 2672 2598 2642 2631 2559 2581 2631 2575 2611 2630 2612 2596 2595 2506 2627 2527 2415 2520 2502 2621 2523 2527 2443 2588 2500 2424 2529 2501 2435 2536 2540 2417 2469 2581 2489 2414 2438 2526 2481 2478 2509 2421 2497 2496 2446 2418 2404 2453 2437 2448 2508 2364 2513 2426 2400 2330 2432 2340 2405 2449 2393 2421 2357 2374 2375 2447 2473 2385 2423 2312 2328 2324 2382 2419 2299 2405 2384 2444 2381 2452 2398 2399 2432 2404 2428 2324 2386 2393 2442 2415 2383 2416 2382 2389 2425 2403 2367 2494 2388 2361 2451 2426 2353 2365 2376 2410 2405 2395 2390 2328 2322 2374 2310 2401 2443 2401 2487 2402 2311 2418 2489 2341 2344 2479 2340 2314 2359 2339 2439 2379 2422 2363 2375 2450 2403 2327 2352 2350 2323 2416 2310 2429 2429 2367 2376 2301 2450 2399 2410 2445 2448 2396 2461 2469 2453 2436 2361 2462 2499 2461 2487 2470 2539 2506 2511 2458 2599 2452 2593 2556 2559 2592 2468 2579 2557 2570 2495 2656 2574 2466 2510 2510 2618 2452 2447 2504 2458 2533 2528 2422 2422 2410 2326 2412 2418 2413 2462 2299 2449 2363 2416 2291 2410 2420 2317 2381 2296 2423 2389 2329 2392 2339 2403 2346 2441 2433 2437 2414 2409 2398 2345 2385 2418 2412 2354 2376 2381 2273 2274 2306 2301 2399 2366 2339 2304 2400 2338 2408 2454 2418 2402 2339 2461 2419 2291 2376 2400 2366 2378 2376 2418 2426 2446 2362 2344 2400 2398 2427 2502 2434 2341 2404 2423 2509 2435 2532 2528 2471 2442 2456 2377 2528 2610 2487 2482 2499 2530 2574 2586 2529 2576 2475 2443 2504 2470 2534 2514 2464 2550 2430 2514 2375 2604 2458 2379 2453 2367 2423 2402 2408 2438 2345 2332 2419 2397 2301 2443 2294 2370 2338 2265 2240 2301 2292 2355 2278 2374 2367 2315 2233 2324 2304 2411 2353 2250 2295 2376 2336 2361 2358 2283 2300 2365 2256 2376 2267 2372 2258 2353 2295 2292 2259 2350 2341 2304 2277 2252 2295 2349 2386 2257 2278 2223 2325 2304 2306 2301 2274 2274 2359 2279 2317 2282 2315 2320 2348 2369 2318 2314 2284 2386 2325 2352 2284 2354 2312 2367 2204 2286 2355 2278 2339 2219 2370 2346 2375 2251 2297 2262 2250 2262 2365 2303 2268 2262 2330 2366 2226 2355 2274 2338 2296 2350 2226 2308 2257 2339 2236 2302 2277 2223 2356 2298 2282 2291 2298 2301 2303 2319 2302 2287 2209 2327 2305 2348 2332 2312 2428 2276 2300 2383 2314 2384 2282 2325 2361 2275 2361 2280 2310 2301 2256 2313 2287 2301 2334 2281 2284 2234 2302 2410 2285 2301 2298 2307 2277 2268 2305 2391 2349 2304 2265 2261 2294 2313 2326 2378 2376 2372 2385 2319 2315 2329 2263 2325 2278 2334 2290 2376 2262 2250 2287 2325 2277 2290 2334 2243 2293 2277 2355 2346 2279 2291 2226 2276 2288 2316 2256 2277 2193 2301 2264 2277 2214 2200 2293 2279 2254 2289 2283 2286 2263 2266 2284 2283 2280 2238 2276 2285 2196 2237 2312 2329 2278 2176 2197 2233 2244 2252 2221 2297 2306 2208 2266 2205 2293 2257 2332 2306 2262 2315 2219 2321 2248 2306 2305 2249 2198 2234 2269 2372 2216 2323 2238 2269 2233 2374 2219 2311 2264 2256 2311 2214 2303 2288 2209 2266 2251 2219 2227 2177 2244 2266 2235 2261 2329 2218 2321 2370 2310 2346 2282 2282 2333 2225 2311 2387 2381 2388 2350 2319 2343 2377 2273 2284 2296 2381 2353 2311 2301 2334 2350 2363 2371 2313 2446 2394 2424 2351 2424 2472 2446 2373 2464 2403 2384 2531 2389 2436 2438 2398 2440 2457 2470 2406 2459 2433 2330 2517 2333 2403 2371 2448 2295 2309 2345 2351 2422 2323 2392 2360 2361 2382 2334 2308 2296 2309 2259 2226 2253 2248 2209 2284 2348 2218 2321 2221 2223 2186 2230 2349 2227 2317 2248 2225 2275 2269 2212 2337 2230 2261 2252 2260 2303 2246 2260 2319 2329 2314 2308 2342 2246 2309 2206 2324 2243 2186 2256 2344 2308 2290 2276 2213 2294 2227 2371 2292 2353 2303 2251 2288 2161 2193 2273 2290 2306 2317 2312 2232 2399 2331 2223 2230 2309 2239 2251 2275 2331 2260 2270 2362 2323 2318 2281 2297 2296 2305 2264 2242 2333 2300 2357 2290 2161 2233 2301 2318 2216 2256 2330 2191 2269 2247 2163 2304 2226 2225 2251 2316 2285 2246 2283 2264 2276 2291 2363 2311 2230 2248 2343 2257 2190 2304 2358 2290 2308 2260 2267 2223 2243 2209 2245 2310 2227 2310 2210 2229 2288 2300 2315 2168 2251 2242 2208 2216 2271 2305 2267 2308 2239 2270 2325 2299 2279 2223 2164 2335 2289 2328 2304 2205 2218 2280 2296 2281 2233 2253 2322 2257 2268 2263 2240 2325 2127 2243 2237 2222 2318 2350 2343 2313 2301 2257 2245 2317 2308 2347 2333 2300 2282 2268 2327 2373 2305 2323 2347 2349 2373 2362 2378 2541 2510 2501 2471 2429 2597 2484 2516 2584 2612 2527 2553 2658 2703 2704 2685 2704 2774 2678 2630 2749 2773 2799 2777 2750 2863 2742 2790 2643 2710 2753 2653 2782 2765 2695 2680 2631 2785 2626 2706 2601 2638 2721 2679 2554 2617 2640 2617 2686 2709 2704 2720 2694 2760 2721 2711 2749 2680 2772 2723 2734 2782 2784 2761 2729 2756 2702 2660 2618 2711 2652 2656 2607 2548 2494 2553 2442 2569 2480 2529 2474 2342 2255 2549 2427 2332 2448 2312 2404 2382 2330 2318 2333 2298 2408 2337 2350 2228 2389 2296 2301 2300 2366 2282 2301 2332 2319 2378 2311 2336 2292 2392 2277 2261 2266 2294 2417 2218 2305 2317 2307 2331 2249 2390 2432 2333 2271 2270 2311 2305 2322 2266 2273 2289 2290 2231 2232 2332 2313 2400 2327 2235 2299 2259 2337 2220 2336 2303 2244 2266 2225 2343 2302 2243 2238 2268 2247 2242 2285 2387 2209 2328 2302 2255 2286 2299 2390 2253 2175 2357 2312 2336 2271 2273 2363 2211 2369 2348 2279 2261 2261 2270 2307 2292 2265 2257 2175 2293 2306 2320 2295 2282 2298 2264 2350 2242 2322 2304 2234 2143 2275 2245 2182 2229 2264 2266 2289 2258 2331 2288 2260 2211 2270 2240 2194 2292 2287 2217 2277 2313 2296 2360 2273 2312 2228 2232 2197 2226 2221 2164 2224 2220 2309 2156 2160 2180 2248 2273 2246 2204 2215 2230 2169 2168 2317 2201 2222 2180 2282 2321 2277 2213 2205 2227 2275 2245 2309 2248 2287 2065 2310 2323 2308 2331 2275 2229 2313 2321 2262 2266 2207 2332 2231 2148 2223 2249 2189 2332 2259 2244 2131 2276 2316 2223 2291 2187 2148 2236 2365 2318 2195 2243 2266 2240 2264 2263 2370 2293 2235 2271 2318 2344 2287 2323 2275 2261 2264 2247 2260 2228 2262 2296 2306 2387 2228 2284 2263 2288 2307 2300 2325 2359 2303 2295 2311 2289 2318 2360 2229 2261 2320 2235 2299 2208 2347 2187 2268 2284 2299 2227 2284 2257 2239 2216 2256 2258 2230 2337 2351 2315 2347 2210 2309 2276 2173 2279 2348 2276 2258 2286 2252 2232 2132 2320 2267 2228 2255 2165 2241 2275 2193 2287 2404 2293 2381 2321 2330 2303 2349 2393 2363 2368 2515 2436 2417 2449 2531 2456 2478 2395 2509 2382 2499 2511 2457 2597 2584 2598 2582 2642 2620 2689 2676 2726 2726 2790 2812 2917 2895 2982 2989 3081 3048 3214 3171 3237 3252 3324 3353 3460 3525 3617 3669 3644 3816 3930 4000 4036 4351 4335 4517 4592 4621 4688 4736 4764 4876 4750 4884 4931 4826 4960 4883 4922 4782 4817 4961 4937 4843 4906 4616 4625 4505 4459 4182 4364 4133 3977 4056 3914 3717 3564 3643 3586 3416 3394 3295 3241 3181 3258 3135 3117 3127 3007 2937 2986 2956 2938 2903 2922 2941 2969 2871 2993 2813 2958 2835 2907 2835 2903 2824 2821 2794 2686 2777 2749 2809 2752 2766 2684 2643 2557 2586 2505 2601 2583 2554 2503 2483 2468 2433 2387 2532 2469 2428 2409 2486 2395 2426 2325 2353 2345 2339 2403 2349 2309 2387 2319 2434 2366 2378 2373 2330 2420 2355 2320 2386 2411 2311 2353 2334 2351 2328 2329 2395 2383 2432 2454 2348 2393 2307 2331 2357 2352 2445 2371 2308 2415 2357 2408 2355 2369 2355 2355 2449 2293 2320 2297 2329 2348 2279 2274 2473 2348 2320 2228 2402 2288 2335 2288 2255 2382 2273 2332 2339 2444 2287 2372 2352 2318 2431 2456 2331 2270 2370 2308 2292 2335 2290 2306 2288 2345 2323 2349 2344 2387 2396 2358 2308 2313 2362 2336 2237 2434 2282 2264 2267 2308 2284 2322 2261 2411 2285 2318 2239 2351 2319 2285 2322 2359 2293 2367 2231 2367 2346 2392 2393 2298 2307 2410 2452 2320 2430 2284 2443 2313 2445 2451 2422 2504 2524 2497 2553 2571 2561 2523 2604 2590 2536 2522 2605 2518 2586 2685 2575 2574 2609 2549 2660 2568 2556 2576 2603 2554 2646 2550 2611 2618 2528 2466 2478 2523 2557 2472 2574 2563 2474 2587 2474 2480 2607 2671 2544 2630 2637 2598 2552 2545 2576 2576 2577 2651 2575 2648 2566 2685 2583 2554 2657 2516 2582 2598 2552 2504 2659 2607 2498 2485 2508 2553 2480 2497 2412 2503 2436 2457 2474 2458 2469 2408 2454 2304 2377 2286 2438 2424 2400 2296 2363 2314 2279 2305 2390 2356 2389 2305 2229 2302 2258 2183 2337 2246 2338 2291 2290 2187 2261 2361 2177 2305 2331 2368 2245 2247 2294 2235 2309 2317 2302 2296 2317 2314 2211 2226 2197 2314 2324 2282 2284 2246 2310 2246 2332 2280 2190 2247 2242 2205 2308 2243 2333 2206 2218 2361 2315 2258 2272 2250 2273 2213 2244 2298 2242 2292 2242 2209 2194 2179 2228 2304 2255 2317 2205 2191 2192 2231 2206 2216 2238 2203 2158 2213 2103 2172 2169 2150 2180 2172 2225 2137 2262 2240 2217 2290 2220 2170 2138 2202 2209 2210 2286 2268 2129 2135 2198 2278 2271 2168 2106 2224 2200 2191 2200 2122 2154 2331 2249 2239 2189 2141 2154 2234 2189 2204 2245 2212 2221 2146 2192 2124 2185 2119 2138 2194 2273 2139 2205 2220 2213 2186 2183 2160 2158 2287 2116 2185 2210 2148 2217 2135 2153 2251 2167 2177 2228 2248 2135 2110 2174 2167 2284 2152 2192 2205 2199 2160 2106 2223 2207 2222 2241 2214 2146 2199 2162 2191 2330 2278 2251 2186 2176 2249 2230 2184 2229 2189 2167 2233 2293 2123 2185 2304 2202 2227 2244 2196 2241 2223 2241 2211 2204 2229 2324 2381 2335 2208 2199 2222 2201 2276 2262 2200 2208 2156 2229 2152 2191 2245 2132 2130 2169 2170 2067 2137 2189 2199 2093 2239 2159 2168 2234 2186 2175 2231 2278 2164 2150 2157 2197 2139 2193 2129 2163 2204 2130 2209 2122 2208 2214 2241 2251 2214 2202 2159 2274 2170 2203 2129 2262 2204 2171 2191 2212 2232 2220 2154 2226 2171 2188 2206 2227 2163 2233 2228 2146 2131 2100 2128 2232 2221 2214 2184 2155 2124 2243 2174 2172 2192 2168 2204 2106 2209 2158 2134 2244 2212 2125 2122 2195 2177 2264 2173 2178 2105 2204 2314 2206 2233 2164 2194 2231 2268 2270 2289 2194 2176 2171 2204 2342 2186 2197 2276 2196 2228 2222 2186 2109 2220 2248 2274 2270 2215 2262 2238 2213 2187 2229 2301 2218 2168 2204 2168 2270 2262 2155 2250 2120 2293 2259 2235 2308 2183 2287 2269 2207 2274 2250 2180 2255 2261 2230 2170 2107 2144 2281 2171 2215 2253 2178 2204 2184 2214 2299 2237 2144 2177 2191 2211 2176 2181 2064 2280 2200 2224 2160 2182 2178 2184 2121 2189 2199 2107 2186 2110 2162 2168 2221 2164 2111 2142 2150 2163 2318 2047 2250 2085 2240 2178 2173 2097 2191 2205 2183 2193 2250 2158 2074 2107 2152 2212 2091 2121 2189 2125 2184 2154 2246 2161 2177 2204 2163 2195 2125 2184 2195 2215 2159 2240 2192 2139 2096 2181 2179 2143 2190 2138 2147 2139 2162 2174 2210 2177 2178 2173 2149 2132 2150 2206 2189 2148 2190 2237 2187 2168 2223 2191 2142 2192 2187 2247 2223 2182 2132 2186 2231 2207 2169 2130 2176 2209 2210 2321 2241 2221 2225 2208 2228 2267 2151 2261 2221 2261 2304 2301 2241 2302 2228 2281 2254 2186 2298 2286 2160 2269 2340 2263 2254 2201 2355 2248 2205 2302 2319 2279 2306 2277 2228 2192 2332 2240 2295 2234 2278 2318 2366 2337 2317 2360 2329 2400 2366 2343 2299 2378 2396 2407 2357 2371 2415 2485 2412 2434 2526 2445 2542 2537 2435 2528 2570 2585 2516 2488 2553 2461 2550 2550 2554 2472 2443 2509 2491 2563 2493 2585 2441 2435 2431 2446 2457 2484 2437 2361 2481 2415 2362 2377 2381 2356 2345 2382 2408 2322 2374 2344 2303 2406 2382 2256 2354 2365 2403 2354 2408 2390 2372 2334 2341 2342 2436 2255 2307 2421 2335 2412 2300 2330 2356 2398 2381 2324 2371 2322 2446 2308 2362 2419 2336 2302 2329 2302 2387 2281 2349 2270 2433 2316 2298 2287 2328 2281 2298 2198 2269 2305 2312 2234 2266 2260 2299 2263 2125 2125 2235 2246 2192 2243 2225 2136 2151 2258 2172 2179 2182 2178 2135 2122 2138 2111 2149 2147 2207 2179 2152 2192 2239 2140 2103 2214 2240 2184 2121 2180 2173 2166 2208 2220 2127 2163 2284 2151 2178 2211 2171 2156 2241 2197 2151 2156 2145 2138 2110 2154 2194 2124 2122 2185 2229 2117 2206 2253 2195 2181 2101 2207 2200 2170 2199 2176 2288 2253 2113 2255 2210 2173 2244 2199 2235 2219 2269 2136 2186 2175 2171 2181 2181 2190 2127 2188 2181 2149 2206 2167 2187 2305 2128 2182 2235 2196 2252 2111 2189 2117 2117 2231 2236 2167 2225 2201 2241 2111 2062 2129 2149 2215 2159 2208 2108 2160 2257 2146 2169 2274 2100 2141 2208 2129 2139 2174 2189 2197 2232 2217 2196 2188 2172 2183 2194 2255 2150 2116 2187 2237 2283 2172 2249 2127 2261 2222 2211 2239 2178 2241 2216 2228 2164 2195 2184 2281 2384 2113 2201 2197 2318 2208 2221 2331 2236 2282 2328 2271 2325 2245 2405 2319 2370 2423 2308 2268 2451 2468 2457 2338 2460 2439 2307 2415 2429 2404 2470 2557 2515 2535 2546 2536 2560 2621 2654 2669 2758 2699 2731 2648 2637 2566 2720 2678 2691 2649 2696 2665 2731 2682 2671 2758 2643 2698 2752 2560 2638 2563 2583 2583 2601 2642 2618 2639 2649 2698 2668 2639 2669 2619 2637 2723 2637 2601 2535 2674 2639 2625 2620 2603 2501 2630 2632 2562 2592 2466 2428 2524 2470 2357 2393 2402 2328 2307 2354 2367 2396 2258 2306 2315 2341 2348 2352 2290 2297 2262 2306 2223 2233 2286 2245 2256 2225 2253 2191 2164 2195 2269 2237 2131 2195 2184 2191 2223 2238 2177 2212 2172 2187 2113 2195 2234 2151 2163 2159 2153 2195 2152 2307 2187 2175 2195 2207 2262 2205 2270 2191 2267 2283 2189 2305 2327 2193 2260 2295 2388 2556 2535 2604 2594 2491 2653 2561 2625 2518 2498 2517 2560 2491 2467 2433 2529 2478 2521 2543 2485 2478 2599 2517 2501 2458 2463 2488 2453 2351 2330 2360 2320 2307 2268 2315 2238 2276 2269 2342 2288 2241 2257 2301 2256 2259 2251 2254 2224 2214 2132 2274 2237 2252 2286 2173 2197 2222 2220 2189 2265 2254 2271 2261 2327 2266 2266 2262 2294 2228 2252 2312 2252 2425 2316 2403 2385 2357 2443 2362 2369 2379 2420 2361 2354 2384 2338 2403 2494 2356 2474 2421 2390 2323 2453 2447 2490 2419 2382 2365 2376 2352 2348 2258 2424 2270 2337 2360 2360 2299 2280 2307 2311 2306 2211 2265 2231 2220 2230 2232 2293 2244 2295 2341 2278 2290 2227 2268 2281 2240 2329 2241 2333 2260 2310 2326 2301 2198 2309 2219 2238 2244 2303 2327 2220 2295 2145 2176 2245 2240 2194 2171 2265 2290 2226 2191 2263 2256 2262 2191 2234 2201 2160 2268 2199 2202 2198 2210 2232 2214 2238 2134 2103 2090 2194 2115 2129 2129 2200 2214 2214 2113 2218 2178 2193 2157 2226 2161 2174 2095 2185 2114 2180 2164 2141 2120 2156 2222 2157 2120 2229 2232 2208 2166 2198 2202 2234 2162 2143 2151 2183 2177 2197 2171 2167 2233 2185 2188 2258 2186 2243 2194 2147 2118 2103 2201 2094 2096 2205 2201 2133 2139 2193 2169 2083 2184 2048 2167 2166 2202 2165 2159 2219 2165 2181 2128 2203 2227 2204 2230 2163 2191 2111 2157 2147 2271 2152 2127 2176 2125 2145 2125 2195 2122 2215 2155 2181 2209 2201 2074 2142 2100 2043 2155 2132 2179 2183 2186 2221 2228 2117 2179 2117 2214 2114 2098 2173 2179 2263 2160 2152 2115 2100 2171 2198 2221 2139 2098 2133 2171 2066 2175 2197 2113 2088 2185 2135 2064 2118 2068 2102 2168 2079 2197 2104 2153 2208 2213 2044 2103 2137 2169 2097 2236 2118 2079 2278 2178 2103 2250 2094 2193 2160 2097 2090 2143 2066 2057 2045 2124 2068 2179 2164 2137 2124 2159 2228 2126 2091 2067 2104 2116 2129 2129 2133 2210 2182 2182 2173 2058 2091 2061 2146 2093 2121 2190 2196 2167 2099 2126 2075 2174 2167 2122 2136 2158 2158 2044 2208 2101 2051 2154 2171 2096 2159 2105 2199 2135 2064 2074 2176 2077 2149 2212 2177 2094 2248 2147 2136 2129 2076 2150 2142 2179 2169 2071 2131 2094 2169 2225 2203 2143 2171 2064 2186 2055 2165 2051 2228 2167 2130 2210 2206 2079 2092 2147 2137 2205 2187 2167 2194 2077 2235 2175 2121 2206 2186 2199 2119 2136 2231 2103 2198 2152 2138 2203 2085 2138 2200 2127 2107 2174 2138 2091 2169 2110 2185 2327 2172 2150 2198 2144 2105 2098 2157 2213 2121 2168 2189 2159 2175 2153 2079 2126 2197 2081 2070 2062 2169 2013 2151 2190 2069 2211 2192 2172 2069 2036 2172 2248 2046 2103 2216 2078 2140 2100 2138 2199 2048 2109 2186 2176 2053 2255 2239 2154 2122 2142 2107 2145 2080 1993 2099 2195 2151 2175 2167 2112 2189 2085 2117 2096 2180 2127 2147 2113 2123 2146 2087 2070 2123 2077 2139 2164 2064 2050 2176 2147 2125 2056 2136 2083 2181 2127 2158 2137 2138 2144 2081 2112 2113 2202 2219 2137 2195 2112 2142 2074 2129 2230 2094 2124 2148 2169 2169 2137 2193 2169 2116 2034 2131 2087 2202 2172 2185 2226 2216 2171 2187 2157 2136 2170 2119 2125 2133 2209 2164 2194 2096 2133 2189 2207 2146 2183 2226 2180 2065 2173 2194 2176 2178 2248 2167 2231 2123 2237 2191 2118 2161 2202 2200 2185 2230 2316 2195 2187 2212 2248 2300 2236 2298 2249 2268 2326 2329 2191 2278 2169 2230 2279 2278 2257 2094 2225 2298 2208 2180 2229 2229 2211 2240 2189 2216 2145 2161 2175 2200 2139 2173 2084 2133 2223 2108 2104 2191 2144 2223 2242 2288 2148 2170 2066 2171 2108 2145 2090 2130 2172 2161 2217 2101 2213 2106 2118 2048 2118 2149 2128 2072 2104 2183 2123 2207 2040 2168 2103 2086 2068 2095 2048 2075 2135 2139 1990 2074 2092 2084 2174 2121 2149 2164 2178 2105 2096 2048 2200 2061 2107 2114 2050 2115 2164 2093 2133 2116 2076 2214 2144 2098 2134 2142 2056 2112 2179 2214 2083 2054 2142 2153 2143 2009 2110 2081 2062 2106 2112 2086 2140 2118 2177 2082 2184 2126 2090 2062 2046 2137 2102 2048 2129 2183 2145 2094 2041 2139 2087 2133 2110 2059 2054 2072 2104 2035 2192 2079 2044 2109 2096 2132 2093 2152 2133 2110 2046 2100 2135 2124 2149 2151 2088 2150 2055 2145 2134 2100 2070 2061 2128 2055 2088 2114 2106 2005 2126 2028 2158 2202 2115 2087 2157 2121 2054 2061 2184 2088 2143 2010 2148 2126 2162 2112 2156 2088 2080 2066 2103 2126 2074 2109 2099 2074 2155 2067 2049 2203 2132 2070 2129 2129 2189 2076 2116 2079 2109 2158 2163 2132 2131 2185 2078 2164 2157 2227 2062 2134 2107 2132 2046 2080 2114 2153 2132 2127 2174 2116 2094 2161 2142 2197 2148 2248 2247 2109 2237 2210 2169 2184 2202 2198 2239 2284 2160 2248 2307 2215 2214 2212 2240 2292 2284 2240 2221 2294 2326 2230 2277 2267 2146 2177 2211 2285 2216 2211 2161 2223 2234 2053 2172 2149 2181 2281 2248 2284 2157 2156 2221 2171 2195 2258 2271 2240 2111 2160 2212 2228 2253 2147 2180 2131 2150 2352 2207 2171 2185 2106 2147 2143 2100 2182 2123 2124 2147 2223 2206 2199 2124 2135 2146 2140 2209 2244 2127 2147 2203 2155 2233 2160 2187 2194 2306 2267 2274 2257 2241 2251 2250 2270 2249 2305 2191 2178 2256 2158 2291 2265 2307 2163 2238 2339 2202 2238 2227 2256 2292 2180 2245 2275 2254 2268 2220 2243 2165 2201 2191 2240 2163 2217 2226 2192 2157 2124 2183 2151 2153 2126 2154 2198 2108 2039 2152 2134 2070 2165 2070 2067 2101 2086 2095 2156 2004 2092 2080 2106 2135 2074 2134 2065 2176 2132 2097 2110 2101 2135 2090 2188 2111 2070 2058 2059 2158 2140 2147 2084 2068 2149 2141 2051 2099 2060 2087 2099 2074 2104 2155 2100 2185 2121 2114 2080 2058 2124 2106 2091 2124 2174 2116 2065 2049 2094 2112 2182 2160 2088 2157 2115 2048 2056 2086 2140 2018 2109 2103 2072 2098 2108 2105 2135 2100 2112 2033 2086 2161 2217 2172 2075 2037 2032 2057 2104 2058 2073 2133 2119 2065 2132 2071 1984 2012 2078 2133 2073 2094 2136 2141 2058 2126 2136 2070 2148 2023 2147 2172 2111 2046 2073 2103 2131 2125 2085 2103 2080 2094 2131 2037 2070 2122 2138 2079 2148 2128 2085 2224 2045 2138 2056 2070 2021 2073 2177 2150 2107 2138 2081 2121 2105 2076 2066 2095 2108 2194 2066 2136 2067 2056 2077 2092 2093 2141 2055 2101 2126 2063 2022 2089 2129 2095 2105 2113 2129 2086 2097 2116 2139 2037 2141 2109 2094 2079 2187 2165 2123 2049 2098 2150 2225 2073 2146 2108 2185 2183 2046 2172 2129 2099 2076 2135 2073 2123 2188 2072 2115 2145 2152 2057 2053 2089 2136 2202 2171 2033 2178 2052 2102 2041 2232 2108 2179 2088 2162 2120 2098 2190 2170 2092 2131 2153 2121 2108 2111 2029 2135 2146 2066 2152 2151 2068 2090 2086 2142 2163 2109 2178 2153 2142 2230 2088 2097 2108 2176 2195 2136 2093 2115 2045 1991 2119 2042 2110 2152 2123 2164 2077 2132 2037 2134 2151 2144 2103 2161 2219 2177 2127 2108 2087 2077 2021 2138 2071 2060 2114 2128 2060 2068 2139 2045 2136 2143 2106 2105 2118 2122 2081 2101 2108 2137 2054 2090 2134 2073 2113 2090 2202 2030 2154 2142 2124 2052 2074 2053 2138 2134 2072 2110 2089 2063 2133 2115 2132 2064 2142 2037 2063 2139 2099 2081 2127 2096 2147 2081 2072 2163 2081 2119 2163 2123 2150 2113 2147 2178 2140 2164 2040 2075 2202 2132 2135 2038 2079 2039 2142 2087 2086 2106 2190 2129 2048 2152 2079 2123 2125 2132 2132 2117 2121 2126 2042 2206 2107 2050 2105 2124 2038 2136 2083 2124 2144 2086 2125 2119 2132 2127 2185 2119 2092 2035 2084 2132 2063 2127 2121 2041 2126 2145 2122 2087 2055 2147 2084 2103 2131 2153 2167 2137 2028 2159 2141 2106 2158 2128 2103 2085 2091 2172 2150 2103 2099 2062 2121 2048 2102 2108 2156 2034 2200 2056 2144 2190 2076 2109 2132 2124 2089 2082 2118 2077 2084 2160 2113 2083 2186 2218 2104 2061 2082 2130 2193 2142 2030 2109 2065 2111 2168 2101 2085 2098 2187 2233 2104 2118 2089 2069 2130 2189 2070 2046 2088 2143 2113 2179 2104 2176 2036 2185 2133 2112 2127 2132 2084 2157 2026 2068 2097 2231 2188 2083 2071 2183 2157 2095 2114 2095 2128 2141 2159 1990 2175 2137 2163 2068 2086 2121 2056 2115 2167 2089 2121 2066 2126 2138 2042 2143 2192 2121 2082 2143 1983 2156 2138 2068 2082 2123 2020 2113 2154 2147 2093 2082 2019 2057 2133 2112 2175 2105 2109 2110 2118 2138 2187 2112 2123 2100 2111 2092 2186 2066 2186 2129 2112 2077 2070 2118 2107 2077 2164 2153 2158 2153 2172 2106 2102 2142 2102 2106 2188 2169 2167 2176 2175 2080 2119 2146 2214 2098 2135 2196 2211 2151 2148 2218 2199 2147 2163 2276 2107 2137 2210 2197 2256 2160 2229 2225 2173 2226 2270 2205 2146 2209 2186 2229 2196 2128 2309 2193 2169 2232 2180 2224 2176 2232 2235 2262 2126 2217 2150 2210 2278 2245 2230 2122 2256 2221 2200 2229 2210 2196 2142 2205 2166 2285 2192 2141 2208 2139 2259 2230 2254 2240 2245 2180 2170 2195 2229 2172 2265 2200 2236 2144 2148 2209 2234 2209 2174 2193 2213 2174 2170 2183 2155 2294 2209 2229 2224 2197 2235 2229 2193 2251 2178 2250 2192 2233 2238 2129 2260 2078 2199 2129 2140 2181 2210 2162 2203 2189 2127 2133 2172 2172 2188 2183 2172 2079 2214 2188 2169 2218 2153 2071 2156 2080 2147 2041 2114 2148 2149 2128 2058 2064 2175 2127 2121 2155 2152 2142 2046 2026 2288 2037 2050 2132 2112 2114 2181 2092 2126 2191 2158 2118 2093 2067 2061 2175 2160 2134 2184 2151 2159 2146 2211 2231 2090 2195 2124 2195 2135 2033 2185 2092 2180 2211 2171 2138 2245 2166 2215 2205 2343 2284 2260 2277 2266 2186 2161 2192 2351 2148 2209 2280 2246 2248 2218 2237 2134 2176 2164 2116 2167 2168 2132 2149 2180 2046 2194 2193 2168 2253 2202 2254 2265 2171 2140 2261 2170 2131 2126 2200 2208 2084 2159 2136 2161 2154 2146 2186 2200 2174 2206 2141 2119 2235 2212 2161 2052 2171 2153 2153 2207 2095 2152 2194 2095 2177 2176 2122 2132 2212 2288 2176 2236 2207 2223 2205 2268 2180 2271 2217 2239 2294 2241 2211 2137 2252 2150 2300 2271 2231 2275 2351 2286 2426 2362 2368 2370 2371 2404 2453 2382 2484 2497 2482 2360 2316 2430 2466 2317 2384 2470 2370 2481 2413 2449 2380 2433 2361 2361 2512 2466 2382 2416 2359 2256 2415 2267 2335 2418 2442 2280 2414 2386 2426 2291 2258 2214 2446 2302 2313 2269 2338 2312 2302 2334 2273 2373 2323 2349 2327 2406 2273 2282 2335 2297 2409 2363 2407 2508 2398 2380 2412 2471 2404 2390 2426 2461 2421 2424 2421 2369 2443 2453 2379 2437 2354 2267 2353 2397 2281 2397 2376 2328 2319 2309 2323 2294 2389 2373 2336 2330 2342 2289 2367 2305 2315 2291 2336 2272 2293 2299 2241 2242 2259 2229 2344 2222 2218 2231 2336 2245 2305 2307 2294 2231 2242 2291 2237 2247 2190 2290 2304 2234 2259 2256 2212 2230 2264 2216 2223 2297 2165 2092 2161 2197 2217 2166 2245 2276 2179 2154 2200 2220 2255 2225 2138 2204 2228 2244 2216 2221 2190 2197 2065 2216 2214 2236 2259 2164 2148 2195 2167 2142 2205 2145 2178 2130 2237 2165 2218 2225 2233 2162 2187 2187 2160 2165 2233 2189 2105 2164 2128 2201 2168 2177 2190 2231 2145 2214 2260 2177 2167 2151 2136 2155 2155 2195 2168 2145 2093 2138 2197 2170 2234 2106 2161 2136 2186 2080 2145 2133 2149 2182 2226 2203 2159 2142 2119 2205 2075 2190 2233 2182 2175 2228 2169 2201 2097 2146 2126 2080 2231 2202 2215 2177 2192 2211 2214 2155 2166 2220 2129 2177 2201 2175 2251 2126 2215 2217 2124 2171 2106 2169 2215 2143 2167 2179 2203 2157 2188 2178 2153 2177 2140 2205 2234 2195 2193 2117 2140 2172 2131 2176 2187 2139 2183 2164 2155 2096 2161 2148 2166 2082 2137 2032 2053 2247 2166 2133 2208 2165 2112 2170 2144 2160 2210 2125 2113 2152 2154 2220 2091 2211 2073 2180 2264 2080 2102 2211 2115 2155 2133 2123 2132 2188 2098 2227 2197 2193 2194 2073 2117 2082 2212 2172 2074 2219 2165 2151 2188 2122 2168 2182 2175 2109 2168 2167 2159 2096 2208 2110 2228 2136 2105 2229 2130 2162 2143 2173 2182 2260 2136 2163 2115 2164 2230 2155 2248 2176 2223 2197 2151 2190 2193 2070 2328 2186 2233 2122 2156 2098 2202 2127 2181 2233 2160 2203 2160 2147 2278 2168 2197 2191 2166 2186 2237 2149 2168 2127 2099 2068 2153 2148 2119 2079 2131 2136 2135 2143 2164 2090 2144 2114 2176 2139 2105 2035 2042 2059 2122 2108 2148 2181 2131 2085 2123 2041 2104 2165 2142 2188 2087 2129 2105 2118 2122 2118 2160 2110 2090 2112 2124 2041 2099 2118 2120 2222 2116 2136 2223 2133 2144 2131 2135 2090 2066 2172 2133 2184 2081 2182 2095 2155 2125 2203 2074 2134 2046 2110 2221 2232 2127 2164 2111 2140 2139 2034 2174 2122 2100 2092 2128 2152 2120 2154 2147 2090 2165 2053 2153 2132 2104 1987 2048 2092 2055 2185 2185 2051 2120 2185 2137 2130 2058 2172 2085 2177 2037 2139 2008 2180 2146 2158 2076 2161 2057 2137 2129 2116 2212 2132 2100 2092 2167 2055 2202 2115 2139 2184 2094 2073 2155 2113 2107 2143 2191 2175 2245 2107 2214 2140 2054 2123 2110 2096 2131 2111 2163 2115 2202 2203 2174 2106 2130 2184 1977 2027 2198 2100 2176 2052 2134 2108 2145 2128 2093 2142 2040 2057 2121 2178 2129 2096 2138 2131 2090 2171 2129 2136 2060 2094 2151 2020 2120 2056 2120 2101 2152 2160 2129 2184 2126 2295 2174 2149 2123 2134 2164 2123 2102 2187 2131 2089 2177 2070 2088 2061 2103 2148 2173 2122 2091 2085 2114 2077 2036 2108 2165 2107 2172 2160 2154 2070 2110 2115 2091 2121 2119 2131 2117 2119 2164 2166 2165 2135 2113 2065 2179 2127 2119 2179 2121 2116 2153 2045 2105 2161 2126 2134 2167 2141 2229 2169 2291 2155 2224 2179 2221 2175 2228 2236 2098 2176 2281 2178 2148 2079 2093 2208 2116 2199 2118 2200 2170 2166 2171 2151 2084 2064 2170 2133 2189 2173 2234 2170 2040 2231 2220 2229 2192 2168 2128 2162 2173 2177 2186 2064 2190 2165 2211 2103 2104 2105 2089 2145 2156 2150 2153 2117 2116 2165 2250 2103 2179 2155 2148 2085 2049 2100 2166 2115 2068 2141 2195 2192 2108 2138 2104 2099 2223 2126 2184 2171 2208 2087 2211 2083 2166 2039 2138 2175 2128 2121 2185 2129 2207 2174 2136 2178 2202 2121 2161 2150 2127 2220 2130 2165 2208 2079 2070 2134 2153 2179 2182 2100 2136 2097 2223 2097 2196 2111 2117 2128 2132 2162 2197 2189 2076 2177 2223 2121 2147 2161 2112 2152 2152 2194 2222 2172 2137 2115 2117 2209 2102 2138 2203 2213 2021 2163 2179 2078 2124 2167 2112 2080 2149 2173 2227 2103 2161 2208 2164 2084 2144 2071 2129 2166 2175 2170 2095 2141 2144 2097 2140 2158 2123 2116 2009 2158 2125 2103 2156 2082 2148 2171 2087 2189 2191 2086 2154 2117 2217 2151 2034 2184 2080 2110 2015 2168 2141 2128 2194 2113 2102 1996 2147 2090 2049 2061 2104 2075 2126 2121 2128 2214 2187 2077 2071 2197 2094 2143 2142 2084 2105 2124 2161 2144 2098 2066 2153 2121 2082 2109 2140 2077 2060 1999 2113 2104 2105 2116 2121 2222 2129 2176 2151 2146 2137 2104 2164 2116 2102 2119 2259 2180 2164 2213 2145 2163 2189 2143 2102 2197 2046 2138 2200 2106 2097 2154 2058 2125 2122 2198 2185 2161 2150 2261 2203 2117 2245 2186 2235 2274 2232 2170 2183 2203 2173 2263 2192 2264 2131 2162 2249 2202 2269 2253 2261 2170 2195 2277 2212 2267 2141 2230 2179 2211 2358 2281 2329 2278 2220 2245 2315 2323 2329 2268 2361 2302 2272 2288 2331 2264 2228 2356 2249 2305 2299 2257 2341 2332 2278 2388 2291 2292 2349 2336 2267 2277 2285 2328 2309 2310 2287 2333 2292 2241 2353 2265 2231 2275 2320 2307 2347 2310 2273 2325 2287 2337 2312 2410 2295 2242 2255 2229 2352 2242 2363 2372 2356 2322 2322 2262 2233 2150 2297 2280 2272 2232 2245 2326 2203 2316 2217 2273 2236 2324 2376 2300 2243 2282 2321 2313 2234 2204 2212 2151 2220 2253 2246 2287 2314 2301 2255 2174 2214 2177 2239 2250 2246 2273 2293 2194 2240 2209 2230 2318 2180 2276 2330 2343 2300 2369 2271 2239 2295 2251 2180 2306 2183 2224 2266 2260 2356 2269 2266 2210 2162 2204 2210 2209 2453 2266 2308 2125 2206 2303 2242 2256 2203 2205 2242 2264 2237 2177 2235 2160 2197 2262 2171 2198 2100 2180 2202 2174 2247 2172 2121 2140 2130 2047 2133 2150 2235 2134 2146 2209 2191 2157 2077 2162 2156 2131 2084 2205 2164 2138 2153 2096 2261 2171 2127 2080 2146 2110 2138 2230 2112 2187 2088 2154 2108 2123 2100 2205 2158 2109 2155 2102 2155 2206 2128 2188 2167 2143 2181 2119 2161 2104 2181 2120 2158 2180 2156 2189 2224 2109 2025 2108 2165 2132 2068 2144 2058 2090 2145 2173 2174 2121 2125 2068 2156 2121 2096 2210 2145 2103 2284 2149 2159 2166 2222 2228 2155 2095 2182 2218 2081 2122 2147 2163 2103 2079 2091 2166 2183 2102 2221 2148 2102 2140 2129 2246 2170 2157 2122 2182 2281 2201 2142 2180 2183 2160 2255 2213 2165 2181 2152 2199 2152 2187 2167 2178 2216 2131 2189 2189 2162 2181 2180 2172 2219 2157 2123 2249 2205 2162 2160 2231 2092 2167 2094 2176 2172 2196 2174 2273 2196 2176 2230 2182 2187 2184 2237 2271 2141 2175 2254 2123 2163 2199 2125 2054 2183 2212 2093 2092 2191 2162 2125 2144 2236 2179 2164 2104 2154 2192 2085 2209 2078 2157 2149 2172 2122 2205 2193 2089 2174 2146 2133 2141 2115 2164 2253 2101 2100 2147 2079 2168 2122 2089 2107 2059 2151 2142 2138 2136 2181 2100 2162 2136 2205 2166 2094 2152 2073 2014 2093 2129 2132 2122 2097 2060 2127 2181 2073 2067 2095 2136 2078 2123 2219 2056 2099 2174 2110 2137 2128 2061 2065 2149 2123 2155 2081 2080 2103 2167 2182 2219 2107 2230 2103 2149 2101 2155 2119 2018 2116 2204 2120 2138 2103 2130 2147 2144 2114 2136 2170 2052 2137 2111 2178 2144 2156 2060 2125 2051 2165 2120 2139 2179 2075 2142 2078 2122 2146 2200 2121 2195 2178 2142 2125 2074 2093 2127 2054 2213 2085 2096 2108 2125 2015 2104 2023 2079 2045 2110 2114 2199 2054 2231 2180 2077 2133 2191 2195 2178 2137 2070 2167 2090 2156 2111 2138 2170 2057</counts>
			</dataPoints>
		</scan>
	</xrdMeasurement>
</xrdMeasurements>
