<?xml version="1.0"?>
<xrdMeasurements xmlns="http://www.xrdml.com/XRDMeasurement/2.3" xmlns:xsi="http://www.w3.org/2001/XMLSchema-instance" xsi:schemaLocation="http://www.xrdml.com/XRDMeasurement/2.3 http://www.xrdml.com/XRDMeasurement/2.3/XRDMeasurement.xsd" status="Completed" recordIdentifier="{BD28DD7A-2B77-4C34-841D-A727BBEEC71D}">
	<comment>
		<entry/>
	</comment>
	<sample type="To be analyzed">
		<id>GPSS_Li1p4Mg0p8Ta0p2Cl4_110125_690658b7e3432ed06b655f32</id>
		<name></name>
		<preparedBy></preparedBy>
	</sample>
	<xrdMeasurement measurementType="Scan" status="Completed" sampleMode="Reflection">
		<usedWavelength intended="K-Alpha 1">
			<kAlpha1 unit="Angstrom">1.5405980</kAlpha1>
			<kAlpha2 unit="Angstrom">1.5444260</kAlpha2>
			<kBeta unit="Angstrom">1.3922500</kBeta>
			<ratioKAlpha2KAlpha1>0.5000</ratioKAlpha2KAlpha1>
		</usedWavelength>
		<incidentBeamPath>
			<radius unit="mm">145.00</radius>
			<xRayTube id="1010048" name="Empyrean Cu LFF HR (9430 033 7310x)">
				<tension unit="kV">40.0</tension>
				<current unit="mA">15.0</current>
				<anodeMaterial>Cu</anodeMaterial>
				<focus type="Line">
					<length unit="mm">12.0</length>
					<width unit="mm">0.4</width>
					<takeOffAngle unit="deg">6.0</takeOffAngle>
				</focus>
			</xRayTube>
			<sollerSlit id="21010002" name="Soller slits 0.04 rad.">
				<opening unit="rad">0.0400</opening>
			</sollerSlit>
			<mask id="22031000" name="Fixed mask 13 mm">
				<width unit="mm">9.00</width>
			</mask>
			<divergenceSlit id="22120001" name="Divergence slit 1°" xsi:type="fixedDivergenceSlitType">
				<distanceToSample unit="mm">50.00</distanceToSample>
				<height unit="mm">1.52</height>
			</divergenceSlit>
		</incidentBeamPath>
		<sampleMovement xsi:type="spinningSampleMovementType">
			<spinnerRevolutionTime unit="seconds">1.0</spinnerRevolutionTime>
		</sampleMovement>
		<diffractedBeamPath>
			<radius unit="mm">145.00</radius>
			<antiScatterSlit id="22090040" name="AS slit 9 mm (PIXcel)" xsi:type="fixedAntiScatterSlitType">
				<height unit="mm">9.00</height>
			</antiScatterSlit>
			<sollerSlit id="21020003" name="Large Soller slits 0.04 rad.">
				<opening unit="rad">0.0400</opening>
			</sollerSlit>
			<filter id="20030001" name="Large beta-filter Nickel">
				<material>Ni</material>
				<thickness unit="mm">0.020</thickness>
			</filter>
			<detector id="7010019" name="PIXcel1D-Medipix3 detector" xsi:type="rtmsDetectorType">
				<phd unit="keV">
					<lowerLevel>4.02</lowerLevel>
					<upperLevel>11.27</upperLevel>
				</phd>
				<mode>Scanning</mode>
				<activeLength unit="deg">5.542</activeLength>
			</detector>
		</diffractedBeamPath>
		<scan appendNumber="0" mode="Continuous" scanAxis="Gonio" status="Completed">
			<header>
				<startTimeStamp>2025-11-03T13:35:52-08:00</startTimeStamp>
				<endTimeStamp>2025-11-03T13:43:59-08:00</endTimeStamp>
				<author>
					<name>AutomatedUser</name>
				</author>
				<source>
					<applicationSoftware version="1.7b (136)">PANalytical Aeris Instrument Suite</applicationSoftware>
					<instrumentControlSoftware version="3.2.00000000 20240306">AERIS</instrumentControlSoftware>
					<instrumentID>950485</instrumentID>
				</source>
			</header>
			<dataPoints>
				<positions axis="2Theta" unit="deg">
					<startPosition>10.00943322</startPosition>
					<endPosition>99.99442286</endPosition>
				</positions>
				<positions axis="Omega" unit="deg">
					<startPosition>5.00471661</startPosition>
					<endPosition>49.99721143</endPosition>
				</positions>
				<commonCountingTime unit="seconds">12.495</commonCountingTime>
				<counts unit="counts">2897 2955 2937 2978 2950 2988 2967 2959 2910 2851 2993 2975 2932 2889 3004 2964 2921 3021 2939 3108 2931 3002 3015 2958 2960 2968 3050 2995 3079 2885 3093 2972 3110 3019 3042 2964 3081 3037 2966 2914 2988 2983 2963 3109 3055 3018 3089 3002 3099 3086 3090 3075 3055 3057 3046 3015 3132 3041 3099 3061 3155 3122 3045 3096 3071 3158 3028 3079 3077 3084 3071 2998 3074 3113 3072 3030 3047 3135 3168 3088 3083 3079 3114 3075 3060 3231 3149 3185 3131 3206 3184 3219 3196 3234 3168 3197 3185 3152 3277 3171 3126 3152 3193 3284 3124 3266 3203 3233 3204 3300 3188 3217 3238 3295 3213 3352 3181 3277 3313 3231 3340 3211 3255 3227 3328 3288 3250 3332 3295 3303 3317 3330 3340 3299 3299 3317 3274 3406 3202 3327 3471 3361 3362 3256 3334 3304 3360 3319 3346 3346 3266 3358 3360 3359 3331 3342 3389 3251 3338 3274 3348 3422 3430 3432 3323 3337 3379 3355 3441 3265 3409 3394 3317 3367 3388 3354 3393 3378 3288 3426 3362 3252 3298 3288 3445 3281 3416 3320 3382 3447 3308 3360 3394 3269 3398 3295 3365 3358 3374 3449 3291 3328 3420 3251 3356 3250 3332 3267 3311 3450 3273 3365 3279 3326 3227 3427 3302 3379 3357 3266 3343 3399 3285 3212 3350 3299 3450 3359 3269 3241 3373 3158 3301 3261 3295 3384 3209 3131 3264 3290 3322 3235 3327 3182 3261 3232 3291 3350 3285 3224 3316 3290 3227 3237 3320 3195 3298 3232 3256 3270 3328 3214 3268 3232 3277 3240 3133 3282 3233 3229 3274 3124 3237 3228 3167 3180 3226 3337 3338 3252 3235 3190 3315 3251 3348 3322 3315 3228 3305 3196 3153 3233 3234 3319 3185 3244 3204 3227 3354 3231 3184 3350 3286 3358 3310 3273 3252 3334 3236 3324 3320 3276 3242 3311 3266 3216 3314 3298 3327 3334 3265 3287 3297 3287 3289 3288 3345 3315 3425 3271 3315 3366 3269 3384 3439 3283 3318 3250 3427 3335 3296 3374 3376 3362 3436 3381 3391 3356 3416 3288 3374 3392 3434 3471 3412 3339 3406 3410 3469 3397 3344 3463 3443 3434 3283 3506 3444 3495 3417 3468 3512 3406 3445 3486 3540 3410 3432 3454 3470 3582 3521 3434 3612 3493 3569 3391 3616 3437 3546 3559 3518 3502 3587 3624 3455 3600 3494 3553 3550 3584 3643 3599 3514 3584 3655 3604 3611 3641 3679 3672 3634 3653 3717 3691 3711 3731 3709 3698 3712 3823 3822 3800 4025 3913 3846 3799 3845 3951 3850 3833 3886 3916 3946 3875 4068 4162 4045 4072 4265 4169 4171 4342 4377 4544 4597 4467 4714 4756 4661 4888 4742 4825 4572 4649 4715 4568 4522 4669 4541 4443 4495 4469 4442 4603 4512 4428 4505 4520 4604 4640 4466 4707 4566 4669 4513 4624 4605 4682 4598 4514 4552 4517 4476 4550 4506 4528 4590 4459 4519 4502 4419 4419 4349 4315 4317 4186 4210 4093 4015 3834 3884 3810 3748 3674 3630 3579 3572 3541 3509 3495 3468 3390 3287 3264 3355 3236 3399 3317 3361 3407 3242 3326 3238 3277 3201 3231 3268 3278 3210 3323 3244 3286 3349 3231 3147 3273 3153 3272 3162 3100 3138 3236 3151 3152 3259 3093 3175 3172 3160 3217 3299 3162 3143 3063 3164 3067 3123 3116 3083 3067 3156 3163 3075 3077 2962 3084 3150 3108 3074 3048 3040 3003 3128 3028 2950 3003 2988 3027 3009 3052 3076 3005 2899 2924 3050 3006 2912 2981 2931 2994 2909 2985 2935 2930 2909 2896 2868 2972 2995 2879 2895 3009 3030 2973 2906 2901 2983 2872 2870 2913 2972 2972 2895 2937 2883 2968 2861 2894 2907 2835 2841 2767 2813 2891 2880 2834 2877 2783 2857 2860 2885 2821 2836 2776 3000 2792 2888 2898 2916 2902 2960 2787 2898 2849 2843 2811 2968 2880 2753 2836 2828 2785 2878 2851 2758 2836 2818 2848 2806 2816 2764 2718 2689 2879 2862 2727 2789 2775 2745 2734 2794 2777 2784 2774 2848 2797 2790 2708 2708 2731 2689 2681 2736 2669 2757 2792 2663 2800 2782 2675 2723 2703 2752 2726 2677 2762 2731 2765 2746 2740 2683 2727 2747 2687 2752 2679 2625 2779 2720 2675 2683 2731 2757 2681 2701 2643 2767 2663 2702 2680 2705 2725 2620 2726 2680 2636 2632 2681 2664 2668 2771 2695 2662 2664 2638 2625 2681 2653 2738 2699 2708 2790 2701 2730 2662 2678 2681 2681 2595 2750 2563 2624 2695 2600 2624 2594 2609 2686 2611 2643 2645 2598 2528 2579 2664 2649 2711 2625 2555 2616 2642 2580 2637 2550 2517 2637 2586 2588 2582 2622 2656 2633 2612 2559 2604 2566 2552 2532 2549 2572 2613 2595 2577 2535 2601 2603 2624 2526 2573 2537 2595 2561 2590 2630 2583 2503 2490 2640 2598 2570 2505 2585 2587 2533 2602 2675 2522 2652 2561 2515 2422 2423 2445 2557 2562 2517 2507 2547 2537 2527 2495 2447 2477 2590 2484 2527 2542 2461 2600 2476 2623 2468 2506 2519 2536 2493 2480 2553 2501 2473 2485 2511 2443 2497 2438 2597 2456 2511 2489 2431 2491 2431 2432 2484 2440 2431 2554 2438 2570 2437 2333 2510 2510 2544 2460 2437 2411 2416 2431 2405 2582 2449 2334 2473 2462 2474 2538 2388 2461 2433 2403 2421 2393 2441 2397 2424 2451 2440 2402 2425 2409 2502 2486 2451 2373 2419 2361 2640 2383 2445 2447 2404 2420 2495 2398 2362 2365 2414 2441 2382 2385 2391 2497 2467 2430 2392 2450 2381 2499 2411 2274 2373 2351 2350 2419 2323 2410 2370 2436 2456 2301 2375 2359 2400 2361 2348 2330 2433 2360 2294 2418 2401 2330 2390 2344 2350 2395 2372 2331 2394 2344 2287 2270 2464 2249 2304 2325 2415 2373 2339 2329 2419 2451 2291 2232 2309 2322 2389 2344 2274 2409 2272 2351 2356 2349 2389 2462 2323 2318 2395 2299 2334 2290 2313 2320 2377 2283 2315 2282 2328 2240 2306 2285 2269 2338 2349 2392 2260 2304 2377 2189 2272 2283 2381 2336 2362 2320 2312 2277 2373 2299 2380 2358 2301 2369 2284 2320 2407 2319 2423 2372 2502 2420 2345 2301 2329 2285 2365 2274 2367 2276 2297 2276 2376 2339 2384 2268 2266 2289 2431 2380 2287 2391 2332 2398 2297 2315 2377 2348 2349 2334 2383 2250 2355 2359 2357 2335 2283 2356 2373 2456 2302 2323 2341 2227 2270 2278 2379 2339 2399 2327 2330 2286 2296 2373 2299 2253 2301 2345 2278 2232 2290 2258 2356 2301 2294 2310 2365 2377 2345 2306 2253 2382 2244 2364 2322 2278 2336 2254 2342 2324 2338 2282 2244 2246 2305 2341 2193 2336 2365 2249 2288 2108 2220 2310 2262 2322 2223 2282 2157 2287 2186 2243 2377 2291 2286 2258 2195 2302 2326 2210 2373 2283 2220 2218 2338 2241 2298 2247 2302 2248 2307 2237 2255 2264 2238 2194 2295 2233 2183 2149 2150 2228 2135 2220 2135 2166 2264 2152 2291 2151 2086 2074 2188 2067 2121 2120 2143 2137 2135 2027 2054 2044 2167 2119 2104 2060 2018 1977 1974 1985 2061 2025 2024 2081 2010 2043 1958 2074 2002 1989 2062 2058 1949 1953 1947 1996 2003 1984 1941 1922 1967 1934 1899 1976 1944 1977 1821 1977 1970 1872 1935 1906 1995 1956 1948 1935 1935 1916 1862 1852 1815 1932 1836 1901 1942 1977 1897 1900 1850 1883 1874 1848 1880 1806 1822 1827 1826 1885 1846 1792 1857 1821 1814 1849 1784 1800 1849 1806 1809 1859 1872 1770 1749 1743 1743 1841 1772 1835 1785 1893 1866 1839 1790 1805 1793 1775 1627 1737 1732 1743 1715 1689 1726 1692 1741 1703 1725 1740 1735 1776 1823 1798 1773 1804 1741 1763 1677 1632 1692 1637 1709 1732 1663 1611 1764 1651 1711 1669 1678 1650 1752 1732 1707 1658 1702 1629 1665 1683 1713 1701 1683 1697 1694 1655 1659 1684 1728 1711 1711 1710 1680 1660 1651 1624 1687 1710 1698 1637 1609 1687 1555 1688 1628 1629 1678 1605 1672 1631 1648 1641 1614 1671 1651 1651 1604 1650 1710 1671 1629 1682 1668 1604 1609 1661 1621 1571 1686 1648 1594 1627 1688 1658 1657 1580 1694 1643 1655 1570 1693 1617 1658 1607 1626 1510 1608 1623 1632 1655 1632 1632 1698 1656 1616 1661 1614 1682 1555 1627 1576 1606 1622 1649 1673 1576 1538 1528 1637 1609 1569 1646 1608 1584 1663 1663 1602 1626 1616 1661 1675 1619 1663 1641 1690 1652 1603 1619 1588 1717 1749 1724 1641 1665 1745 1765 1611 1679 1678 1669 1653 1619 1606 1694 1649 1713 1647 1730 1594 1725 1726 1666 1631 1651 1679 1598 1691 1631 1611 1690 1635 1672 1631 1686 1646 1668 1720 1642 1744 1532 1612 1623 1648 1685 1631 1644 1698 1625 1598 1669 1634 1663 1638 1648 1574 1626 1595 1616 1604 1604 1700 1607 1549 1551 1554 1555 1663 1561 1616 1597 1554 1657 1583 1485 1629 1583 1655 1571 1564 1563 1712 1562 1525 1620 1591 1629 1636 1489 1500 1601 1524 1596 1597 1612 1694 1588 1596 1622 1513 1630 1532 1596 1585 1513 1587 1503 1522 1601 1613 1526 1649 1497 1525 1531 1579 1485 1652 1599 1489 1474 1493 1503 1448 1567 1478 1561 1554 1522 1536 1506 1449 1497 1479 1467 1449 1423 1422 1483 1491 1447 1480 1461 1436 1465 1391 1467 1437 1452 1444 1440 1428 1398 1463 1478 1434 1406 1423 1447 1398 1466 1427 1456 1389 1443 1402 1450 1338 1412 1359 1368 1383 1446 1379 1365 1312 1367 1357 1358 1318 1342 1361 1344 1349 1307 1406 1352 1345 1341 1302 1267 1296 1367 1375 1378 1371 1310 1318 1297 1301 1267 1311 1283 1312 1318 1370 1291 1283 1320 1218 1283 1293 1282 1322 1317 1361 1325 1250 1220 1359 1282 1348 1263 1306 1248 1286 1295 1307 1339 1245 1249 1320 1226 1282 1263 1288 1208 1304 1242 1201 1261 1245 1339 1259 1228 1282 1210 1328 1269 1283 1247 1257 1366 1262 1314 1278 1302 1314 1317 1347 1370 1259 1268 1352 1322 1289 1361 1263 1208 1275 1319 1342 1386 1240 1315 1312 1289 1326 1357 1335 1291 1323 1356 1406 1307 1362 1376 1302 1339 1363 1304 1329 1329 1325 1250 1275 1297 1254 1264 1254 1275 1267 1258 1231 1209 1194 1186 1240 1206 1274 1151 1295 1227 1205 1138 1250 1201 1275 1197 1206 1218 1225 1234 1225 1201 1180 1190 1196 1310 1241 1145 1207 1201 1237 1201 1250 1230 1297 1210 1294 1273 1339 1231 1246 1233 1309 1311 1270 1245 1349 1391 1357 1274 1331 1324 1350 1436 1430 1501 1629 1565 1587 1640 1799 1909 1987 2142 2315 2385 2566 2703 2826 2933 2873 3020 2970 3051 2961 2927 2949 2788 2826 2812 2717 2870 2775 2782 2761 2872 2761 2854 2991 2883 2980 2941 3050 3067 3196 3276 3318 3465 3431 3501 3521 3793 3812 3936 3936 4034 4021 3916 3868 3813 3587 3555 3427 3376 3273 3130 3039 2915 2865 2720 2784 2645 2570 2548 2498 2322 2370 2364 2396 2266 2240 2173 2232 2195 2210 2095 2126 2113 2078 2028 2048 2027 2006 2012 1985 1960 1855 1781 1815 1788 1641 1636 1653 1670 1586 1613 1569 1568 1574 1517 1476 1401 1480 1443 1460 1378 1321 1344 1303 1364 1275 1264 1270 1259 1263 1203 1163 1131 1084 1064 1099 1054 1065 1042 1021 1006 945 990 1044 969 997 975 924 971 996 970 950 948 964 955 950 985 981 961 887 934 933 932 945 910 909 950 973 859 984 960 991 958 994 885 978 948 991 895 920 866 921 915 945 928 938 912 911 876 894 871 847 875 854 917 896 916 878 901 894 871 884 909 860 900 908 863 845 934 821 877 860 869 855 936 906 837 855 904 868 911 882 882 865 886 880 874 877 878 850 862 867 941 835 868 848 888 902 866 842 841 900 877 863 874 865 841 897 892 843 911 863 933 952 895 934 925 906 972 899 948 974 948 910 955 1011 921 975 992 998 932 914 939 1004 907 929 967 973 951 933 857 905 886 967 927 854 916 912 856 899 896 903 814 873 855 874 849 831 823 886 859 903 871 862 863 871 867 858 818 874 782 799 824 831 764 836 835 820 790 796 817 816 816 816 858 828 792 810 846 863 798 809 865 816 835 818 757 787 778 782 735 816 762 825 778 741 837 856 812 801 768 809 875 763 797 842 807 823 818 779 859 839 828 821 812 771 818 819 810 845 886 878 915 908 866 885 850 786 833 920 830 887 867 884 868 876 859 856 811 803 862 816 834 863 812 838 905 841 817 818 856 838 809 861 794 748 840 784 810 857 815 826 856 845 802 859 822 825 837 841 831 854 862 854 892 887 855 881 874 911 881 928 872 977 915 940 907 967 979 942 989 1061 1088 1056 1098 1138 1291 1299 1381 1362 1550 1634 1772 1918 1998 2168 2479 2506 2661 2745 2907 2929 3028 2958 3018 2961 3009 2948 2997 2890 2977 2863 2792 2797 2836 2648 2567 2702 2662 2641 2710 2710 2859 2911 2823 2841 2837 2908 2914 3109 3144 3343 3269 3585 3556 3588 3776 3785 3950 3849 3882 3930 3885 3803 3690 3548 3503 3383 3304 3155 3001 2775 2692 2618 2559 2371 2374 2294 2215 2169 2183 2083 2156 2066 2159 2044 2077 2096 2142 2115 2050 1960 2010 2004 2045 1959 2010 1914 1876 1886 1710 1643 1639 1623 1594 1553 1433 1414 1351 1257 1197 1146 1101 1128 1092 1024 1036 954 878 980 858 891 853 868 843 859 807 798 827 783 787 772 800 714 783 795 769 808 774 737 764 722 727 798 768 748 717 755 765 777 753 729 725 717 725 715 709 742 762 725 688 731 771 711 718 675 753 711 711 690 788 710 782 712 698 718 716 731 711 788 708 712 744 725 654 733 682 674 732 664 710 696 720 715 670 750 687 714 704 675 686 666 715 691 735 618 687 697 730 740 684 656 691 686 677 674 665 701 748 663 704 682 654 681 692 660 657 670 638 657 677 727 680 616 664 691 657 679 645 685 666 706 679 649 680 641 643 686 632 678 697 676 661 679 658 665 638 659 672 658 671 605 634 696 682 662 704 633 688 642 658 650 649 656 658 701 672 671 639 653 659 695 642 679 663 639 681 629 654 666 673 657 688 670 671 635 681 676 639 666 657 662 648 670 642 665 597 630 577 630 601 621 611 669 663 649 606 683 621 643 626 659 637 590 582 669 691 645 644 639 653 586 656 594 617 592 625 604 618 628 664 606 595 624 610 592 606 613 580 643 587 627 608 630 648 615 601 619 681 623 615 645 587 609 606 598 607 633 629 621 646 625 621 611 623 606 622 631 624 597 633 585 586 625 658 620 595 633 608 586 626 651 609 616 602 589 636 574 580 573 603 584 572 580 615 602 600 629 611 583 561 599 604 570 640 632 550 543 598 604 568 559 602 633 588 567 550 599 588 594 546 571 580 572 588 557 598 574 595 596 602 562 546 556 586 573 605 535 535 589 598 537 569 563 577 603 572 551 556 528 553 544 601 583 570 589 546 567 526 589 534 598 535 533 606 544 528 510 552 530 568 568 550 552 552 549 573 595 559 556 521 583 541 508 586 542 580 491 570 548 565 543 565 574 516 531 482 597 528 575 572 573 511 585 535 530 555 529 556 492 539 559 550 557 537 505 539 537 555 547 577 557 504 544 565 543 535 549 546 523 572 520 539 552 513 485 501 547 565 539 540 512 565 517 551 549 525 542 521 472 515 535 497 537 540 506 577 571 485 552 541 531 545 530 544 570 526 505 485 534 569 520 519 521 554 592 521 567 522 545 572 551 552 565 582 542 566 593 502 571 529 583 546 531 531 568 574 541 558 572 618 572 588 550 615 540 649 570 578 664 602 595 624 589 618 601 598 611 584 608 595 619 582 579 585 620 617 582 618 583 597 580 567 570 555 523 548 570 589 546 559 534 527 548 561 548 543 531 546 526 557 528 525 548 521 505 563 530 489 488 530 536 515 529 481 550 476 537 516 555 542 478 522 506 533 526 526 514 504 484 491 553 541 509 501 518 506 502 493 498 558 489 508 498 515 499 519 508 529 499 538 502 532 485 508 515 553 542 494 522 516 482 524 505 452 481 521 487 480 519 493 506 495 515 485 458 552 523 495 503 498 504 500 522 552 494 504 508 513 476 517 472 529 479 509 504 451 508 508 485 501 502 516 490 473 504 510 478 510 470 548 492 521 505 554 505 466 527 490 507 510 483 467 513 542 518 524 569 562 488 516 539 479 546 524 484 529 470 497 500 499 514 491 492 516 525 503 475 506 506 522 523 479 511 509 525 496 490 498 513 526 525 490 452 498 494 513 501 510 485 510 482 461 492 509 471 493 465 506 460 457 445 472 467 466 493 497 550 469 500 478 516 480 461 503 459 525 480 502 467 524 450 488 488 493 498 475 498 475 469 452 439 477 461 472 441 464 504 452 489 502 474 518 445 497 510 485 453 474 513 458 459 464 453 485 476 472 482 476 505 462 476 473 446 481 483 504 507 481 459 480 490 489 460 458 451 458 481 495 487 453 471 476 467 458 436 440 474 558 489 493 467 472 471 464 459 433 461 426 456 447 452 458 475 450 444 459 453 482 462 472 463 487 480 457 458 466 450 462 470 481 519 509 459 474 464 403 481 481 461 480 453 470 418 433 437 466 509 443 464 438 480 492 486 474 478 471 510 495 481 462 452 481 475 473 446 502 442 472 506 527 558 501 559 519 559 508 575 512 551 535 586 540 572 592 590 618 622 604 593 627 660 641 632 646 660 623 631 637 668 608 639 656 600 633 655 669 606 596 593 592 571 631 596 570 595 613 583 568 525 564 527 540 578 546 562 517 541 521 567 519 534 530 531 463 499 528 461 490 489 540 484 531 499 498 466 524 525 510 482 516 496 496 569 523 504 535 487 573 470 537 561 571 548 518 551 539 547 517 520 543 566 535 570 510 539 528 540 508 487 528 533 547 495 523 494 539 460 489 495 547 513 478 526 493 530 465 482 467 451 438 469 467 473 458 492 487 485 464 426 482 450 482 457 450 443 429 450 465 452 491 486 421 495 450 448 465 431 434 420 414 425 431 459 438 450 475 428 428 445 408 438 445 448 450 457 413 445 413 438 438 474 449 450 416 453 455 461 420 405 449 431 424 448 426 448 434 446 483 423 397 431 441 420 436 434 422 416 449 462 433 431 447 419 449 386 449 445 455 474 423 460 440 443 406 437 461 457 475 440 493 449 449 487 455 427 451 428 439 440 473 431 459 401 422 461 491 407 427 453 445 444 446 425 452 463 474 453 441 477 395 458 428 389 456 429 503 434 457 423 448 412 420 478 437 450 438 442 478 457 434 458 461 460 426 443 489 456 462 468 465 459 447 454 488 521 465 441 460 442 477 471 423 481 441 485 437 449 440 448 448 465 480 490 444 475 455 450 480 481 447 404 410 401 472 456 445 451 474 492 459 448 452 503 445 482 467 465 456 474 462 449 418 476 457 465 457 462 440 462 443 484 488 445 473 469 477 496 434 516 435 477 462 478 470 482 505 470 452 472 483 482 479 488 494 531 465 534 506 498 493 477 525 526 555 577 556 576 642 592 586 622 605 690 690 741 793 836 868 864 975 956 1085 1107 1178 1247 1317 1315 1364 1390 1415 1421 1509 1529 1564 1600 1519 1582 1534 1643 1636 1692 1630 1590 1665 1693 1650 1745 1587 1579 1575 1515 1513 1541 1349 1491 1432 1369 1377 1377 1328 1337 1330 1190 1141 1229 1137 1075 1120 1095 1053 1071 1020 1014 948 1009 945 997 981 1052 1056 1059 955 1073 1053 1091 1118 1067 1125 1077 1176 1195 1138 1139 1129 1140 1126 1186 1216 1219 1238 1236 1225 1346 1219 1298 1319 1270 1252 1229 1200 1198 1273 1187 1182 1157 1145 1193 1112 1137 1097 1058 1054 1017 998 974 997 961 913 918 868 823 850 815 868 804 822 802 741 758 762 691 721 678 677 661 620 628 615 636 604 594 575 592 581 560 527 544 527 512 492 495 534 512 495 439 481 437 481 472 516 477 486 493 505 459 482 462 463 460 486 491 452 437 453 457 461 478 436 405 427 440 431 448 441 421 457 415 424 424 442 464 458 434 462 421 449 413 447 421 434 428 446 446 405 432 447 430 400 458 462 407 434 459 410 440 420 433 506 419 444 437 417 418 439 419 405 472 435 458 380 431 429 462 454 427 473 453 486 480 491 500 448 490 460 481 451 491 486 485 477 502 453 503 521 474 483 464 491 474 454 491 525 500 504 451 503 472 476 485 467 456 443 444 467 468 420 448 479 448 428 467 469 519 430 472 470 491 448 427 458 410 437 443 418 443 440 471 502 431 465 442 456 410 482 477 449 485 464 470 497 457 504 426 445 477 439 457 486 435 471 488 440 450 482 455 467 469 438 431 458 459 467 507 447 463 500 455 438 431 428 450 425 471 404 448 418 422 405 423 409 386 382 411 427 388 406 397 431 417 433 379 440 427 393 414 402 401 417 406 417 391 398 392 394 403 410 425 431 388 423 406 412 376 434 385 395 375 431 401 425 411 418 409 395 401 405 398 420 398 415 398 421 399 388 391 390 426 412 400 405 408 396 431 376 444 397 410 346 418 392 412 378 393 379 416 360 378 389 414 410 413 415 363 437 386 391 415 406 395 332 390 364 398 406 410 399 391 369 401 363 422 400 414 372 378 408 358 379 373 366 352 420 378 437 388 399 397 397 411 372 383 416 364 395 374 386 375 429 392 406 407 391 386 362 401 400 372 357 422 383 412 381 383 391 374 401 398 401 368 411 368 377 408 370 407 421 414 365 370 400 380 360 393 385 394 411 408 383 422 388 365 435 374 393 404 407 388 407 390 386 368 368 389 372 379 390 409 375 393 400 387 407 368 433 376 388 378 361 387 359 400 360 387 379 353 399 410 399 403 384 374 346 358 341 416 341 391 369 358 368 408 361 350 372 360 399 345 393 400 402 384 359 358 408 363 333 417 363 390 374 384 383 366 408 397 364 377 359 393 398 357 343 403 342 362 400 357 384 394 389 396 391 359 394 386 394 383 401 391 393 410 337 383 359 368 356 412 397 404 348 341 392 399 384 402 353 363 352 354 374 364 410 398 394 381 371 365 317 399 376 390 403 345 361 381 359 375 360 390 376 422 345 373 368 341 365 364 355 372 393 392 364 405 305 383 401 378 392 367 368 379 346 385 365 341 396 340 356 364 340 352 386 388 346 351 322 369 357 382 371 372 362 361 339 364 371 371 376 365 385 374 331 381 371 330 338 343 378 363 415 373 333 307 369 316 378 340 372 375 361 344 375 355 335 322 380 369 333 367 341 380 393 330 358 344 352 364 353 366 376 390 375 351 320 330 353 369 379 340 354 357 391 356 347 304 353 360 360 366 367 345 363 336 350 338 350 397 344 363 304 379 335 350 377 356 417 357 392 343 355 346 365 377 324 357 335 328 356 349 365 363 350 353 366 346 358 371 384 362 346 358 370 361 378 369 337 347 366 384 369 395 368 358 368 401 378 373 393 375 371 329 359 358 331 406 388 379 379 391 379 362 351 395 369 381 390 389 380 390 361 436 421 397 437 417 418 435 432 452 471 443 510 554 521 524 543 558 625 603 620 624 621 635 674 702 721 656 677 726 713 744 734 735 740 780 771 776 710 731 741 794 733 709 708 749 692 697 667 694 652 667 655 619 616 613 576 594 621 577 528 524 508 513 540 508 544 472 470 436 465 448 472 422 445 433 439 467 482 471 484 475 470 512 515 486 541 481 535 528 605 532 556 546 612 603 627 636 633 612 619 698 696 680 671 655 669 661 714 744 670 626 679 680 668 612 712 649 663 697 665 645 627 633 625 599 617 608 547 566 512 503 518 495 535 469 475 455 490 434 441 456 464 475 444 435 443 422 425 428 410 425 410 425 388 353 358 377 414 400 373 354 384 360 383 379 382 377 350 335 352 326 354 359 303 360 355 352 324 327 313 325 339 327 331 342 331 350 343 358 370 335 340 351 352 323 332 340 357 324 334 338 332 311 363 319 371 364 343 326 326 378 322 355 344 356 336 331 364 399 363 383 348 345 318 406 368 382 361 395 387 326 365 349 372 329 344 344 351 356 359 342 343 334 354 324 313 338 315 334 342 336 356 314 318 360 344 334 337 354 338 361 322 373 363 347 332 343 335 368 375 363 364 432 409 410 429 415 418 437 460 474 468 513 491 511 550 547 561 625 563 591 591 598 675 603 622 627 627 677 673 671 672 689 760 723 663 705 680 625 641 671 633 665 611 649 597 620 621 575 588 570 590 516 539 535 563 510 494 477 465 470 406 476 451 434 397 405 396 405 402 358 400 395 430 383 373 349 373 427 385 382 382 406 388 418 417 471 455 462 440 503 487 517 518 558 512 571 521 566 575 549 555 532 529 518 511 581 547 580 481 542 478 522 479 524 498 491 511 466 491 489 474 454 474 464 488 437 448 461 437 439 453 398 444 417 444 439 478 445 446 444 398 471 434 446 431 447 433 478 437 475 420 479 474 437 469 435 451 447 427 395 429 472 399 429 429 418 411 393 377 415 408 395 407 372 402 384 388 369 363 378 364 389 381 361 353 354 334 359 318 354 358 339 351 326 343 338 349 335 325 325 341 303 351 343 311 336 332 353 335 340 362 343 334 347 359 371 360 398 338 380 367 380 331 373 387 399 366 389 383 380 342 337 365 336 343 353 357 324 362 353 348 367 330 345 356 332 359 310 324 319 335 299 320 323 337 291 343 298 350 273 358 295 387 326 331 302 331 319 329 324 286 278 309 277 293 304 286 335 305 309 328 301 316 322 324 292 288 311 259 287 317 307 298 337 302 295 306 284 323 258 304 300 304 299 280 337 335 288 301 312 282 286 285 320 306 330 333 300 304 287 286 302 345 344 334 357 319 312 356 326 307 334 326 326 315 345 344 313 376 307 357 343 341 373 346 315 286 319 359 342 334 336 379 358 327 336 331 346 371 315 326 312 362 346 295 321 346 320 312 301 343 299 288 312 304 323 283 315 304 315 275 289 314 284 319 271 285 279 301 294 267 277 304 288 310 291 292 283 314 283 313 278 288 279 302 281 298 308 277 311 287 251 292 314 329 263 318 298 313 282 282 245 263 273 265 267 282 287 271 297 299 265 284 242 303 263 291 238 309 260 301 289 266 311 274 265 273 270 279 258 274 299 251 286 294 273 278 279 257 292 263 269 264 298 308 305 277 279 249 290 241 264 276 297 277 302 304 237 282 247 266 277 299 285 266 239 280 292 290 274 304 269 308 250 279 288 272 269 300 258 261 241 294 281 274 260 272 261 231 290 286 270 227 265 238 284 280 282 299 279 259 264 276 281 265 259 241 282 279 271 281 278 272 229 232 251 262 305 279 281 235 244 284 305 265 256 293 273 296 270 282 306 269 294 281 282 286 315 245 274 291 301 298 247 279 283 287 287 271 270 294 302 304 267 279 274 292 276 303 263 277 258 292 282 248 279 292 250 269 296 245 264 274 262 268 262 291 274 296 281 297 276 288 251 241 262 279 273 297 269 281 299 282 268 310 234 287 293 277 295 265 312 281 247 290 240 280 247 285 239 249 268 281 266 266 269 238 237 266 272 259 267 257 269 267 270 245 271 272 270 267 243 249 289 262 264 286 265 257 283 262 274 276 265 238 269 267 234 292 288 282 272 246 281 248 272 257 249 274 301 293 294 283 282 276 269 290 278 269 271 266 284 247 270 242 250 277 289 245 275 286 260 284 269 265 280 295 302 287 311 302 288 291 281 314 281 287 303 315 321 336 300 332 325 331 318 338 300 327 298 301 307 268 302 257 287 286 293 274 305 304 313 272 301 317 269 307 305 285 319 270 282 275 307 286 246 249 286 293 281 267 258 304 256 264 276 268 278 265 273 268 239 270 245 322 293 261 276 240 271 275 237 261 276 257 281 258 259 273 258 285 275 288 271 268 272 272 294 264 275 275 283 233 274 284 250 239 300 243 278 264 285 294 276 270 267 286 288 288 266 271 299 258 258 263 280 269 306 283 284 275 265 296 260 266 265 261 285 289 261 298 287 244 294 295 264 246 249 282 294 250 250 256 241 264 282 280 287 250 279 221 239 258 242 266 279 248 247 264 270 246 283 216 258 267 243 242 270 219 266 271 263 242 289 274 248 270 265 271 269 257 269 273 251 281 264 243 263 271 232 236 261 273 240 279 293 256 234 281 276 248 271 265 257 277 244 288 267 221 281 263 249 249 262 263 245 218 230 270 237 274 285 218 274 275 264 232 248 249 247 280 256 270 295 239 251 221 259 278 283 224 273 249 283 259 259 250 270 237 298 239 245 261 270 286 274 294 286 256 275 246 260 275 280 274 272 286 232 242 279 242 261 284 289 272 260 271 269 284 246 290 282 292 271 288 270 268 256 273 266 290 274 314 262 266 306 271 311 292 310 341 294 313 320 336 322 323 304 297 335 363 385 353 346 332 375 355 350 341 328 369 396 368 364 357 383 410 413 388 383 373 424 347 389 389 354 332 386 388 339 373 351 342 364 323 349 326 292 333 318 349 344 292 311 315 307 313 297 294 306 275 230 285 282 281 302 310 307 250 257 293 278 306 308 295 294 248 282 273 248 264 266 295 241 317 275 289 256 309 327 299 322 288 313 308 303 239 305 267 291 305 362 337 307 345 318 299 329 312 332 329 296 336 301 311 345 299 289 332 333 356 327 339 338 317 331 337 336 354 334 312 347 319 319 315 304 321 363 294 285 317 341 330 313 322 307 317 317 314 328 312 328 297 328 310 305 301 287 299 271 281 258 286 245 272 269 273 290 246 275 263 276 259 272 291 251 249 281 233 270 280 289 285 292 249 249 265 273 301 238 271 283 290 275 295 244 271 239 234 292 277 300 281 270 267 277 260 281 242 272 248 270 273 297 231 239 285 269 284 231 235 227 281 217 271 261 261 258 263 224 258 250 289 268 288 269 235 227 275 271 248 229 274 238 280 260 251 245 245 248 245 265 250 249 239 234 272 240 272 233 232 244 265 258 266 259 240 266 277 274 244 216 271 245 276 264 273 289 259 270 244 251 243 260 239 278 239 265 240 290 204 257 218 237 292 261 237 247 260 271 241 263 269 243 232 265 271 225 249 265 265 265 264 224 248 261 239 246 280 242 249 278 300 267 270 240 256 269 244 294 243 273 241 245 285 270 246 236 276 237 233 241 259 261 219 239 265 225 260 277 235 268 242 238 235 233 260 270 237 264 243 229 264 262 237 287 281 266 247 266 222 269 273 287 265 248 260 278 301 250 267 227 272 268 269 229 245 243 210 284 230 262 260 222 242 260 209 261 249 225 223 240 242 295 230 284 262 258 238 304 303 240 282 273 243 279 259 262 247 241 236 266 247 274 278 243 261 243 260 282 288 284 251 270 234 286 223 277 257 267 225 267 259 276 247 265 269 273 270 245 262 283 247 268 246 243 249 245 277 231 277 219 247 237 275 268 257 267 276 261 247 273 250 229 251 265 275 285 277 272 292 244 241 288 248 241 247 276 284 274 278 265 281 246 247 245 266 272 268 233 261 261 228 247 270 286 283 271 282 229 212 257 285 260 270 273 249 275 246 263 273 257 271 244 282 271 238 256 238 262 249 272 265 262 271 266 272 258 278 274 271 269 294 268 287 275 262 267 266 262 296 247 300 312 249 281 273 267 274 236 227 268 276 260 260 248 248 258 279 289 261 281 286 250 297 257 297 238 280 268 233 235 248 265 227 282 280 265 291 277 279 241 265 261 274 262 256 271 264 260 262 271 262 235 289 264 283 262 298 271 235 270 292 274 241 288 264 280 287 294 264 267 284 246 309 280 266 276 287 281 261 302 263 276 271 231 282 286 284 262 273 275 270 276 283 275 285 237 294 274 290 288 274 278 267 232 286 272 300 303 293 307 268 282 287 277 308 278 298 268 312 311 289 290 308 273 295 283 306 298 315 302 290 324 291 277 302 277 295 301 316 292 312 313 294 286 309 293 317 298 293 295 295 270 299 294 285 305 313 279 289 308 325 314 329 324 327 329 315 322 340 353 367 357 377 363 390 334 380 366 374 353 387 365 405 380 385 345 376 385 365 373 372 387 360 385 376 350 330 387 358 367 367 375 383 336 356 364 337 307 369 337 338 293 357 356 301 352 319 334 317 310 309 307 307 305 314 312 248 295 312 290 320 306 333 318 280 290 307 283 290 293 313 302 324 266 273 260 313 313 297 350 264 300 288 301 303 304 309 314 315 299 321 279 318 301 271 297 323 293 318 277 336 314 332 356 334 373 323 321 323 304 343 330 330 356 364 383 363 374 351 357 376 349 375 354 378 351 390 373 365 354 405 343 326 357 377 377 326 376 393 372 388 359 350 363 339 367 337 352 333 342 351 341 361 313 318 331 335 327 309 335 314 303 324 349 311 364 320 330 323 301 326 322 333 313 317 346 298 321 321 329 285 327 300 282 302 300 300 332 315 329 280 311 276 292 291 312 338 370 309 330 316 302 292 333 289 284 310 307 338 327 285 325 289 341 322 321 343 332 338 332 382 369 350 393 361 387 404 402 383 403 428 478 387 438 473 419 470 450 482 518 507 483 525 459 456 477 468 511 481 508 513 498 512 510 530 493 451 505 467 467 504 479 471 479 423 467 431 396 434 445 427 466 419 422 446 416 412 414 375 385 393 381 394 362 375 371 358 371 323 348 344 350 332 336 335 329 330 314 316 312 303 307 314 344 283 311 338 308 300 293 293 283 288 317 282 294 306 306 282 299 332 335 318 308 333 344 304 324 346 350 359 330 363 353 393 357 399 359 410 405 405 425 425 432 425 427 425 409 430 430 422 465 443 450 435 464 476 467 477 453 446 441 425 470 439 447 482 451 470 428 472 473 425 419 427 413 457 417 420 441 439 413 433 407 456 417 439 427 394 370 399 376 350 388 378 380 398 402 352 384 352 397 376 373 389 360 356 367 357 326 350 338 350 365 337 294 321 366 381 361 331 293 332 359 316 349 333 313 313 298 332 335 348 345 313 321 325 296 312 318 300 291 272 304 278 273 299 299 283 307 270 278 298 281 290 250 284 271 273 242 271 264 260 262 260 248 296 259 276 284 293 264 266 281 270 269 284 266 274 266 250 244 234 247 241 234 278 259 243 239 293 295 241 288 283 235 249 245 238 278 247 280 275 270 281 241 276 266 261 232 278 241 242 248 270 251 232 247 221 273 226 287 270 261 277 274 270 276 261 250 241 264 256 273 221 242 250 269 209 287 260 245 229 279 272 264 261 271 279 259 244 258 278 256 236 295 231 243 284 256 239 243 232 268 283 262 277 298 270 286 256 272 240 262 247 299 275 235 291 222 276 216 223 280 237 234 242 237 265 276 282 238 288 278 217 249 279 215 277 266 261 248 281 266 245 246 246 258 263 243 273 244 210 243 219 242 241 240 238 195 204 207 266 238 241 264 233 273 247 239 212 274 221 267 259 225 222 236 262 259 278 237 250 250 266 226 280 269 234 237 228 272 277 248 230 294 243 241 268 221 240 233 247 217 234 234 270 274 242 244 216 241 242 260 231 258 245 218 232 272 226 243 226 268 235 210 284 247 283 241 267 213 259 213 228 230 235 234 241 241 287 210 246 221 249 244 238 248 246 275 280 226 238 249 244 263 248 270 244 223 230 229 243 237 262 219 263 242 238 215 265 225 263 260 238 237 261 232 228 236 246 217 228 259 233 231 218 228 237 208 247 248 262 268 226 215 248 235 244 205 247 244 277 250 232 243 220 231 270 217 248 265 248 287 267 244 249 266 228 231 237 276 281 205 248 236 259 258 272 242 259 271 243 228 232 232 268 243 215 250 239 231 227 256 256 266 267 267 243 241 238 246 265 247 215 245 242 258 248 229 258 239 215 261 279 238 240 223 232 250 243 228 223 247 236 268 219 215 244 261 229 231 214 224 265 233 233 266 232 229 236 230 277 211 256 239 249 258 249 267 276 213 241 248 272 248 238 236 240 241 258 221 263 217 274 264 300 267 285 246 259 270 244 285 259 250 271 265 233 285 236 241 246 246 268 246 249 239 275 249 247 234 265 235 263 265 233 238 250 279 239 260 266 239 235 243 228 217 270 241 223 260 244 245 237 233 265 262 245 246 201 219 226 239 232 205 234 271 261 247 234 239 243 230 272 221 256 261 262 210 224 256 243 242 230 239 227 219 222 214 205 261 232 227 267 240 220 283 274 226 256 236 226 228 263 221 260 261 257 212 242 256 258 239 243 242 250 269 215 214 244 237 278 221 225 247 275 237 266 223 257 241 231 233 242 238 263 233 296 268 249 229 269 214 234 231 239 264 266 246 197 256 230 260 257 244 271 222 216 265 265 237 265 267 233 244 236 268 227 213 222 256 242 242 245 234 240 215 247 245 223 230 237 246 228 244 223 233 243 243 260 244 275 246 224 278 229 270 211 259 263 234 212 239 248 224 268 193 259 243 229 269 256 227 260 214 246 248 258 232 245 204 246 240 197 219 271 257 247 278 226 243 230 220 248 220 285 238 211 244 251 270 259 257 263 261 236 262 275 229 269 223 237 247 237 271 278 267 262 227 281 247 289 249 266 276 286 270 261 274 287 313 284 271 292 298 304 298 299 358 334 330 297 395 345 332 367 353 359 384 364 375 362 375 380 367 401 387 402 399 422 392 404 448 433 415 387 419 405 403 367 359 373 372 378 389 401 385 387 385 402 375 383 339 385 353 354 375 357 374 360 317 362 347 340 326 317 356 314 318 336 331 323 304 285 314 271 274 293 317 290 269 292 257 273 281 298 277 248 291 296 239 226 250 228 241 260 243 273 260 268 220 246 237 274 268 281 247 243 259 238 258 281 256 256 263 259 292 261 298 258 264 237 263 269 261 262 240 288 243 291 268 284 239 290 266 300 285 279 302 317 317 279 251 288 291 295 305 307 283 333 318 344 338 327 337 319 341 336 332 378 314 348 342 336 373 337 350 363 347 328 365 336 330 323 365 316 371 337 304 323 346 306 313 328 327 291 332 340 321 326 329 333 312 316 323 309 343 306 315 292 337 307 305 350 304 298 308 294 286 307 289 250 303 265 285 284 271 281 292 297 281 275 298 257 298 286 273 272 278 304 305 295 266 249 286 274 235 327 291 265 289 281 290 289 287 288 266 298 270 282 293 298 274 248 245 262 272 238 302 260 261 285 222 232 266 269 236 263 258 272 227 263 241 265 238 257 267 246 260 238 235 224 268 233 243 237 228 258 235 266 224 223 257 240 247 269 230 266 242 279 230 264 267 264 279 245 249 227 227 201 211 229 224 247 267 261 222 256 222 243 236 237 264 230 224 272 258 240 229 267 216 221 235 231 242 247 231 243 231 266 246 247 232 249 220 230 234 230 227 238 231 240 249 248 247 263 266 221 218 229 233 236 231 203 220 218 219 235 257 241 222 266 222 234 220 240 251 218 240 206 219 242 242 237 232 256 207 217 238 218 211 245 233 200 203 223 201 232 217 227 227 233 271 228 229 216 215 238 242 233 212 214 233 257 224 222 238 204 286 244 264 225 231 212 236 204 221 235 248 242 231 217 229 221 226 260 203 243 209 256 238 229 275 221 213 222 223 208 212 225 262 230 225 247 262 248 228 251 234 245 229 207 216 209 228 224 221 243 237 236 238 226 259 229 225 220 224 226 226 258 243 230 213 210 206 245 225 226 222 243 249 241 220 219 232 257 249 221 257 242 238 204 231 230 256 217 228 232 240 227 213 227 211 220 237 217 210 217 203 203 221 260 229 225 247 220 222 232 232 228 214 219 222 256 229 247 236 205 231 230 262 231 209 239 233 232 237 235 244 211 240 239 224 262 215 213 240 220 239 208 227 207 263 234 233 217 223 221 238 207 214 226 226 213 232 233 243 264 244 223 223 233 234 245 266 216 235 230 214 218 236 229 202 198 235 247 245 208 229 256 205 232 215 187 203 242 247 213 241 229 223 279 261 212 248 245 206 268 209 233 281 225 225 212 216 228 233 224 257 246 236 265 258 270 247 236 245 216 244 262 276 265 232 226 228 230 265 224 246 245 261 259 242 284 273 266 291 266 239 231 261 293 256 264 290 275 323 275 288 291 250 282 268 284 285 261 308 283 280 280 232</counts>
			</dataPoints>
		</scan>
	</xrdMeasurement>
</xrdMeasurements>
