<?xml version="1.0"?>
<xrdMeasurements xmlns="http://www.xrdml.com/XRDMeasurement/2.3" xmlns:xsi="http://www.w3.org/2001/XMLSchema-instance" xsi:schemaLocation="http://www.xrdml.com/XRDMeasurement/2.3 http://www.xrdml.com/XRDMeasurement/2.3/XRDMeasurement.xsd" status="Completed" recordIdentifier="{3D535BA6-AF28-4978-BF9C-4A35A9993CE0}">
	<comment>
		<entry/>
	</comment>
	<sample type="To be analyzed">
		<id>GPSS_Li2CrCl4_102925_69023408f1dc75abe2563671</id>
		<name></name>
		<preparedBy></preparedBy>
	</sample>
	<xrdMeasurement measurementType="Scan" status="Completed" sampleMode="Reflection">
		<usedWavelength intended="K-Alpha 1">
			<kAlpha1 unit="Angstrom">1.5405980</kAlpha1>
			<kAlpha2 unit="Angstrom">1.5444260</kAlpha2>
			<kBeta unit="Angstrom">1.3922500</kBeta>
			<ratioKAlpha2KAlpha1>0.5000</ratioKAlpha2KAlpha1>
		</usedWavelength>
		<incidentBeamPath>
			<radius unit="mm">145.00</radius>
			<xRayTube id="1010048" name="Empyrean Cu LFF HR (9430 033 7310x)">
				<tension unit="kV">40.0</tension>
				<current unit="mA">15.0</current>
				<anodeMaterial>Cu</anodeMaterial>
				<focus type="Line">
					<length unit="mm">12.0</length>
					<width unit="mm">0.4</width>
					<takeOffAngle unit="deg">6.0</takeOffAngle>
				</focus>
			</xRayTube>
			<sollerSlit id="21010002" name="Soller slits 0.04 rad.">
				<opening unit="rad">0.0400</opening>
			</sollerSlit>
			<mask id="22031000" name="Fixed mask 13 mm">
				<width unit="mm">9.00</width>
			</mask>
			<divergenceSlit id="22120001" name="Divergence slit 1°" xsi:type="fixedDivergenceSlitType">
				<distanceToSample unit="mm">50.00</distanceToSample>
				<height unit="mm">1.52</height>
			</divergenceSlit>
		</incidentBeamPath>
		<sampleMovement xsi:type="spinningSampleMovementType">
			<spinnerRevolutionTime unit="seconds">1.0</spinnerRevolutionTime>
		</sampleMovement>
		<diffractedBeamPath>
			<radius unit="mm">145.00</radius>
			<antiScatterSlit id="22090040" name="AS slit 9 mm (PIXcel)" xsi:type="fixedAntiScatterSlitType">
				<height unit="mm">9.00</height>
			</antiScatterSlit>
			<sollerSlit id="21020003" name="Large Soller slits 0.04 rad.">
				<opening unit="rad">0.0400</opening>
			</sollerSlit>
			<filter id="20030001" name="Large beta-filter Nickel">
				<material>Ni</material>
				<thickness unit="mm">0.020</thickness>
			</filter>
			<detector id="7010019" name="PIXcel1D-Medipix3 detector" xsi:type="rtmsDetectorType">
				<phd unit="keV">
					<lowerLevel>4.02</lowerLevel>
					<upperLevel>11.27</upperLevel>
				</phd>
				<mode>Scanning</mode>
				<activeLength unit="deg">5.542</activeLength>
			</detector>
		</diffractedBeamPath>
		<scan appendNumber="0" mode="Continuous" scanAxis="Gonio" status="Completed">
			<header>
				<startTimeStamp>2025-10-31T18:57:35-07:00</startTimeStamp>
				<endTimeStamp>2025-10-31T19:05:42-07:00</endTimeStamp>
				<author>
					<name>AutomatedUser</name>
				</author>
				<source>
					<applicationSoftware version="1.7b (136)">PANalytical Aeris Instrument Suite</applicationSoftware>
					<instrumentControlSoftware version="3.2.00000000 20240306">AERIS</instrumentControlSoftware>
					<instrumentID>950485</instrumentID>
				</source>
			</header>
			<dataPoints>
				<positions axis="2Theta" unit="deg">
					<startPosition>10.00943322</startPosition>
					<endPosition>99.99442286</endPosition>
				</positions>
				<positions axis="Omega" unit="deg">
					<startPosition>5.00471661</startPosition>
					<endPosition>49.99721143</endPosition>
				</positions>
				<commonCountingTime unit="seconds">12.495</commonCountingTime>
				<counts unit="counts">3018 3053 3137 3113 3084 2926 3071 3052 3067 3042 3069 3110 3192 3110 3058 3041 3076 3160 3009 3001 3005 3204 3081 3100 3036 2996 3157 2976 3071 3070 3067 3089 3027 3071 3069 3076 3088 3091 3197 3263 3102 3037 3091 3019 3106 3069 3070 3137 3098 3100 3189 3001 3136 3118 3115 3184 3092 3083 3123 3155 3085 3110 3234 3160 3145 3168 3271 3099 3126 3122 3267 3209 3299 3113 3118 3093 3149 3137 3214 3261 3228 3203 3200 3222 3277 3195 3292 3181 3254 3291 3340 3204 3327 3191 3218 3257 3097 3237 3182 3232 3167 3179 3250 3216 3255 3230 3171 3230 3170 3314 3264 3243 3133 3116 3124 3210 3170 3247 3194 3143 3225 3170 3246 3200 3211 3130 3144 3115 3198 3226 3118 3128 3148 3087 3193 3219 3208 3319 3187 3215 3168 3177 3206 3144 3138 3185 3121 3250 3104 3100 3157 3162 3188 3190 3120 3091 3118 3140 3126 3185 3178 3149 3123 3099 3142 3147 3093 3073 3131 3133 3032 3112 3088 3188 3153 3202 3132 3078 3030 3100 3098 3109 3127 3069 3074 3016 3197 3146 3056 3095 3123 3019 3018 3142 3075 3001 3066 2971 2921 3081 3015 3139 2899 3064 3080 3072 3037 2999 3015 3009 2996 3037 3134 3145 2992 3037 3076 2992 3060 3013 2891 3030 3017 3049 2998 2952 3018 2931 2958 2977 2991 2957 2928 3011 2986 2986 3028 2991 2803 2935 3011 2846 2969 2927 2908 2951 2840 2943 3040 3020 2994 2973 2887 2941 2918 3007 2987 2938 2947 2903 2993 2905 2966 2908 2928 3031 2908 2941 2936 2870 3069 3072 2895 2899 2903 2947 2947 2989 2918 2874 2868 2953 2883 2843 2936 2988 2957 2890 2982 2904 2926 3017 2938 2943 3021 2906 2922 3027 3013 2940 2962 3079 2936 2971 2987 2993 3021 2903 2997 3065 2999 3138 2933 2852 3108 2917 2931 3039 3043 3012 3017 3028 3112 3002 3178 2954 3019 2974 3063 3040 3026 3017 3065 3070 3094 3071 3092 3066 2995 3094 3115 3110 3159 2927 3134 3057 3118 3118 3133 3179 3074 3110 3171 3172 3163 3087 3195 3119 3120 3227 3108 3272 3181 3252 3195 3425 3313 3264 3270 3099 3203 3157 3237 3243 3165 3307 3331 3285 3176 3280 3299 3306 3202 3283 3176 3269 3312 3349 3429 3257 3348 3320 3321 3395 3333 3350 3319 3262 3227 3372 3279 3278 3276 3329 3419 3375 3404 3390 3392 3385 3295 3406 3456 3511 3505 3360 3477 3484 3492 3626 3520 3510 3607 3583 3666 3637 3714 3796 3743 3781 3899 3845 3922 3799 3966 3978 3882 3988 3990 3975 4096 3914 3922 3982 4012 3868 3897 3863 3833 3915 3877 3840 3819 3749 3810 3662 3631 3701 3544 3489 3532 3420 3437 3418 3282 3330 3291 3251 3298 3253 3304 3042 3155 3165 3138 3100 3144 3191 3092 3206 3163 3184 3128 3058 3154 3128 3183 3070 3178 3081 3122 3018 3020 3089 3003 3018 3025 2842 3108 2986 2986 2933 2891 3026 2946 3035 2905 2880 2937 2939 3029 3031 2986 2805 3002 2864 2905 2833 2934 2895 2990 2997 2984 2922 2944 2941 2870 2883 2999 2983 2957 2997 2832 2794 3026 2928 2874 3013 2906 2867 2869 2888 2917 2840 2962 2959 2834 2926 2758 2791 2987 2874 2913 2916 2816 2794 2885 2793 2825 2750 2810 2894 2784 2751 2767 2727 2764 2769 2660 2724 2653 2673 2665 2657 2774 2741 2786 2706 2717 2678 2731 2746 2664 2673 2654 2651 2691 2628 2694 2693 2684 2572 2664 2643 2640 2741 2725 2708 2722 2636 2641 2695 2776 2674 2590 2642 2667 2623 2710 2597 2667 2645 2567 2684 2664 2503 2693 2666 2622 2625 2660 2631 2618 2603 2627 2616 2667 2629 2578 2435 2594 2499 2620 2600 2609 2545 2499 2577 2609 2677 2629 2607 2569 2579 2761 2630 2700 2639 2608 2616 2732 2637 2622 2662 2679 2601 2617 2651 2615 2688 2614 2574 2589 2570 2705 2711 2635 2590 2695 2731 2816 2663 2766 2681 2676 2753 2747 2705 2661 2732 2798 2711 2737 2806 2659 2675 2813 2739 2724 2725 2593 2669 2645 2702 2695 2728 2652 2733 2714 2650 2571 2653 2588 2643 2572 2739 2485 2546 2600 2595 2526 2557 2483 2490 2604 2559 2486 2618 2521 2494 2540 2602 2518 2476 2525 2490 2520 2469 2508 2516 2458 2582 2511 2445 2523 2566 2495 2415 2467 2515 2563 2535 2522 2523 2483 2541 2543 2447 2519 2453 2487 2483 2443 2359 2294 2405 2533 2530 2435 2525 2482 2498 2415 2489 2479 2525 2418 2534 2473 2481 2476 2426 2516 2428 2462 2402 2488 2427 2484 2433 2401 2437 2380 2438 2450 2480 2441 2473 2457 2391 2417 2424 2488 2490 2341 2466 2439 2379 2407 2512 2483 2512 2571 2508 2432 2480 2415 2414 2434 2395 2359 2439 2391 2436 2425 2433 2391 2416 2414 2381 2390 2445 2447 2469 2420 2436 2447 2325 2338 2431 2394 2285 2279 2352 2388 2466 2472 2338 2453 2359 2372 2349 2440 2402 2441 2416 2315 2391 2358 2331 2370 2345 2385 2417 2243 2256 2379 2392 2357 2373 2349 2330 2308 2376 2292 2410 2268 2307 2392 2399 2340 2358 2328 2296 2340 2347 2347 2294 2320 2316 2267 2272 2420 2294 2377 2411 2372 2288 2400 2402 2421 2428 2406 2388 2493 2439 2464 2436 2497 2518 2662 2458 2624 2576 2730 2736 2817 2881 2781 2774 2722 2702 2775 2807 2705 2879 2820 2798 2747 2814 2856 2689 2727 2663 2720 2672 2753 2751 2688 2694 2644 2652 2677 2588 2660 2547 2577 2529 2568 2478 2492 2509 2420 2370 2448 2351 2279 2293 2348 2385 2368 2218 2340 2278 2292 2157 2280 2291 2298 2285 2160 2280 2252 2270 2268 2237 2271 2188 2336 2319 2302 2251 2205 2201 2203 2223 2239 2278 2175 2219 2241 2187 2225 2282 2215 2276 2264 2199 2270 2230 2186 2244 2252 2177 2216 2270 2238 2279 2322 2245 2316 2333 2260 2267 2270 2256 2250 2194 2280 2267 2305 2239 2275 2162 2310 2270 2308 2324 2184 2151 2282 2277 2306 2199 2287 2186 2205 2199 2297 2272 2231 2318 2138 2324 2232 2200 2201 2293 2298 2304 2248 2162 2236 2254 2234 2300 2363 2294 2349 2216 2198 2258 2242 2187 2304 2246 2314 2171 2207 2330 2243 2301 2350 2209 2289 2217 2229 2157 2185 2196 2246 2237 2220 2238 2263 2209 2268 2274 2306 2197 2157 2235 2206 2161 2198 2216 2192 2234 2204 2233 2073 2251 2199 2192 2141 2267 2187 2250 2250 2185 2166 2318 2224 2217 2112 2229 2165 2158 2218 2177 2201 2233 2144 2183 2211 2135 2182 2223 2223 2178 2146 2180 2180 2119 2081 2103 2169 2159 2156 2043 2135 2085 2140 2088 2154 2137 2111 2197 2115 2167 2097 2102 2100 2106 2101 2062 2093 2016 2117 2181 2159 2058 2073 1975 2110 2100 2058 2127 1976 2076 2081 2038 2063 2034 2018 1987 1989 2031 2040 2062 1958 1962 1989 1953 1984 1981 2076 1955 2006 1955 1999 2009 1978 2011 1940 1962 2006 1905 1942 1916 2005 1945 1976 1997 1924 1871 1884 1929 1896 1943 1909 1907 1812 1839 1858 1896 1804 1897 1824 1856 1853 1813 1939 1869 1904 1866 1834 1864 1805 1734 1860 1868 1746 1914 1956 1813 1839 1803 1755 1800 1798 1833 1838 1798 1787 1800 1858 1846 1796 1830 1824 1795 1794 1798 1810 1821 1795 1782 1772 1761 1827 1850 1823 1770 1758 1780 1780 1742 1814 1824 1844 1706 1881 1767 1754 1716 1736 1803 1717 1702 1756 1762 1673 1729 1607 1793 1720 1743 1696 1712 1721 1805 1739 1749 1626 1783 1714 1712 1682 1761 1709 1731 1635 1710 1699 1721 1716 1746 1631 1722 1734 1637 1716 1703 1606 1558 1637 1736 1664 1714 1695 1645 1614 1535 1600 1637 1647 1651 1546 1608 1600 1584 1538 1612 1685 1637 1660 1680 1527 1684 1629 1647 1623 1661 1678 1650 1594 1561 1549 1596 1583 1681 1646 1531 1607 1514 1601 1622 1634 1645 1595 1552 1550 1548 1604 1514 1545 1582 1484 1606 1550 1606 1610 1549 1550 1567 1563 1530 1562 1532 1646 1530 1534 1535 1565 1537 1462 1575 1501 1643 1592 1625 1634 1547 1615 1551 1583 1596 1555 1466 1553 1561 1546 1596 1552 1559 1574 1613 1575 1571 1530 1629 1566 1581 1578 1527 1590 1522 1532 1551 1544 1598 1641 1550 1586 1538 1570 1583 1528 1603 1567 1546 1552 1565 1549 1574 1613 1562 1625 1638 1558 1552 1567 1498 1542 1536 1557 1645 1632 1527 1591 1630 1479 1547 1463 1527 1613 1598 1542 1544 1592 1514 1492 1589 1550 1593 1550 1508 1621 1559 1582 1570 1585 1576 1544 1648 1545 1565 1563 1522 1658 1562 1548 1558 1620 1490 1626 1542 1587 1570 1578 1605 1567 1491 1658 1582 1504 1505 1547 1484 1568 1489 1591 1520 1535 1581 1502 1519 1459 1501 1553 1515 1573 1512 1545 1597 1544 1544 1565 1521 1497 1585 1531 1533 1576 1510 1532 1556 1541 1560 1484 1541 1536 1470 1527 1607 1554 1587 1515 1529 1571 1586 1555 1428 1494 1509 1517 1581 1621 1495 1578 1624 1573 1641 1565 1604 1592 1670 1631 1607 1683 1621 1671 1595 1668 1682 1664 1590 1629 1664 1612 1634 1690 1608 1654 1639 1602 1578 1688 1597 1690 1607 1557 1608 1640 1491 1591 1647 1464 1538 1556 1471 1489 1496 1423 1454 1458 1441 1474 1367 1418 1364 1391 1370 1375 1317 1427 1404 1394 1309 1279 1287 1287 1298 1368 1233 1326 1271 1287 1307 1380 1268 1297 1242 1255 1267 1223 1264 1204 1275 1232 1220 1243 1176 1252 1256 1239 1200 1263 1148 1264 1229 1189 1249 1258 1241 1198 1174 1180 1158 1211 1204 1263 1239 1200 1270 1233 1166 1193 1169 1215 1192 1220 1197 1178 1198 1165 1220 1155 1173 1167 1160 1186 1163 1239 1145 1118 1133 1185 1196 1124 1150 1194 1183 1146 1218 1215 1173 1141 1141 1179 1171 1112 1140 1241 1134 1098 1174 1124 1152 1127 1133 1175 1148 1152 1141 1184 1169 1172 1124 1248 1133 1109 1242 1146 1182 1116 1222 1159 1114 1177 1149 1076 1159 1188 1118 1135 1129 1192 1185 1209 1189 1172 1159 1210 1132 1183 1207 1174 1234 1188 1137 1139 1208 1163 1195 1255 1212 1217 1196 1252 1218 1263 1201 1140 1136 1173 1233 1162 1195 1120 1149 1163 1130 1127 1056 1144 1140 1191 1127 1168 1204 1096 1069 1148 1121 1122 1082 1166 1082 1137 1225 1122 1174 1208 1200 1199 1217 1303 1218 1325 1369 1282 1343 1298 1262 1267 1307 1295 1347 1286 1377 1304 1329 1327 1437 1426 1388 1353 1325 1341 1355 1341 1312 1358 1358 1306 1416 1347 1380 1407 1390 1428 1377 1404 1481 1425 1476 1434 1375 1400 1475 1421 1534 1471 1431 1520 1473 1560 1578 1506 1591 1605 1660 1622 1610 1678 1631 1637 1680 1639 1595 1570 1532 1556 1543 1424 1478 1397 1361 1385 1391 1336 1259 1299 1254 1228 1217 1170 1146 1121 1090 1086 1111 1085 1095 1001 1041 1124 1060 928 1023 1009 992 950 928 919 895 928 893 918 994 949 915 940 958 928 908 959 959 933 945 926 975 967 900 927 1007 1106 1040 1053 1049 1098 1135 1125 1149 1149 1147 1067 1200 1107 1115 1046 1116 1116 1103 1054 1051 1097 1119 1017 1075 1091 1026 1060 1094 1090 1001 1046 980 1050 964 1024 989 937 1007 1017 1001 946 928 951 984 957 1026 958 974 960 1002 983 980 979 933 1013 1015 1007 952 1046 991 1011 992 989 1012 1052 1025 985 974 998 994 989 970 1004 998 982 1021 996 956 956 973 1013 947 945 972 984 929 942 943 931 901 939 904 987 921 877 973 885 917 867 935 935 872 879 877 932 972 908 866 957 864 946 831 897 921 973 891 937 866 888 975 906 971 958 992 939 1023 968 983 990 995 980 1018 1053 1062 1063 1072 1035 1089 1089 1156 1192 1141 1195 1141 1304 1332 1264 1239 1348 1346 1398 1361 1454 1398 1423 1417 1439 1440 1408 1429 1452 1389 1409 1402 1404 1354 1354 1399 1349 1317 1381 1357 1294 1382 1282 1337 1316 1257 1297 1271 1280 1232 1183 1165 1188 1206 1211 1156 1097 1134 1095 1091 1154 1077 1066 1037 1056 1059 1027 1000 1027 1029 989 954 968 975 990 935 944 903 863 890 871 881 874 880 876 886 814 857 858 809 847 785 811 776 798 759 788 795 836 791 808 822 773 814 796 752 752 728 769 772 720 809 753 754 766 784 734 817 767 762 806 745 775 839 796 828 825 823 847 880 828 884 827 835 817 811 873 836 872 859 835 855 846 816 791 850 797 810 823 845 810 812 773 862 889 786 788 781 755 718 739 798 754 761 735 758 713 756 749 784 758 732 799 764 743 771 797 775 772 750 743 788 828 775 728 821 751 736 799 846 795 805 809 774 812 807 799 787 827 820 827 849 798 860 864 877 834 820 838 851 832 895 879 852 877 879 863 924 867 919 828 904 896 877 885 919 890 968 946 983 1002 941 1010 1062 1111 1039 1097 1081 1152 1160 1229 1289 1338 1346 1320 1374 1381 1300 1384 1332 1341 1400 1345 1362 1372 1282 1274 1191 1267 1167 1210 1155 1208 1127 1064 1045 1070 1055 1124 1052 1024 1104 1076 1070 1073 1073 1104 1056 1135 1189 1182 1231 1274 1255 1358 1372 1450 1452 1435 1533 1557 1535 1639 1640 1586 1629 1677 1631 1531 1622 1545 1607 1457 1511 1422 1366 1409 1357 1269 1296 1306 1203 1148 1257 1132 1072 1097 1027 1031 1029 987 997 933 880 847 837 807 860 830 832 820 810 754 724 746 761 720 719 708 755 696 732 760 754 741 747 674 703 723 655 692 684 700 683 681 634 686 711 703 735 692 719 659 707 716 755 726 686 747 722 750 719 684 719 730 679 754 707 714 694 733 718 726 708 702 645 727 724 731 679 757 658 676 713 652 586 665 656 649 690 644 662 654 674 646 687 609 564 703 639 681 649 653 679 667 646 701 663 645 645 692 635 645 625 695 673 689 647 649 637 654 657 637 733 656 666 664 662 654 716 681 632 705 669 674 703 707 662 734 721 697 727 662 718 702 689 650 670 643 667 662 664 646 605 663 665 681 684 661 585 655 634 632 638 608 639 645 640 674 694 622 614 661 603 634 651 651 646 613 623 599 622 580 651 658 679 624 587 601 603 659 651 588 628 612 642 651 596 612 624 536 596 564 647 629 564 616 530 559 576 608 585 593 607 557 569 604 556 594 618 596 575 580 584 574 556 613 606 549 578 626 598 599 586 567 618 641 575 613 546 591 620 627 520 569 574 617 617 610 610 645 585 575 584 538 597 556 625 593 646 601 604 643 620 547 617 578 627 606 544 576 584 599 583 585 593 586 579 555 567 550 535 528 561 566 592 526 566 580 494 546 581 588 553 566 542 549 527 577 571 598 560 584 575 545 580 548 579 577 560 575 516 554 580 576 578 517 565 577 586 579 561 553 549 540 561 584 532 548 593 549 524 570 502 483 515 559 563 534 541 549 534 560 585 535 567 528 563 505 552 519 510 557 522 541 552 547 533 511 508 527 546 511 568 512 534 529 573 535 556 546 565 574 570 587 569 516 544 523 569 553 511 582 546 556 543 549 575 526 548 551 555 539 549 558 552 601 546 607 582 543 572 541 510 580 548 567 521 575 557 539 512 536 548 551 565 538 542 491 524 554 492 529 538 531 519 539 527 534 552 539 584 572 565 529 551 591 583 528 573 552 585 571 609 596 564 610 577 633 620 682 609 635 641 589 637 620 691 658 677 647 644 642 627 656 671 656 663 701 630 642 627 644 582 583 625 629 601 649 591 606 604 572 587 558 546 579 521 508 589 509 589 513 546 540 612 562 553 543 530 515 573 526 531 505 553 507 522 483 544 515 524 482 541 514 553 545 529 517 538 488 534 518 532 491 524 511 507 502 521 504 505 531 489 504 477 506 495 544 493 495 547 535 528 563 575 546 545 517 509 547 536 553 575 512 515 547 566 511 547 515 530 529 529 543 518 508 533 530 531 486 535 517 548 536 512 504 472 534 497 519 524 547 501 584 595 570 594 548 587 622 591 645 602 643 715 687 761 694 774 710 776 739 754 769 776 707 730 712 694 693 691 649 690 680 711 658 665 652 673 658 656 633 636 566 566 579 576 566 559 585 551 525 542 544 523 553 533 560 539 557 534 504 530 517 524 531 540 529 530 542 548 543 480 513 519 535 539 513 488 501 536 550 521 584 559 538 543 536 516 536 536 496 544 524 535 593 532 517 541 554 535 551 552 523 534 500 549 531 534 537 497 534 525 501 555 543 513 517 512 489 541 516 529 556 487 527 537 518 477 485 513 516 519 492 507 504 509 548 496 525 497 442 471 517 493 480 525 473 497 482 500 498 483 497 445 528 490 496 492 537 544 496 530 530 492 519 506 507 518 493 560 484 469 478 523 518 504 508 550 508 466 500 490 525 500 526 456 508 488 450 509 465 475 516 483 453 454 451 464 522 503 452 464 452 433 531 487 487 512 451 484 489 451 485 451 481 463 475 461 464 482 469 464 486 525 495 466 426 465 472 485 477 507 458 461 512 501 454 462 516 474 488 477 438 423 474 456 490 479 474 467 491 462 463 467 453 433 498 445 460 446 470 438 420 468 473 416 451 412 474 456 443 460 449 450 454 456 431 462 463 440 512 448 425 462 441 467 446 437 451 474 458 451 424 455 463 460 407 429 467 456 457 469 439 490 459 470 502 475 441 433 469 425 441 481 490 433 449 464 454 466 459 459 444 458 454 457 441 481 481 470 473 469 430 452 474 456 464 472 447 443 482 448 459 430 477 443 467 498 467 425 457 416 435 455 434 471 455 475 441 451 440 426 454 430 474 476 444 409 437 448 479 461 437 432 476 450 455 436 486 418 453 438 478 485 490 452 438 443 451 465 428 448 440 464 483 442 443 508 475 518 472 473 499 473 432 483 479 485 513 526 484 526 482 547 566 523 509 545 471 524 507 499 468 528 463 489 484 511 482 512 492 498 488 535 532 510 522 525 451 477 510 513 484 480 453 515 493 496 509 457 476 483 516 502 452 501 451 474 469 474 445 452 479 474 425 504 445 479 443 463 460 437 459 443 467 478 469 480 515 492 476 484 506 490 483 495 482 471 471 513 491 458 492 492 496 505 478 502 463 498 471 498 481 502 501 489 493 479 454 452 498 472 460 487 509 492 497 538 488 465 498 493 484 457 488 533 491 489 464 535 517 480 468 485 493 533 486 474 444 495 496 532 485 491 466 544 473 490 503 515 502 507 518 521 479 507 484 473 481 501 469 474 420 471 500 441 497 505 510 480 516 527 511 519 523 523 467 495 495 503 544 527 563 527 526 499 541 600 551 541 572 564 529 523 550 586 501 551 556 527 576 504 565 512 571 586 583 554 543 519 549 608 539 608 561 534 591 616 558 626 623 621 640 598 624 672 638 682 651 694 688 700 721 723 714 680 695 687 638 664 657 652 631 649 608 596 642 627 590 581 609 563 582 569 564 551 593 529 586 566 557 510 556 562 589 521 549 483 547 579 540 512 568 550 526 553 564 509 529 513 531 520 517 519 546 558 551 530 523 504 480 502 489 493 471 518 495 459 456 481 454 452 463 477 495 455 449 444 446 494 459 468 437 453 447 441 426 398 427 435 400 465 464 447 463 451 452 459 400 431 427 389 427 437 440 435 457 452 472 446 496 485 445 525 456 522 493 486 465 470 491 534 499 493 547 531 544 554 610 600 596 595 558 565 589 607 610 585 574 558 564 594 568 597 538 514 575 545 567 508 574 549 516 488 477 485 497 508 521 497 495 454 442 496 490 441 471 424 445 462 451 434 481 431 453 439 417 470 455 456 486 452 491 492 491 472 482 475 484 489 500 539 496 549 508 492 543 558 558 565 535 516 557 524 539 555 501 517 513 564 505 530 542 505 496 522 505 462 488 455 494 487 463 457 464 484 471 409 437 428 433 443 443 454 473 422 467 426 423 429 428 415 422 421 429 432 404 427 407 391 415 398 443 420 413 410 414 479 420 427 386 433 426 411 455 389 445 449 455 417 426 445 420 439 440 403 420 446 429 408 421 417 428 402 475 461 462 415 478 408 435 415 429 433 437 419 456 451 411 407 432 445 418 425 422 423 440 405 444 459 445 402 439 477 452 396 411 383 403 396 415 426 449 444 408 407 382 447 424 414 433 368 428 434 431 398 422 405 398 419 433 453 392 444 441 453 437 466 429 423 428 453 463 396 474 376 436 431 452 420 460 443 442 410 408 443 398 409 414 407 404 384 383 388 439 383 404 383 392 426 437 418 423 411 386 431 415 409 427 432 400 398 362 453 436 420 447 410 399 412 430 423 401 385 435 448 400 442 442 437 390 397 385 415 372 397 400 422 432 414 362 402 392 388 418 407 432 383 419 393 403 412 412 407 411 416 415 408 424 419 377 407 423 378 403 372 410 384 399 353 403 395 368 421 401 399 388 385 381 384 399 372 374 369 419 377 392 382 407 384 343 336 369 360 355 381 378 370 400 360 362 415 355 361 389 397 375 367 401 371 377 384 347 398 366 394 380 374 372 348 364 372 355 401 390 350 374 389 368 401 371 358 393 403 370 408 388 352 376 394 393 346 342 352 372 356 358 334 351 388 359 373 375 369 368 375 349 402 351 398 362 361 363 370 356 388 352 359 361 396 366 382 387 426 348 406 408 405 386 395 406 442 395 440 460 417 415 389 420 431 431 419 421 419 382 396 436 407 388 388 394 403 359 373 386 367 404 344 373 395 371 397 358 369 360 376 340 384 374 361 337 365 381 352 355 333 361 344 375 409 351 338 330 339 356 373 365 336 375 364 370 382 365 360 339 363 332 332 359 349 357 423 355 322 348 377 373 323 316 342 352 367 373 320 370 329 333 313 368 376 379 352 366 346 371 334 334 353 369 363 348 376 354 358 310 357 340 343 322 414 343 344 361 370 368 367 363 356 366 363 367 370 354 371 377 363 317 346 345 340 341 369 350 357 361 324 386 355 351 380 360 337 354 360 348 345 354 334 388 371 369 340 336 388 378 357 344 366 401 365 318 398 330 372 347 341 331 336 358 347 392 356 381 397 349 361 359 368 364 378 381 362 386 404 326 341 343 357 362 353 393 361 361 336 315 349 321 349 322 348 342 333 351 344 313 337 359 346 346 334 340 334 343 340 348 312 359 342 344 338 326 361 356 368 328 364 323 356 378 357 362 343 318 362 319 380 344 347 340 330 355 341 352 341 330 399 340 360 364 372 345 348 353 308 353 331 314 328 376 323 354 358 344 343 362 316 343 340 334 329 350 384 344 333 340 330 343 359 341 349 344 340 335 304 330 352 333 341 336 332 342 358 352 364 354 342 349 349 340 336 332 324 357 365 308 351 342 343 358 346 367 352 321 362 337 329 348 343 308 335 331 340 341 346 372 316 364 354 349 398 367 320 356 333 354 359 339 336 371 392 327 385 374 337 398 386 352 333 373 364 348 350 363 359 341 383 318 372 370 340 356 378 341 373 339 360 351 391 366 339 347 357 365 342 351 345 355 374 341 352 337 338 355 355 362 370 343 348 348 379 358 337 365 336 349 324 346 362 333 331 351 315 331 302 322 349 348 331 337 355 358 331 320 345 391 340 359 363 355 338 365 345 378 340 376 364 354 375 344 362 367 388 326 435 378 370 431 387 364 405 418 404 406 392 395 415 403 380 388 419 414 413 378 392 398 394 421 409 390 370 401 372 391 386 377 343 395 356 357 361 398 347 364 355 366 345 326 367 352 334 334 324 351 368 329 343 364 346 365 317 321 342 329 332 360 358 343 337 336 332 359 308 363 324 333 348 321 348 303 328 343 335 343 305 344 329 345 320 343 298 330 316 372 309 307 324 318 317 340 346 310 335 278 332 351 322 318 349 336 313 341 330 296 325 279 296 298 342 328 306 308 313 284 314 303 328 318 326 353 292 333 307 298 319 336 300 307 335 321 373 291 332 319 318 317 321 351 361 322 344 313 348 371 358 356 365 355 371 370 331 339 341 376 330 358 326 349 320 355 367 349 347 342 362 408 338 334 343 335 337 318 378 360 358 416 326 349 360 342 344 346 326 331 324 330 307 335 338 339 316 325 338 342 361 320 329 344 362 353 317 312 346 309 350 345 352 361 346 347 372 357 357 401 360 380 393 379 374 369 384 387 402 370 392 404 333 367 410 378 403 389 378 364 383 411 382 393 374 361 350 390 391 377 383 372 328 372 363 345 327 373 366 331 327 364 356 340 331 333 366 347 294 314 333 334 304 359 313 334 364 374 368 328 355 329 329 355 349 314 364 286 296 329 347 318 360 328 380 358 357 332 311 349 349 336 316 370 331 338 334 320 311 317 323 319 315 332 311 339 289 317 349 318 314 289 352 344 290 325 315 315 297 309 297 296 321 325 315 338 325 314 310 309 289 262 285 282 281 339 294 260 282 307 276 286 299 329 276 326 326 311 311 330 297 341 322 314 334 303 341 304 277 305 304 319 284 292 337 291 316 312 323 309 345 293 326 318 293 312 309 291 298 309 307 326 302 305 280 340 314 274 310 310 296 320 304 273 327 285 261 310 299 293 309 292 320 285 280 323 324 296 307 276 309 302 326 305 334 327 338 326 320 317 354 366 349 314 329 330 325 306 316 317 341 309 318 318 363 334 352 321 354 292 310 286 301 283 302 299 311 335 287 322 288 301 299 276 293 265 309 275 330 309 308 309 287 305 302 294 300 273 313 268 289 331 316 291 278 315 335 276 291 247 302 271 296 337 298 298 308 306 268 309 270 305 290 292 302 323 273 309 286 327 295 312 332 313 296 333 325 325 312 330 346 324 300 322 288 272 291 284 310 319 295 322 256 301 296 266 298 312 334 347 294 309 329 258 297 329 290 294 317 281 314 316 296 310 290 302 309 296 283 305 338 324 290 318 324 307 307 343 322 292 235 273 290 319 324 285 311 266 334 302 318 293 310 277 326 305 318 298 285 290 308 287 300 293 293 260 291 297 300 305 275 297 287 299 281 289 261 270 284 278 266 264 286 302 287 287 261 275 272 242 299 293 284 298 281 246 249 271 267 292 278 257 270 290 258 258 287 279 333 291 309 290 318 276 268 332 299 300 291 281 288 279 266 281 292 272 302 279 296 311 279 268 264 272 283 259 296 286 273 289 269 292 286 274 294 288 239 300 275 274 300 271 310 300 291 292 287 294 277 251 270 300 300 258 265 284 275 237 265 285 312 274 284 285 290 310 294 284 294 264 278 294 261 282 268 283 310 267 312 241 282 278 284 273 282 276 280 302 248 308 303 287 303 305 301 292 294 283 265 297 268 300 256 305 276 306 303 294 301 241 309 278 277 279 256 297 294 270 305 291 296 280 277 242 317 281 298 282 276 277 282 270 271 303 298 297 297 284 283 273 300 280 309 286 272 271 275 272 267 273 310 245 282 229 302 273 280 262 287 256 292 282 287 299 283 315 295 276 324 266 262 298 281 269 280 301 289 306 299 275 270 285 278 288 320 299 293 267 276 314 273 285 272 317 301 283 303 293 288 300 269 286 284 287 281 249 275 270 258 271 297 284 308 319 269 309 275 283 298 256 265 298 265 268 279 279 316 302 262 289 274 287 291 245 267 290 268 269 244 278 231 267 286 275 271 271 280 284 280 289 270 256 260 259 300 296 274 242 241 250 241 290 272 302 277 292 269 285 267 238 269 281 298 246 261 265 265 258 298 264 281 258 300 280 261 288 262 299 258 259 305 232 249 263 265 290 286 266 239 303 263 274 259 310 286 287 283 273 269 278 249 288 290 281 293 296 290 259 306 249 269 300 278 295 235 251 267 259 273 262 307 270 270 291 261 295 276 247 290 297 249 276 281 312 282 271 260 271 300 241 259 285 265 295 259 289 290 241 273 261 249 287 277 273 315 264 260 257 270 257 270 294 268 300 317 270 266 272 272 263 308 283 295 288 281 290 318 285 246 292 296 263 277 293 226 279 259 272 283 237 266 241 270 259 257 267 268 265 267 274 278 281 267 298 267 256 270 244 289 289 270 287 241 290 260 272 260 270 272 292 279 281 244 279 279 305 250 271 270 267 268 309 264 284 292 283 265 268 256 289 294 315 245 263 263 281 232 274 229 276 245 276 240 256 275 263 256 264 264 259 233 261 276 260 260 257 264 236 276 283 259 244 246 258 263 226 263 259 265 247 257 256 286 248 285 269 276 276 220 241 248 265 283 236 272 267 272 236 265 265 263 295 261 285 231 246 280 306 291 278 232 268 244 307 272 259 264 266 226 317 264 291 248 233 262 286 243 244 267 271 264 262 262 268 235 315 293 268 273 257 273 259 285 261 264 276 260 280 274 283 242 269 269 242 313 274 293 271 261 284 264 240 284 273 278 304 290 264 286 260 293 257 285 259 268 261 250 239 267 304 291 290 275 269 290 297 285 266 281 264 278 238 292 260 248 274 269 296 276 272 262 278 264 285 256 293 267 239 244 285 273 286 285 300 278 274 281 279 263 278 277 274 296 275 291 273 288 260 290 257 298 247 261 315 288 308 279 280 312 298 237 303 295 285 323 307 271 303 278 266 305 274 285 318 300 285 309 300 296 284 292 286 248 308 279 268 279 292 296 305 280 283 313 315 331 271 300 278 275 274 275 267 249 288 238 298 267 277 264 298 266 274 245 290 264 273 277 272 247 304 245 278 293 286 257 275 272 260 263 232 265 272 261 286 247 264 262 243 232 233 287 280 241 279 269 280 259 281 259 266 286 283 277 266 264 288 342 285 271 281 291 290 279 265 258 286 301 294 303 262 289 305 267 306 280 293 280 281 284 297 261 280 292 293 305 299 261 286 285 291 307 325 329 272 269 286 290 302 292 290 282 268 282 281 296 263 287 306 286 298 260 292 283 247 276 257 299 266 247 268 268 287 249 277 234 277 274 282 303 303 282 281 280 282 281 296 274 276 259 268 251 264 250 271 310 264 241 274 256 280 280 260 272 260 267 257 264 259 267 277 257 275 234 282 245 272 295 263 283 259 280 242 264 292 278 266 285 264 274 289 257 275 269 261 236 275 285 265 287 286 256 289 269 297 269 269 283 245 302 260 283 264 257 278 295 264 286 280 290 260 262 289 294 242 312 288 303 304 276 289 278 282 279 281 300 251 280 293 305 257 296 239 293 275 269 263 281 223 316 258 276 287 260 259 277 288 274 278 276 269 258 277 271 310 287 292 274 290 294 270 278 262 287 289 303 288 272 306 270 276 266 273 287 266 292 275 304 284 302 258 300 297 288 282 284 267 294 261 265 262 291 265 267 273 278 268 241 276 298 271 304 257 266 232 313 277 233 290 289 270 289 279 274 240 245 259 248 251 277 264 328 270 262 239 288 280 294 317 310 270 244 273 267 261 285 270 260 280 240 284 264 272 266 267 263 257 299 274 257 271 265 288 293 245 237 280 267 264 295 299 256 285 250 263 277 266 271 296 282 299 249 267 258 293 245 260 285 247 307 281 285 260 271 267 266 247 245 279 311 282 256 302 306 299 280 311 277 273 266 294 287 277 287 280 295 294 318 286 297 272 305 278 258 301 273 287 304 310 322 272 258 301 291 297 306 313 313 282 298 280 280 267 281 268 267 308 311 281 292 304 326 272 340 297 293 293 283 282 293 320 266 276 289 302 250 301 303 291 279 279 294 288 273 302 305 329 279 272 303 325 302 293 313 301 296 279 292 309 287 316 303 275 269 319 296 292 293 307 290 270 291 244 290 272 292 292 278 266 307 294 343 303 263 290 301 313 271 279 286 250 296 286 306 302 333 286 278 268 294 262 291 296 264 257 293 279 300 282 272 292 272 279 265 277 280 278 276 289 278 265 242 294 310 290 288 248 277 286 267 267 248 306 266 312 273 303 265 284 333 292 270 306 291 294 288 279 264 311 291 301 317 289 297 245 303 263 286 290 273 266 289 263 288 274 295 292 285 265 283 239 279 292 294 287 236 276 262 277 276 285 295 285 273 268 266 292 295 279 277 286 286 270 282 294 248 268 300 277 283 277 288 279 309 276 259 275 288 300 293 275 310 260 284 282 275 289 259 273 265 290 245 292 279 278 294 298 282 275 267 275 278 294 270 263 293 273 316 295 266 321 244 277 245 292 300 290 289 318 315 268 276 274 298 275 290 289 287 289 283 314 279 287 304 287 292 278 297 300 311 297 337 303 311 320 270 292 283 334 309 289 314 283 277 276 322 286 301 308 302 300 311 280 287 284 281 317 303 289 267 277 312 295 303 311 296 308 291 281 299 313 321 292 305 293 298 291 261 297 307 319 299 295 293 294 240 269 274 290 290 308 304 290 308 290 280 279 276 281 283 256 271 292 302 291 304 260 283 264 280 278 296 298 323 296 275 278 311 283 292 261 277 260 297 285 277 274 280 284 302 280 293 260 265 294 328 303 329 285 283 263 300 273 283 309 295 291 288 306 306 279 279 288 303 278 276 292 280 295 305 284 273 299 298 274 354 277 280 259 285 310 315 331 284 272 283 279 271 299 247 312 306 275 302 273 266 293 315 257 257 292 287 295 305 315 272 286 280 268 288 277 281 282 300 313 288 293 299 266 309 287 299 270 289 263 288 281 289 267 269 329 323 281 287 268 278 298 302 285 285 290 270 285 289 291 271 270 274 273 290 267 297 306 273 289 292 269 279 298 271 292 304 286 273 278 289 279 294 264 297 287 296 288 314 285 300 291 320 269 324 284 295 309 289 305 316 267 302 329 308 303 293 312 288 302 337 307 298 304 290 297 306 274 322 287 284 307 294 284 294 273 264 284 312 285 314 309 282 293 309 308 315 307 304 314 308 282 292 266 281 288 297 294 270 278 281 317 286 258 267 279 287 219 248 267 284 262 283 280 262 304 275 277 274 248 289 250 275 300 288 281 264 272 266 236 256 284 278 268 297 268 246 258 288 256 290 274 272 241 259 273 287 266 277 264 265 299 279 272 269 269 269 298 261 246 293 289 296 288 281 275 337 286 289 243 250 258 279 258 293 279 250 268 281 272 258 286 251 284 287 338 282 297 285 234 293 279 288 267 296 260 231 283 289 276 306 276 270 270 289 288 230 287 289 286 288 258 293 276 321 276 232 264 259 278 310 302 272 249 262 279 301 302 277 265 281 283 274 267 274 248 264 267 277 273 247 281 277 289 275 232 302 291 284 256 242 273 238 262 302 285 244 283 293 273 259 278 265 266 284 249 280 296 247 287 269 259 289 274 307 277 271 262 270 265 280 264 250 275 267 294 256 234 263 288 261 276 266 262 250 303 247 270 289 280 279 265 267 287 246 257 240 245 223 230 236 262 269 271 244 248 235 240 286 268 262 267 241 261 231 235 257 282 292 279 244 234 243 244 272 240 238 259 270 277 279 249 248 312 232 283 268 265 286 281 280 264 273 249 232 272 274 292 238 306 244 268 279 280 278 290 234 285 294 243 244 271 259 282 294 259 258 290 273 296 257 271 268 281 261 260 242 271 283 235 268 238 271 260 264 260 291 261 268 284 244 266 278 239 276 271 265 246 270 233 246 257 305 234 270 249 231 249 273 289 277 291 268 263 237 245 259 242 226 262 280 251 237 247 245 256 249 234 279 227 274 268 302 240 230 280 259 250 239 256 235 279 287 299 256 297 259 228 243 272 279 250 239 227 236 267 237 280 227 273 218 262 264 261 277 272 263 265 272 275 237 272 248 264 263 268 271 236 242 243 247 246 222 243 249 242 206 239 246 231 234 270 231 225 242 286 275 246 262 245 226 263 242 266 246 240 226 238 266 258 259 246 239 244 268 235 258 237 230 242 231 268 265 258 244 245 232 245 248 231 243 267 233 227 246 223 223 234 247 269 238 231 237 232 245 259 262 264 249 245 256 258 258 261 270 276 248 229 270 225 256 260 238 276 256 248 247 220 250 242 235 213 240 231 238 231 216 243 271 222 245 245 260 225 241 233 234 214 224 277 270 265 304 266 244 235 261 233 237 249 266 264 287 259 251 237 250 240 231 248 241 221 236 265 263 244 259 264 263 246 234 229 233 260 281 244 276 236 263 257 225 278 212 266 261 263 236 247 232 261 239 268 256 246 234 243 259 256 259 269 227 257 209 236 219 246 229 234 262 205 245 220 221 259 239 248 241 249 228 263 241 260 237 260 256 237 239 246 230 214 229 261 241 214 262 230 257 238 246 228 277 238 256 231 256 250 256 224 256 241 262 235 265 243 270 262 256 244 247 276 239 223 227 236 214 271 275 235 245 262 243 256 283 236 256 226 247 236 231 259 271 240 263 270 244 280 249 261 275 235 261 250 265 248 280 259 202 248 246 247 230 238 223 241 233 265 236 272 243 238 226 232 227 230 229 242 258 256 247 257 295 268 249 256 246 240 265 257 242 250 260 232 244 250 234 264 284 268 270 260 240 267 241 272 239 248 262 268 257 263 229 257 256 237 243 249 267 221 275 263 235 226 239 238 241 234 230 247 265 240 216 243 229 241 235 233 256 240 270 276 212 259 227 267 224 258 242 239 262 299 234 239 237 233 235 239 235 264 245 262 238 256 210 264 234 246 237 265 226 249 287 232 266 247 280 288 279 221 240 219 237 229 227 237 235 276 237 232 213 241 257 258 222 242 228 270 238 234 225 213 237 216 223 281 216 259 248 247 234 242 248 240 267 272 219 233 237 230 240 249 263 214 209 248 234 248 241 257 233 279 264 235 202 272 272 237 281 278 234 258 261 260 230 231 270 248 242 287 258 245 276 256 259 228 256 226 274 269 263 240 238 229 259 265 233 279 247 238 272 284 266 265 276 236 262 266 221 236 224 229 290 241 273 264 272 251 229 242 238 273 271 248 276 276 279 275 281 259 245 251 259 314 269 250 267 269 240 279 261 270 246 249 263 266 271 281 293 286 237 275 273 249 286 245 270 236 273 247 269 274 274 249 232 270 239 241 288 277 288 276 240 273 247 219 231 226 238 238 245 281 233 250 262 280 269 265 258 248 219 245 236 245 243 262 225 239 273 210 241 245 260 274 250 217 280 273 257 249 241 247 232 248 257 250 270 244 275 256 263 241 220 209 226 262 235 246 266 224 245 239 243 247 235 226 257 246 229 258 287 225 265 220 230 263 261 232 277 235 242 234 244 244 272 269 244 263 234 243 301 225 233 229 237 248 214 226 269 247 273 210 234 283 237 227 212 270 224 211 228 279 221 266 212 232 266 259 245 224 267 244 249 219 242 225 229 225 221 229 225 245 231 226 213 232 237 237 288 244 250 228 247 237 232 226 245 246 261 227 201 247 234 256 191 230 242 227 209 242 228 261 237 242 249 229 210 213 234 286 231 240 259 258 261 276 208 217 211 246 218 246 244 231 268 249 238 265 228 248 239 209 272 233 264 251 243 270 244 242 243 274 235 210 267 232 242 231 272 216 237 235 250 246 259 246 218 232 244 241 235 284 216 262 276 224 234 240 247 226 249 216 242 236 245 263 216 256 216 242 241 248 239 244 246 238 240 245 241 225 229 246 260 235 233 258 261 244 224 216 233 221 237 219 230 242 228 240 233 224 263 243 224 202 257 219 228 245 265 222 256 231 224 241 231 230 246 272 222 236 231 229 259 221 263 259 270 224 271 239 231 204 227 233 269 218 221 262 258 227 225 239 214 249 242 247 276 226 260 250 225 234 270 261 228 227 240 202 248 276 243 266 229 219 214 211 238 220 241 244 261 264 243 228 231 231 259 226 225 243 227 227 226 227 264 236 257 238 243 217 228 215 223 239 219 259 223 226 244 228 273 215 231 214 230 237 238 223 211 219 248 237 237 190 275 235 233 224 224 241 213 241 242 244 221 259 248 227 223 235 240 235 239 217 227 247 288 233 269 222 223 243 257 242 246 223 235 234 218 238 233 214 218 238 226 237 263 220 257 263 245 229 247 226 230 246 256 249 232 256 274 274 226 243 239 241 229 222 208 234 224 235 233 230 217 224 237 226 267 188 225 230 186 233 245 235 242 230 239 220 243 235 233 237 249 219 240 230 226 228 231 267 278 248 230</counts>
			</dataPoints>
		</scan>
	</xrdMeasurement>
</xrdMeasurements>
