<?xml version="1.0"?>
<xrdMeasurements xmlns="http://www.xrdml.com/XRDMeasurement/2.3" xmlns:xsi="http://www.w3.org/2001/XMLSchema-instance" xsi:schemaLocation="http://www.xrdml.com/XRDMeasurement/2.3 http://www.xrdml.com/XRDMeasurement/2.3/XRDMeasurement.xsd" status="Completed" recordIdentifier="{E1DD1F20-AEF2-4955-9857-D8EBF9171A5C}">
	<comment>
		<entry/>
	</comment>
	<sample type="To be analyzed">
		<id>GPSS_Li2Mg0p5Fe0p5Cl4_100725_68e5a8e007cf888582f935c8</id>
		<name></name>
		<preparedBy></preparedBy>
	</sample>
	<xrdMeasurement measurementType="Scan" status="Completed" sampleMode="Reflection">
		<usedWavelength intended="K-Alpha 1">
			<kAlpha1 unit="Angstrom">1.5405980</kAlpha1>
			<kAlpha2 unit="Angstrom">1.5444260</kAlpha2>
			<kBeta unit="Angstrom">1.3922500</kBeta>
			<ratioKAlpha2KAlpha1>0.5000</ratioKAlpha2KAlpha1>
		</usedWavelength>
		<incidentBeamPath>
			<radius unit="mm">145.00</radius>
			<xRayTube id="1010048" name="Empyrean Cu LFF HR (9430 033 7310x)">
				<tension unit="kV">40.0</tension>
				<current unit="mA">15.0</current>
				<anodeMaterial>Cu</anodeMaterial>
				<focus type="Line">
					<length unit="mm">12.0</length>
					<width unit="mm">0.4</width>
					<takeOffAngle unit="deg">6.0</takeOffAngle>
				</focus>
			</xRayTube>
			<sollerSlit id="21010002" name="Soller slits 0.04 rad.">
				<opening unit="rad">0.0400</opening>
			</sollerSlit>
			<mask id="22031000" name="Fixed mask 13 mm">
				<width unit="mm">9.00</width>
			</mask>
			<divergenceSlit id="22120001" name="Divergence slit 1°" xsi:type="fixedDivergenceSlitType">
				<distanceToSample unit="mm">50.00</distanceToSample>
				<height unit="mm">1.52</height>
			</divergenceSlit>
		</incidentBeamPath>
		<sampleMovement xsi:type="spinningSampleMovementType">
			<spinnerRevolutionTime unit="seconds">1.0</spinnerRevolutionTime>
		</sampleMovement>
		<diffractedBeamPath>
			<radius unit="mm">145.00</radius>
			<antiScatterSlit id="22090040" name="AS slit 9 mm (PIXcel)" xsi:type="fixedAntiScatterSlitType">
				<height unit="mm">9.00</height>
			</antiScatterSlit>
			<sollerSlit id="21020003" name="Large Soller slits 0.04 rad.">
				<opening unit="rad">0.0400</opening>
			</sollerSlit>
			<filter id="20030001" name="Large beta-filter Nickel">
				<material>Ni</material>
				<thickness unit="mm">0.020</thickness>
			</filter>
			<detector id="7010019" name="PIXcel1D-Medipix3 detector" xsi:type="rtmsDetectorType">
				<phd unit="keV">
					<lowerLevel>4.02</lowerLevel>
					<upperLevel>11.27</upperLevel>
				</phd>
				<mode>Scanning</mode>
				<activeLength unit="deg">5.542</activeLength>
			</detector>
		</diffractedBeamPath>
		<scan appendNumber="0" mode="Continuous" scanAxis="Gonio" status="Completed">
			<header>
				<startTimeStamp>2025-10-09T13:37:09-07:00</startTimeStamp>
				<endTimeStamp>2025-10-09T13:45:16-07:00</endTimeStamp>
				<author>
					<name>AutomatedUser</name>
				</author>
				<source>
					<applicationSoftware version="1.7b (136)">PANalytical Aeris Instrument Suite</applicationSoftware>
					<instrumentControlSoftware version="3.2.00000000 20240306">AERIS</instrumentControlSoftware>
					<instrumentID>950485</instrumentID>
				</source>
			</header>
			<dataPoints>
				<positions axis="2Theta" unit="deg">
					<startPosition>10.00943322</startPosition>
					<endPosition>99.99442286</endPosition>
				</positions>
				<positions axis="Omega" unit="deg">
					<startPosition>5.00471661</startPosition>
					<endPosition>49.99721143</endPosition>
				</positions>
				<commonCountingTime unit="seconds">12.495</commonCountingTime>
				<counts unit="counts">3046 3124 2910 3108 3054 2977 3007 2988 3024 3223 3013 3050 2999 3050 3042 2975 2964 3063 3066 3114 3106 2994 3017 3084 3044 3049 2948 3019 3117 2991 3003 3098 3128 2973 3085 3073 3116 3107 3056 3067 3040 3017 3039 3033 3100 3139 3113 3069 3083 3033 3032 2980 3026 3044 2995 3062 2993 3115 3054 3097 3101 3142 3001 3177 3006 3004 3204 3111 3104 3142 3040 3075 3039 3115 3057 3039 3064 3218 3102 3067 3084 3153 3223 3171 3122 3074 3087 3136 3057 3135 3064 3161 3145 3054 3114 3148 3167 3127 3104 3136 3077 3069 3153 3243 3076 3110 3109 3170 3191 3301 3112 3106 3271 3085 3236 3197 3131 3185 3148 3179 3080 3092 3134 3172 3139 3136 3124 3158 3276 3091 3146 3329 3168 3122 3152 3209 3317 3206 3188 3232 3159 3135 3120 3145 3153 3193 3233 3081 3259 3195 3146 3211 3081 3218 3136 3143 3219 3277 3198 3252 3262 3158 3205 3193 3208 3171 3205 3156 3263 3203 3224 3119 3232 3092 3326 3257 3194 3254 3261 3171 3202 3278 3265 3190 3128 3181 3210 3202 3084 3275 3229 3225 3222 3154 3251 3225 3176 3201 3242 3190 3217 3141 3219 3131 3212 3232 3182 3042 3213 3165 3177 3182 3228 3103 3155 3107 3310 3163 3158 3190 3052 3067 3066 3092 3181 3073 3177 3151 3085 3216 3129 3086 3080 3132 3173 3070 3199 3111 3188 3209 3218 3188 3116 3193 3202 3251 3091 3048 3010 3126 2958 3088 3027 3132 3009 3224 3113 3096 3104 3138 3070 3084 3153 3083 3060 3037 3117 3137 3062 3133 3166 3090 3085 3092 3191 3146 3184 3145 3103 3098 3156 3084 3165 3149 3199 3123 3142 3146 3005 3173 3113 3215 3176 3157 3184 3143 3202 3050 3087 3124 3085 3195 3131 3263 3118 3193 3179 3143 3207 3161 3194 3252 3187 3109 3242 3114 3171 3146 3200 3209 3205 3223 3223 3216 3230 3337 3290 3175 3218 3116 3329 3391 3318 3340 3334 3358 3281 3241 3300 3244 3345 3431 3238 3371 3437 3397 3282 3362 3297 3281 3416 3369 3348 3382 3469 3447 3475 3442 3479 3371 3459 3441 3423 3358 3493 3422 3443 3547 3421 3457 3433 3474 3388 3464 3615 3547 3536 3414 3492 3513 3615 3557 3481 3458 3521 3490 3479 3520 3517 3622 3467 3546 3568 3584 3595 3522 3613 3502 3557 3616 3608 3595 3591 3619 3763 3714 3643 3666 3628 3848 3751 3767 3798 3712 3751 3848 3954 3958 3900 3871 3982 4100 4178 4124 4275 4270 4343 4493 4247 4401 4407 4346 4562 4623 4688 4595 4725 4663 4630 4854 4717 4613 4715 4801 4703 4834 4635 4731 4668 4735 4661 4527 4399 4666 4458 4319 4430 4443 4298 4346 4247 4231 4105 4206 4114 4055 3985 3983 3959 3987 3895 4022 3962 3960 4016 3906 3871 3809 3975 3722 3770 3708 3777 3813 3784 3540 3703 3674 3613 3589 3604 3695 3518 3616 3532 3543 3481 3509 3539 3462 3547 3421 3498 3567 3425 3551 3399 3555 3452 3460 3552 3293 3356 3469 3344 3445 3555 3521 3414 3407 3316 3346 3411 3340 3469 3491 3265 3373 3412 3349 3268 3440 3380 3426 3338 3200 3312 3297 3279 3402 3320 3420 3226 3280 3293 3218 3355 3328 3398 3243 3188 3358 3255 3296 3294 3221 3257 3236 3257 3205 3145 3343 3159 3233 3276 3276 3132 3322 3261 3182 3239 3262 3215 3209 3183 3204 3313 3221 3190 3309 3226 3252 3149 3201 3219 3206 3167 3032 3115 3172 3251 3132 3253 3222 3143 3214 3177 3106 3117 3232 3097 3154 3098 3127 3211 3155 3077 3143 3112 3182 3154 3134 3034 3177 3183 3178 3148 3065 3111 3170 3044 3195 3042 3078 3106 3098 3195 3005 3073 3089 3136 3136 3177 3090 3121 3182 3008 3123 3086 3082 3144 3109 3071 3149 3160 3064 3158 3128 3056 2962 3086 3122 3011 3049 3135 3163 3059 3024 3033 3140 3167 3064 3074 3090 3203 2949 3132 3102 3098 2977 3094 3037 3118 3161 3075 3107 3027 3007 3136 3089 2987 3085 3056 3058 2994 3063 3052 2959 3053 3090 3000 3010 3101 3088 3035 3009 3085 2989 3143 2977 3020 2937 3053 3016 3059 3044 3083 2953 3098 3077 2907 3081 3056 2920 2976 3011 2937 3027 3002 3022 2929 3060 2964 2993 2942 3042 3133 3070 2970 3025 2910 3007 2929 2969 3001 2960 2954 3021 2973 3029 3065 3020 3022 3021 3054 3015 2944 2884 2941 3034 3048 2917 3018 3059 2870 2944 2881 2944 2967 2922 2876 2962 3044 2895 3037 2998 2965 2921 3049 3013 2933 2947 2900 2915 2865 2923 2829 2884 2959 3044 2947 2958 2865 2877 2956 2984 2958 2940 2922 2916 2923 2895 2930 2937 2825 3001 2892 2928 2933 2886 2879 2864 2900 3000 2960 2907 2860 2964 2826 2871 2964 2965 2932 2878 3059 2835 2812 2853 2860 2863 2945 2915 2863 2897 2905 2945 2863 2874 3023 2972 2972 2822 2946 2875 2860 2835 2857 2889 2946 3042 2844 2865 2881 2857 2922 2997 2988 2752 2833 2936 2830 2910 2905 2842 2731 2840 2864 2901 2939 2872 2858 2743 2900 2823 2882 2867 2816 2874 2865 2695 2842 2899 2850 2823 2809 2814 2785 2849 2842 2819 2891 2814 2799 2800 2797 2848 2850 2817 2762 2914 2829 2770 2824 2890 2779 2763 2878 2705 2852 2895 2778 2831 2802 2763 2765 2812 2810 2885 2794 2890 2807 2798 2727 2745 2707 2702 2820 2722 2763 2887 2754 2806 2718 2786 2793 2663 2745 2748 2666 2785 2742 2640 2712 2700 2766 2680 2734 2804 2662 2810 2806 2666 2739 2676 2752 2776 2694 2800 2803 2812 2768 2798 2700 2777 2760 2771 2696 2803 2780 2888 2751 2676 2736 2657 2731 2720 2780 2682 2679 2802 2657 2785 2704 2729 2692 2594 2805 2650 2738 2697 2764 2719 2651 2706 2787 2703 2724 2784 2827 2655 2718 2725 2723 2720 2832 2748 2713 2747 2702 2753 2715 2763 2792 2666 2783 2785 2863 2709 2600 2751 2758 2758 2735 2791 2678 2750 2709 2771 2780 2707 2699 2676 2809 2722 2770 2751 2698 2725 2752 2619 2780 2737 2731 2778 2697 2650 2725 2829 2749 2793 2750 2690 2814 2701 2702 2783 2727 2813 2710 2715 2726 2789 2676 2745 2724 2731 2760 2810 2784 2815 2862 2794 2679 2751 2775 2789 2804 2804 2764 2736 2682 2678 2671 2734 2696 2674 2787 2730 2619 2740 2745 2708 2761 2827 2735 2689 2764 2698 2717 2727 2743 2775 2673 2709 2673 2818 2740 2741 2689 2691 2721 2815 2752 2720 2634 2737 2764 2578 2695 2704 2733 2681 2791 2743 2680 2645 2624 2613 2624 2665 2672 2663 2738 2683 2767 2636 2819 2740 2607 2718 2638 2687 2684 2672 2642 2646 2639 2648 2589 2637 2638 2616 2766 2610 2673 2629 2588 2665 2581 2549 2589 2562 2714 2606 2651 2615 2588 2546 2620 2529 2603 2576 2496 2523 2594 2559 2477 2464 2576 2563 2586 2560 2481 2443 2494 2592 2531 2549 2599 2525 2549 2499 2462 2588 2506 2484 2450 2368 2408 2499 2632 2447 2405 2439 2488 2453 2466 2441 2495 2501 2455 2440 2393 2470 2344 2319 2363 2460 2439 2346 2333 2406 2349 2430 2381 2391 2494 2384 2412 2388 2353 2410 2396 2277 2350 2335 2262 2367 2210 2375 2304 2393 2225 2491 2272 2267 2272 2323 2148 2287 2267 2273 2274 2272 2380 2175 2285 2341 2253 2287 2334 2259 2392 2225 2261 2328 2344 2214 2226 2203 2276 2237 2375 2269 2288 2204 2298 2176 2320 2242 2283 2190 2176 2149 2236 2207 2148 2268 2225 2196 2144 2189 2123 2082 2091 2206 2160 2168 2098 2185 2209 2163 2177 2221 2218 2189 2203 2202 2178 2203 2182 2129 2160 2129 2138 2140 2129 2220 2163 2131 2105 2181 2095 2088 2104 2175 2216 2169 2184 2121 2120 2119 2077 2211 2047 2178 2160 2181 2121 2160 2138 2203 2102 2120 2042 2067 2155 2161 2153 2083 2070 2111 2072 2212 2074 2081 2126 2063 2053 2123 2068 2131 2062 1990 2068 2043 2098 2008 2019 2066 2120 2159 2061 2115 2150 2096 2137 2041 2125 2039 2110 2093 2128 2110 2071 1962 2021 2019 2159 2099 2109 2060 2003 1992 2028 2138 2029 2131 2150 2093 2039 2116 2134 2000 2058 2091 2062 2036 2142 1966 2005 1928 2057 2043 2152 2101 2066 2068 2053 2029 2124 1975 2099 2171 2018 2074 2093 2053 2117 2075 2062 2097 2132 2060 2025 2169 2005 2076 2084 1992 2040 2105 2086 2012 2123 2039 2072 2198 2104 2029 2130 2098 1981 2126 2140 2058 2111 2074 2102 2005 2143 2070 2068 2126 2192 2064 2097 2037 2156 2096 2039 2125 2079 2033 2114 2066 2128 2098 2010 2062 2130 2128 2100 1989 2079 2055 2035 2116 2044 2060 2167 2100 1996 2078 2074 2121 2084 2112 2063 2088 2094 2119 1964 2115 2044 2059 2051 2080 2080 2104 2108 2042 2003 2083 2011 2075 2062 1970 2002 1992 2135 2021 2059 1941 2058 2069 2031 2063 2040 2064 2079 2011 2004 2017 2077 2033 2031 1964 2040 2071 2055 1980 1905 1938 2019 2000 1972 2008 1972 2052 1938 2004 2036 2004 1943 1976 1905 1940 1961 1945 1969 1980 1966 1932 1979 1902 1910 2021 1934 1869 1939 1970 1951 2001 1945 1886 1881 1949 1902 1892 1838 1983 1915 1872 1904 1892 1902 1804 1878 1824 1867 1905 1840 1929 1983 1843 1888 1899 1922 1824 1804 1882 1847 1874 1901 1787 1831 1793 1805 1802 1833 1840 1805 1801 1807 1825 1848 1841 1849 1907 1738 1806 1799 1723 1751 1897 1797 1758 1815 1771 1829 1811 1800 1816 1721 1719 1710 1745 1775 1730 1801 1746 1744 1784 1720 1679 1811 1731 1780 1696 1760 1722 1741 1680 1688 1819 1722 1681 1767 1689 1727 1743 1715 1675 1736 1713 1649 1717 1672 1698 1739 1753 1686 1721 1657 1691 1707 1751 1685 1745 1710 1777 1752 1724 1681 1747 1748 1785 1808 1860 1818 1856 1925 1915 1943 2048 1904 1896 1932 2013 2046 2119 2166 2129 2052 2089 1999 2163 2144 2089 2117 2077 2067 2075 2128 2056 1988 2058 1997 2061 1941 1928 1923 1903 1862 1937 1821 1850 1752 1809 1813 1706 1702 1694 1657 1668 1734 1718 1707 1694 1692 1572 1607 1665 1660 1659 1654 1727 1677 1646 1581 1590 1621 1537 1619 1660 1573 1686 1554 1589 1590 1600 1534 1637 1548 1600 1513 1595 1529 1632 1555 1516 1615 1553 1541 1572 1636 1456 1522 1522 1570 1598 1546 1637 1614 1670 1587 1608 1573 1655 1528 1594 1636 1519 1601 1622 1658 1651 1616 1716 1776 1816 1878 1864 1929 1963 2069 2061 2187 2350 2448 2610 2774 2823 2960 3088 3293 3496 3459 3599 3850 3700 3860 3876 3886 4046 4094 4107 4043 4058 4133 4143 4037 4171 4016 4077 3828 3898 3777 3771 3645 3551 3503 3575 3309 3332 3348 3081 3123 2879 2958 2835 2820 2448 2533 2371 2334 2302 2299 2242 2083 2091 2066 2085 1945 1973 1919 2002 1838 1852 1830 1857 1734 1675 1740 1769 1688 1727 1723 1641 1629 1539 1515 1528 1466 1495 1521 1537 1441 1479 1510 1438 1416 1454 1466 1478 1397 1465 1443 1470 1407 1404 1360 1483 1340 1389 1387 1428 1461 1380 1394 1334 1389 1391 1411 1364 1420 1373 1349 1385 1471 1388 1371 1339 1322 1371 1376 1354 1376 1378 1401 1389 1395 1375 1359 1354 1314 1365 1373 1453 1309 1361 1384 1369 1290 1353 1424 1311 1361 1288 1321 1413 1339 1272 1265 1308 1271 1355 1352 1349 1308 1354 1361 1238 1349 1294 1355 1295 1348 1371 1422 1311 1317 1297 1299 1327 1359 1337 1364 1274 1273 1345 1348 1298 1265 1266 1303 1287 1318 1292 1360 1281 1329 1297 1277 1297 1262 1267 1293 1308 1358 1282 1236 1262 1275 1261 1242 1293 1277 1319 1258 1238 1306 1339 1271 1285 1260 1221 1295 1319 1266 1288 1284 1277 1237 1282 1261 1315 1217 1254 1316 1233 1261 1225 1248 1264 1228 1213 1254 1277 1225 1227 1287 1261 1268 1202 1320 1169 1263 1267 1254 1247 1307 1268 1268 1284 1225 1219 1244 1286 1209 1264 1335 1261 1201 1273 1264 1241 1250 1236 1215 1269 1246 1262 1240 1253 1221 1287 1294 1288 1246 1235 1300 1275 1228 1277 1219 1146 1249 1218 1196 1138 1266 1201 1259 1245 1196 1229 1253 1224 1216 1317 1196 1255 1239 1185 1201 1233 1246 1264 1237 1249 1277 1175 1278 1214 1200 1254 1189 1220 1179 1283 1254 1197 1151 1267 1262 1213 1253 1290 1195 1293 1253 1269 1234 1213 1158 1230 1247 1262 1245 1200 1201 1219 1234 1211 1218 1240 1258 1276 1255 1218 1281 1216 1219 1186 1262 1235 1225 1172 1295 1239 1246 1250 1234 1207 1194 1280 1204 1170 1260 1208 1192 1242 1226 1268 1235 1214 1217 1216 1224 1219 1253 1233 1247 1213 1185 1189 1217 1244 1258 1295 1232 1174 1217 1181 1250 1285 1194 1236 1222 1264 1279 1249 1263 1233 1280 1316 1250 1307 1300 1261 1224 1292 1301 1308 1330 1325 1332 1279 1371 1411 1250 1356 1347 1404 1372 1437 1435 1362 1499 1501 1547 1603 1476 1668 1712 1761 1821 2011 2013 2274 2341 2668 2884 3112 3305 3490 3720 4079 4190 4594 4562 4944 5154 5247 5294 5436 5507 5573 5645 5738 5664 5678 5360 5522 5235 5235 5066 4911 4892 4797 4435 4367 4118 4074 4004 3880 3770 3691 3518 3381 3372 3171 3053 3015 2915 2780 2583 2523 2392 2534 2329 2346 2190 2203 1966 2115 1996 1963 1926 1922 1894 1880 1755 1855 1751 1832 1764 1752 1764 1699 1702 1593 1592 1548 1558 1534 1462 1460 1484 1432 1407 1468 1344 1372 1353 1393 1409 1379 1372 1336 1358 1326 1259 1286 1283 1305 1275 1183 1304 1206 1317 1291 1265 1290 1271 1238 1205 1157 1211 1252 1287 1210 1233 1174 1201 1222 1163 1208 1138 1126 1154 1145 1156 1217 1173 1208 1147 1147 1159 1143 1190 1105 1133 1182 1188 1208 1162 1122 1150 1168 1160 1074 1156 1116 1183 1062 1148 1070 1193 1156 1119 1167 1156 1131 1189 1090 1177 1165 1178 1105 1133 1136 1092 1150 1180 1125 1154 1113 1135 1162 1148 1164 1211 1141 1143 1160 1104 1113 1165 1121 1131 1158 1100 1166 1112 1110 1193 1086 1135 1066 1116 1102 1101 1120 1110 1142 1094 1113 1136 1176 1161 1160 1105 1161 1041 1200 1079 1133 1111 1134 1120 1114 1076 1123 1063 1147 1187 1105 1080 1149 1106 1127 1136 1115 1093 1133 1049 1125 1076 1109 1143 1087 1109 1124 1104 1125 1095 1141 1031 1091 1125 1096 1090 1124 1107 1068 1056 1101 1109 1074 1123 1080 1122 1052 1060 1071 1095 1079 1142 1043 1109 1120 1162 1071 1103 1109 1110 1110 1072 1128 1083 1083 1085 1075 1111 1055 1127 1079 1069 1092 1055 1101 1052 1054 1058 1102 1101 1096 1088 1093 1068 1080 1042 1099 1097 1079 1070 1049 1185 1077 1086 1104 1054 1046 1083 1102 1026 1088 1044 1071 1143 1154 1067 1094 1116 1035 1126 1109 1113 1075 1057 1056 1061 1048 1084 1031 1096 1085 1035 1067 1004 1124 1092 1049 1037 1070 1008 1129 1034 1043 1076 991 1071 1075 1082 994 1049 1034 1046 1054 1071 1084 1090 1080 1061 1034 1086 1063 1038 1043 1040 1062 1038 1132 1036 1032 1111 1072 1019 1053 1044 1063 1018 1062 1038 1021 978 1040 1059 1028 1003 1031 1065 1057 1094 1070 1055 1005 1065 1092 1081 1001 1030 1023 1063 1033 1079 1030 1070 1042 1031 1061 1094 1009 991 1052 1063 1020 1076 1082 1003 1084 1012 1021 1077 1038 1039 1012 1036 1025 1049 1033 1041 1036 1009 994 1050 1000 1062 1014 1033 986 1018 983 1025 1009 1077 980 988 1046 1024 1019 1012 1000 1020 1030 1046 1048 983 987 1054 1071 1043 986 1036 1001 951 1041 1014 1046 1015 1018 1026 1032 1001 1023 1103 1033 999 1013 1088 992 999 1022 1003 1019 1005 956 999 1027 961 1053 996 1048 978 1007 999 1049 965 994 1057 976 1000 1057 1003 1028 982 985 1038 1032 965 982 1017 1019 1007 1018 1013 1037 1000 1011 1000 1047 1032 1026 994 1005 1015 990 1024 1029 989 992 1073 1047 1014 980 1028 1045 993 1069 1031 1012 1002 1001 1000 1012 991 1032 1015 1000 1015 966 992 1028 1009 995 1012 998 1016 951 955 1064 976 952 997 969 962 1025 1015 978 984 982 1049 1020 999 989 937 993 928 970 1007 967 966 950 996 1002 995 996 994 972 1018 975 984 969 989 996 953 973 1017 946 1000 969 1028 931 987 982 1029 977 1021 983 1010 986 990 964 996 968 976 967 1034 965 946 951 1001 960 999 977 981 1028 972 978 986 1005 936 990 990 984 977 968 949 1002 1018 1027 1027 994 968 1053 960 960 971 994 1017 946 1003 916 966 1025 1034 957 1019 1019 949 962 965 943 983 994 1002 1002 952 971 969 1031 930 975 959 926 970 962 946 972 952 960 918 952 1031 952 929 938 952 932 953 976 943 948 970 942 975 955 947 992 982 926 982 964 966 937 999 960 1006 963 937 978 968 996 975 977 942 966 937 950 1008 1004 992 929 999 972 942 924 953 940 1037 914 965 1023 968 1021 994 931 932 938 1020 949 962 942 972 971 992 961 989 930 977 1015 887 1007 966 918 959 1014 943 965 975 986 908 967 989 930 950 988 972 1005 960 942 985 977 1021 929 954 925 937 990 984 973 1005 945 945 981 958 925 1012 962 994 945 909 927 899 968 966 975 975 982 956 944 1052 972 1014 1026 964 953 933 968 960 1048 965 997 1015 975 946 975 1020 938 958 1000 986 950 967 895 981 971 923 930 926 948 986 943 977 950 953 947 901 913 935 857 922 963 911 981 927 946 963 941 917 933 987 921 952 954 1010 922 934 941 919 989 949 939 936 1010 939 958 929 918 971 925 915 919 937 956 895 955 1006 936 910 934 943 983 956 913 998 951 972 924 969 907 992 936 912 902 930 901 972 891 886 897 965 946 977 967 928 943 948 900 917 951 935 962 981 877 936 1000 929 973 924 987 953 936 928 906 951 948 913 927 934 946 921 951 879 945 941 969 944 969 899 918 943 977 920 975 958 983 869 935 927 952 944 950 952 949 977 906 972 982 930 886 916 975 948 934 925 970 927 932 911 948 893 988 885 895 988 884 948 888 999 925 990 967 945 964 958 975 940 935 934 933 951 1004 927 900 1003 989 935 965 1042 1019 949 1018 1063 1015 1001 1129 1102 1212 1222 1226 1234 1230 1254 1315 1309 1300 1317 1391 1409 1401 1402 1345 1416 1393 1479 1455 1373 1434 1345 1352 1356 1275 1240 1329 1199 1186 1145 1165 1159 1165 1172 1150 1087 1010 1020 1038 1029 1051 926 1038 1013 906 1006 956 972 978 969 1018 928 908 968 1006 882 967 932 895 1012 958 945 936 931 939 930 1023 946 939 955 911 904 922 889 851 938 922 927 898 895 929 883 939 943 978 912 917 929 871 897 944 894 886 893 834 928 891 929 895 925 951 958 949 927 909 925 926 951 878 948 929 891 915 906 855 907 921 918 929 954 928 900 939 883 906 948 910 941 965 928 904 884 950 849 898 884 934 964 952 969 907 924 891 872 931 875 961 937 867 917 888 869 906 883 830 872 923 872 932 892 938 869 920 930 823 848 847 910 884 908 860 868 888 898 930 915 921 879 901 855 909 922 893 921 876 905 917 896 889 888 861 889 889 896 845 880 868 900 963 866 937 903 930 887 901 904 910 921 959 915 917 950 899 860 890 858 878 892 912 939 949 924 850 851 902 956 943 873 890 864 910 877 898 926 848 867 863 901 859 912 932 889 959 866 927 884 902 909 911 899 874 924 892 937 887 873 852 949 883 892 903 892 871 882 866 914 970 914 889 941 881 916 910 906 943 859 905 943 927 882 876 903 908 937 911 908 911 902 898 952 870 892 892 892 871 877 882 880 915 885 962 905 935 912 897 899 920 930 902 919 967 911 935 933 867 867 920 915 849 839 887 864 957 890 906 862 836 867 919 855 846 976 927 918 903 871 885 918 938 929 933 999 905 950 878 980 950 875 910 880 969 881 925 958 967 911 925 914 946 973 994 962 908 935 976 917 955 904 1077 933 1016 975 988 999 1010 998 1023 1040 1048 1032 1041 1147 1073 1049 1132 1204 1242 1329 1349 1509 1577 1731 1873 1918 2166 2163 2317 2558 2639 2757 2934 2998 3014 3176 3245 3257 3235 3302 3318 3303 3258 3218 3178 3178 3046 3033 2971 2905 2875 2807 2670 2550 2455 2348 2307 2123 2127 1980 1910 1836 1746 1667 1647 1547 1500 1407 1416 1345 1378 1273 1329 1224 1228 1230 1219 1162 1150 1181 1229 1231 1207 1155 1213 1226 1177 1188 1197 1224 1165 1171 1210 1165 1123 1181 1149 1117 1123 1122 1105 1095 1062 1163 1091 1066 1046 1062 1068 1089 1029 1024 1032 978 994 1046 986 987 963 1007 957 969 991 962 955 1008 917 939 904 906 930 978 985 927 974 915 997 903 973 943 934 984 957 982 917 911 908 905 895 914 892 888 856 909 915 877 887 889 899 904 925 905 883 908 842 891 854 816 856 887 866 900 863 858 845 866 889 879 841 864 882 845 908 814 900 855 876 929 914 907 892 880 824 823 832 886 885 816 915 820 856 847 932 841 871 874 886 828 880 775 844 842 875 841 877 811 886 862 848 866 877 857 856 825 918 887 874 858 904 839 842 878 875 885 838 827 828 881 876 908 849 856 894 921 858 916 975 902 911 928 961 974 984 976 1002 967 1025 997 994 1054 991 1063 1005 1061 1042 993 1031 1074 1009 1053 984 1063 1076 999 1023 993 977 1010 948 983 932 947 909 935 968 934 890 936 858 909 901 909 921 897 794 894 821 853 842 844 871 876 871 905 876 804 870 832 866 810 861 845 874 895 910 833 829 840 853 857 859 840 885 859 833 893 811 861 866 822 848 834 889 845 815 851 789 835 820 866 887 840 815 847 808 828 867 829 867 802 860 857 803 885 830 856 856 860 871 851 826 814 845 829 756 887 844 859 828 813 828 830 798 855 811 828 809 846 850 829 788 853 832 817 783 804 800 825 805 828 844 784 829 810 808 880 858 828 838 839 856 836 799 815 822 837 900 813 800 792 857 798 806 810 847 845 804 800 860 848 804 809 799 797 897 862 812 804 825 837 811 838 825 829 821 814 807 833 800 863 829 798 834 855 811 788 797 805 837 795 811 821 768 834 799 848 837 839 825 841 819 826 846 862 805 808 783 821 795 769 870 845 874 792 791 877 745 874 830 836 800 791 832 794 784 794 846 826 796 788 799 819 818 828 757 760 792 800 789 805 835 804 811 806 811 801 824 824 827 801 801 813 786 805 794 774 845 805 825 842 809 816 822 803 846 787 824 829 804 816 848 859 752 797 848 832 771 812 816 798 791 801 794 787 811 815 831 751 798 834 802 778 828 782 787 845 800 798 843 744 838 761 790 799 779 833 808 781 833 780 771 790 804 813 815 772 811 768 758 821 798 800 833 801 818 788 768 771 883 846 746 788 800 792 792 880 764 816 781 748 837 801 820 831 817 784 816 796 759 771 776 777 836 774 798 803 771 810 707 791 776 739 731 742 803 769 793 827 785 782 798 818 787 751 781 819 739 790 832 769 800 788 773 806 819 752 823 789 851 816 815 741 822 770 796 764 788 787 786 793 804 819 798 794 783 765 802 799 802 830 800 774 780 819 761 806 790 774 749 812 818 766 809 752 734 791 809 830 798 830 740 785 750 772 760 778 771 744 741 744 770 856 830 808 781 791 727 795 824 784 789 818 795 805 817 799 760 758 754 808 785 823 823 779 813 870 767 777 814 860 779 747 804 714 817 735 787 816 752 830 776 742 808 832 763 792 758 779 763 796 753 741 774 800 806 784 805 799 722 792 760 812 704 773 757 775 775 791 778 751 799 809 747 779 854 726 734 718 746 715 741 775 807 711 774 757 737 777 757 775 755 756 725 753 758 766 830 778 781 824 774 762 769 799 800 811 790 770 715 853 745 828 819 768 770 773 801 783 767 823 783 741 816 784 826 837 830 818 803 773 790 792 775 851 802 822 818 763 782 825 822 828 779 809 803 812 780 830 797 810 853 754 852 760 846 797 827 789 829 821 809 787 830 822 782 766 827 816 813 768 801 825 848 825 851 840 911 947 979 944 1010 1064 1042 1110 1135 1130 1154 1141 1082 1120 1177 1201 1222 1225 1199 1210 1240 1202 1195 1257 1175 1254 1163 1233 1185 1202 1105 1127 1119 1116 1134 1124 1113 1039 1096 992 925 960 983 900 967 926 945 907 845 889 926 882 834 851 885 830 898 799 831 801 836 819 847 837 836 817 811 851 876 871 860 859 854 873 872 936 877 901 875 888 952 904 914 880 871 862 949 892 912 900 883 929 820 861 863 878 870 825 875 833 824 865 797 806 840 827 808 835 814 818 781 851 792 767 789 786 811 779 770 797 796 806 814 777 810 767 765 780 787 753 815 742 722 760 806 750 767 729 733 757 742 794 772 764 784 795 751 755 779 784 766 776 777 702 723 726 756 765 761 807 735 763 767 754 755 807 774 756 739 712 750 784 776 751 785 789 738 754 758 751 758 734 780 791 722 719 764 733 753 739 728 725 700 770 742 798 798 705 774 764 721 802 748 732 771 756 764 761 753 750 760 758 799 743 740 785 750 806 763 723 783 781 710 741 783 722 749 816 737 789 753 753 767 830 749 810 743 743 839 810 730 787 746 814 789 794 757 777 759 758 757 756 762 795 785 812 777 806 761 765 805 832 860 771 839 841 875 851 878 968 945 1019 1029 1044 1011 1046 1087 1163 1157 1180 1198 1284 1182 1289 1257 1300 1243 1281 1292 1253 1284 1269 1303 1293 1262 1306 1266 1267 1233 1221 1244 1170 1080 1146 1084 1095 1035 1030 1017 1035 992 1015 975 1012 956 926 894 903 862 822 888 830 859 850 861 809 870 818 799 804 781 785 875 820 834 869 897 856 892 872 797 827 838 785 818 833 842 839 846 793 857 860 836 836 831 846 805 794 815 831 757 841 772 834 772 835 831 760 861 779 771 801 822 814 722 744 788 772 786 787 764 805 718 786 776 759 725 783 749 769 784 685 737 773 770 738 769 752 757 754 811 726 757 721 716 753 730 750 751 724 768 720 795 768 747 710 778 721 741 742 746 729 763 734 713 747 733 744 791 766 752 777 780 733 755 768 760 774 766 757 722 714 737 770 761 791 764 723 746 803 799 735 797 704 798 738 795 783 763 758 801 813 790 717 826 795 825 798 841 777 825 867 895 838 892 885 888 812 856 863 843 863 831 902 848 881 833 816 894 786 869 799 849 859 823 835 839 786 786 774 819 824 812 778 802 804 830 775 728 763 750 754 781 724 757 666 735 724 775 733 698 748 777 737 780 765 740 706 710 761 723 767 748 728 678 692 742 734 688 789 776 741 689 762 717 765 706 745 711 719 775 768 685 701 679 746 709 766 777 733 723 749 778 731 745 746 735 705 725 697 697 706 711 734 712 704 716 716 700 732 805 715 716 725 707 725 675 676 714 736 692 680 663 783 740 781 726 703 695 760 703 716 684 648 757 677 764 718 753 710 679 745 717 770 723 750 706 751 672 684 731 709 688 755 737 697 755 723 709 703 728 688 733 723 721 672 703 651 737 739 733 717 732 709 751 704 750 693 806 710 702 710 705 679 719 700 709 696 734 708 733 671 684 649 694 759 748 693 716 721 755 703 740 720 687 696 695 705 696 707 730 759 686 713 708 655 691 707 712 703 740 708 736 715 752 723 667 653 703 681 703 746 737 689 717 665 694 676 687 713 686 740 722 654 691 735 725 714 699 721 706 697 742 717 690 700 707 694 707 726 725 688 697 668 717 742 676 738 720 768 752 715 741 704 692 746 734 720 659 708 712 759 718 690 752 673 717 714 725 713 699 665 702 709 736 693 679 672 674 663 711 708 745 718 669 728 664 696 715 768 704 728 698 742 708 702 675 697 692 719 722 700 705 671 729 740 765 679 762 707 686 739 695 740 705 686 704 724 698 714 727 720 738 660 681 719 718 759 694 678 708 689 741 694 713 711 696 712 711 703 660 687 691 707 734 736 715 681 741 747 655 667 708 696 661 692 656 678 714 701 696 668 701 697 697 722 742 698 660 697 739 693 718 754 695 744 696 704 724 690 725 710 681 723 746 727 675 637 681 692 705 714 678 685 687 685 698 696 650 718 700 675 650 713 689 691 715 653 671 725 719 711 718 695 700 713 726 722 706 686 670 706 688 681 701 679 692 740 698 706 698 692 688 683 715 704 666 716 718 712 698 656 717 654 678 726 700 701 750 703 698 670 711 669 690 696 695 690 668 740 692 708 692 770 688 721 678 687 680 733 668 690 690 711 731 685 707 744 689 716 699 770 702 700 742 728 753 798 717 740 762 750 759 718 712 727 699 755 773 752 791 738 772 785 735 707 728 726 760 767 724 819 725 725 758 699 724 702 739 730 757 706 762 704 723 720 720 736 717 693 717 753 728 664 736 688 711 748 693 672 705 736 692 698 685 709 663 716 705 679 674 697 723 720 758 678 643 692 676 658 648 675 718 657 663 678 651 715 692 727 684 680 657 713 715 645 712 717 722 729 723 650 686 662 745 688 706 666 700 737 655 688 694 688 725 735 704 754 725 680 686 718 704 722 661 688 702 728 704 712 714 697 717 714 718 659 689 694 687 684 668 676 711 714 699 663 683 666 672 671 718 705 683 660 657 685 705 697 725 682 744 728 659 650 685 612 725 720 652 660 728 704 674 673 721 694 661 671 688 742 659 701 700 675 689 728 674 656 657 686 705 673 650 669 705 701 718 711 652 663 679 695 701 678 727 656 669 696 711 698 668 674 698 657 708 679 684 733 669 651 684 632 649 726 724 706 707 708 631 668 680 669 691 695 698 717 683 700 673 670 685 707 694 691 716 677 686 713 729 683 731 691 675 641 710 729 738 719 676 724 680 632 732 696 667 698 681 717 768 701 668 717 697 665 712 715 733 719 730 727 697 687 754 679 718 704 690 680 730 685 698 687 698 721 708 731 751 743 762 714 769 748 765 749 773 829 758 894 857 825 867 860 851 877 840 897 894 902 836 867 867 817 883 818 827 897 879 885 849 818 858 863 830 878 891 842 857 856 833 794 817 753 779 844 773 752 784 779 752 781 737 733 792 767 705 721 753 746 754 712 742 668 735 707 713 700 726 700 724 669 727 700 726 737 690 723 682 700 701 706 713 755 688 719 701 733 689 683 719 695 748 727 727 715 690 723 715 727 733 728 695 710 676 699 687 799 754 723 737 683 682 756 760 693 701 698 703 733 730 683 692 727 762 666 643 713 733 749 670 688 731 701 670 721 668 715 751 721 694 720 697 674 683 698 695 762 670 678 667 645 679 585 702 682 690 705 698 690 695 696 615 642 725 738 693 694 729 656 685 678 678 692 663 636 659 651 718 683 738 661 683 704 710 701 639 673 708 715 681 735 669 658 687 715 728 771 676 657 656 656 653 663 694 673 697 682 726 682 722 675 675 703 691 670 674 724 717 671 704 655 690 730 645 653 685 684 665 688 680 656 712 743 699 637 676 707 694 695 673 668 684 661 653 680 646 666 638 695 686 700 672 728 678 711 714 717 664 695 693 688 656 661 645 694 700 679 688 681 654 646 702 708 699 671 677 647 716 664 691 624 654 683 654 668 699 687 658 712 686 665 706 693 700 646 680 671 692 662 672 678 679 664 703 620 690 659 699 634 649 648 668 659 741 716 692 694 662 632 652 708 652 688 717 643 680 670 711 652 695 703 678 693 706 702 689 668 662 663 701 686 668 669 715 636 678 688 675 723 711 688 699 660 688 688 695 662 699 696 715 724 657 655 710 641 685 633 683 712 710 680 708 661 648 714 652 732 618 687 684 689 732 653 718 763 696 671 724 690 679 693 672 713 716 707 713 687 614 699 703 675 687 679 683 697 637 682 711 702 695 681 716 684 698 712 713 694 699 727 670 722 650 678 700 687 668 682 659 690 670 720 662 688 673 715 673 660 679 686 658 682 677 668 736 675 667 676 670 697 684 677 668 701 682 654 709 668 652 688 645 678 668 648 692 681 700 696 650 709 679 729 729 669 657 681 652 729 711 710 707 658 683 663 694 708 738 660 673 693 644 693 712 689 695 692 674 672 724 652 694 656 709 673 655 659 691 706 639 666 682 647 646 666 652 675 678 639 669 660 678 579 683 667 679 676 668 683 693 630 708 696 739 700 752 658 677 646 677 678 672 687 682 652 714 658 667 663 649 668 642 715 654 612 688 702 679 696 733 660 663 670 689 687 693 672 706 706 703 664 738 674 708 686 735 726 701 735 685 698 617 721 707 685 669 714 730 744 690 657 763 665 709 695 714 726 694 677 672 660 673 692 683 737 665 658 710 675 697 669 676 682 683 632 667 698 671 677 700 681 679 676 702 667 672 761 653 731 709 663 629 719 654 689 741 686 701 699 631 646 692 709 687 717 669 707 653 662 723 695 675 695 664 738 707 697 667 675 666 644 702 712 695 727 746 713 690 739 694 704 727 674 716 718 714 677 703 700 725 728 737 698 787 766 728 714 735 723 783 744 721 730 777 731 724 710 757 738 746 663 697 665 709 753 704 757 680 696 693 708 730 736 684 743 738 718 742 729 721 777 750 713 772 755 733 722 756 812 765 799 782 757 804 805 758 813 840 792 810 730 825 808 791 781 785 775 803 808 805 755 755 705 779 804 752 737 732 712 749 760 748 728 762 740 699 734 740 738 744 772 709 786 714 681 789 737 731 723 715 726 754 751 727 694 657 708 662 703 725 739 638 749 660 700 702 676 672 707 733 727 739 732 675 724 671 680 708 714 725 743 692 735 668 698 708 675 744 729 703 690 642 686 738 775 722 752 670 721 695 736 715 737 740 688 726 721 716 745 724 673 708 692 695 705 755 666 740 662 672 741 721 713 709 728 687 670 639 728 724 711 685 653 693 712 693 675 665 646 718 692 716 673 672 695 723 661 727 650 666 674 697 680 686 724 725 687 695 698 696 627 685 716 678 707 706 680 651 672 723 647 708 665 696 662 702 710 627 680 669 697 692 696 658 684 695 690 661 724 728 741 687 701 697 748 749 709 713 718 777 715 723 690 724 731 690 688 705 725 738 691 722 682 743 752 787 776 785 756 753 830 774 799 802 789 856 848 868 933 935 951 972 995 972 937 1047 989 966 1028 1013 1060 994 1061 1075 996 977 1046 1058 1078 1015 992 1086 1008 1003 997 1006 990 940 937 1012 881 998 928 935 928 887 896 889 856 896 852 871 830 824 828 848 824 793 787 810 806 789 780 809 765 823 755 773 826 736 728 767 755 749 726 702 707 703 735 751 713 723 724 728 701 709 718 735 708 710 698 734 719 715 703 734 719 754 693 700 701 714 740 726 736 720 720 749 744 782 676 744 700 726 794 715 702 762 765 771 767 726 723 765 702 709 730 747 726 761 749 721 695 726 744 692 698 725 694 720 747 757 726 732 713 741 733 716 710 745 701 730 657 722 720 697 694 684 634 680 683 724 683 672 757 699 656 689 666 710 707 690 659 723 701 682 721 729 717 697 708 730 749 685 688 693 675 698 726 732 760 662 695 696 724 745 683 671 725 687 722 723 700 669 740 674 751 704 712 706 700 736 672 701 693 729 736 665 693 725 686 736 695 718 684 723 731 759 651 680 711 672 712 641 709 677 643 673 648 732 718 691 655 650 682 722 676 706 673 675 725 654 685 705 671 662 667 669 636 710 724 680 692 621 685 687 706 688 676 680 669 688 666 668 674 679 687 602 688 610 748 713 675 696 670 675 671 710 638 645 694 711 636 645 661 696 654 706 652 688 671 676 694 682 675 708 643 693 685 673 618 671 777 693 670 647 658 647 645 688 685 661 679 662 683 678 655 674 697 634 679 649 668 668 655 691 654 648 689 707 702 637 701 640 642 668 684 656 658 638 673 648 650 645 659 661 708 656 694 675 659 678 659 643 653 659 651 630 704 722 676 631 725 618 656 632 666 627 649 637 663 690 671 701 635 637 658 665 690 690 672 608 683 688 650 613 627 640 667 618 679 622 671 679 649 659 614 663 691 702 632 604 646 627 653 642 662 690 635 663 663 665 628 629 684 673 631 632 647 673 642 673 668 699 640 656 695 663 636 661 629 703 639 644 650 684 662 717 669 642 622 635 711 634 644 709 671 645 654 662 643 641 658 619 659 675 603 692 629 662 634 703 630 670 656 660 669 574 662 659 652 647 659 683 653 644 642 692 663 647 678 672 649 650 650 648 672 681 710 712 696 641 610 673 694 626 636 663 639 630 673 637 683 657 592 649 651 630 677 681 675 665 628 642 682 631 587 658 627 666 645 705 637 673 652 630 665 622 621 672 630 682 620 657 650 633 638 651 691 624 640 677 643 638 675 692 641 635 596 651 656 635 623 644 660 673 675 659 680 658 655 656 711 673 627 662 643 661 663 670 624 649 617 622 653 623 651 646 675 693 648 614 668 642 629 687 723 687 630 615 647 624 657 702 719 714 660 608 652 664 647 658 655 641 645 623 630 625 664 629 660 637 676 685 679 634 666 696 690 645 717 619 653 634 635 696 715 689 649 687 706 682 641 685 648 646 683 646 670 716 685 656 686 694 714 717 677 719 681 662 652 708 710 698 684 644 672 676 749 691 714 714 687 691 663 648 664 652 693 730 735 673 696 625 667 734 637 657 713 655 669 657 666 655 711 678 695 624 694 703 679 652 652 699 639 646 669 647 629 657 684 640 655 688 640 662 654 641 663 701 662 611 675 678 624 700 633 674 645 666 629 680 664 640 614 619 671 611 633 665 673 676 684 623 649 697 641 638 626 648 612 648 667 667 652 657 687 617 692 635 629 639 634 659 632 590 660 654 654 652 648 648 650 654 661 640 579 634 642 658 660 667 677 659 622 636 657 673 671 679 678 668 662 633 693 693 687 593 655 705 599 684 655 682 644 659 594 689 642 654 679 648 646 700 624 707 645 692 656 696 670 658 644 669 694 649 573 652 665 627 686 624 635 669 670 684 673 629 650 643 642 678 616 656 630 682 664 712 659 611 668 636 636 652 661 625 634 650 638 638 667 618 678 605 652 642 656 679 600 631 646 638 655 670 665 640 621 664 624 682 699 634 654 649 659 658 653 630 654 673 700 629 688 671 714 658 663 618 671 668 681 654 656 663 647 679 702 637 689 635 667 679 651 670 727 695 683 689 640 659 676 692 720 721 710 698 765 706 675 723 767 733 822 784 787 798 813 800 851 875 853 848 881 845 925 874 921 874 863 860 956 858 838 865 898 881 816 880 944 878 869 854 881 841 837 896 881 823 874 833 843 801 834 810 828 877 848 854 794 792 788 779 829 753 794 783 768 768 778 760 723 709 760 730 753 744 688 755 682 690 679 681 694 662 728 665 672 602 643 663 683 662 687 701 659 689 736 656 688 642 660 686 667 688 669 694 590 663 685 664 686 592 674 658 633 663 658 705 590 644 687 659 644 666 696 653 673 704 633 614 638 696 661 641 719 671 710 713 691 698 662 676 740 677 712 728 689 701 733 695 679 654 697 698 688 698 681 678 721 707 669 677 642 658 640 672 681 691 711 682 690 686 643 697 675 703 681 667 662 657 670 682 646 675 752 682 668 649 668 700 703 692 652 713 669 672 678 632 669 703 729 678 629 651 683 698 716 681 690 679 706 649 673 665 661 679 677 695 710 691 660 653 693 633 727 624 656 609 636 660 657 635 607 644 597 669 675 691 686 681 698 652 649 622 621 628 677 631 602 652 667 609 643 665 665 696 652 636 655 663 638 690 615 672 703 640 629 674 628 673 625 621 646 657 623 652 618 645 655 607 682 637 614 629 630 645 628 641 613 654 646 654 637 663 650 653 660 658 627 638 640 617 662 692 655 627 642 666 653 656 616 674 674 626 635 695 663 638 648 649 648 617 654 682 688 619 603 651 620 612 621 624 626 649 669 644 637 644 578 684 641 587 665 650 659 688 664 683 659 667 646 630 628 636 633 605 656 568 671 599 641 639 644 651 622 657 692 630 667 633 615 636 650 633 635 612 654 674 681 668 602 647 628 612 615 654 674 643 641 617 686 637 679 678 607 594 643 603 622 639 631 651 606 628 641 648 630 652 631 654 652 673 635 609 654 639 618 611 618 649 644 624 646 589 632 631 649 644 643 653 664 632 674 626 630 661 640 619 623 638 671 635 680 649 594 608 608 621 638 627 628 680 626 634 638 609 617 606 659 690 608 618 603 671 633 648 661 596 603 625 628 660 634 605 653 585 609 587 648 646 635 613 634 637 638 641 629 607 686 640 640 622 629 654 673 663 655 583 580 637 635 618 651 652 669 643 676 655 635 653 628 642 632 597 668 612 613 629 639 664 666 649 693 666 588 604 625 643 593 635 665 662 651 635 623 662 655 664 611 624 626 643 620 601 583 629 683 650 614 591 607 630 649 646 637 646 627 628 594 624 621 629 654 637 667 628 568 630 623 680 616 617 652 631 645 622 668 636 593 672 681 638 668 673 577 635 551 674 582 617 640 617 644 645 630 682 611 660 681 608 631 620 607 602 587 614 660 645 629 670 672 631 629 671 632 602 627 623 631 659 644 660 663 581 642 656 609 652 631 652 632 666 624 667 639 651 619 645 592 638 689 664 641 657 628 690 656 713 696 664 660 676 676 688 652 672 637 659 721 658 704 678 703 682 728 713 726 752 730 691</counts>
			</dataPoints>
		</scan>
	</xrdMeasurement>
</xrdMeasurements>
