<?xml version="1.0"?>
<xrdMeasurements xmlns="http://www.xrdml.com/XRDMeasurement/2.3" xmlns:xsi="http://www.w3.org/2001/XMLSchema-instance" xsi:schemaLocation="http://www.xrdml.com/XRDMeasurement/2.3 http://www.xrdml.com/XRDMeasurement/2.3/XRDMeasurement.xsd" status="Completed" recordIdentifier="{90DAED5B-0E22-4922-984E-BE77AAD53DC7}">
	<comment>
		<entry/>
	</comment>
	<sample type="To be analyzed">
		<id>GPSS_Li1p8Bi0p2Ca0p1Mg0p7Cl4_121825_6943d914f4d05ae3d69790b2</id>
		<name></name>
		<preparedBy></preparedBy>
	</sample>
	<xrdMeasurement measurementType="Scan" status="Completed" sampleMode="Reflection">
		<usedWavelength intended="K-Alpha 1">
			<kAlpha1 unit="Angstrom">1.5405980</kAlpha1>
			<kAlpha2 unit="Angstrom">1.5444260</kAlpha2>
			<kBeta unit="Angstrom">1.3922500</kBeta>
			<ratioKAlpha2KAlpha1>0.5000</ratioKAlpha2KAlpha1>
		</usedWavelength>
		<incidentBeamPath>
			<radius unit="mm">145.00</radius>
			<xRayTube id="1010048" name="Empyrean Cu LFF HR (9430 033 7310x)">
				<tension unit="kV">40.0</tension>
				<current unit="mA">15.0</current>
				<anodeMaterial>Cu</anodeMaterial>
				<focus type="Line">
					<length unit="mm">12.0</length>
					<width unit="mm">0.4</width>
					<takeOffAngle unit="deg">6.0</takeOffAngle>
				</focus>
			</xRayTube>
			<sollerSlit id="21010002" name="Soller slits 0.04 rad.">
				<opening unit="rad">0.0400</opening>
			</sollerSlit>
			<mask id="22031000" name="Fixed mask 13 mm">
				<width unit="mm">9.00</width>
			</mask>
			<divergenceSlit id="22120001" name="Divergence slit 1°" xsi:type="fixedDivergenceSlitType">
				<distanceToSample unit="mm">50.00</distanceToSample>
				<height unit="mm">1.52</height>
			</divergenceSlit>
		</incidentBeamPath>
		<sampleMovement xsi:type="spinningSampleMovementType">
			<spinnerRevolutionTime unit="seconds">1.0</spinnerRevolutionTime>
		</sampleMovement>
		<diffractedBeamPath>
			<radius unit="mm">145.00</radius>
			<antiScatterSlit id="22090040" name="AS slit 9 mm (PIXcel)" xsi:type="fixedAntiScatterSlitType">
				<height unit="mm">9.00</height>
			</antiScatterSlit>
			<sollerSlit id="21020003" name="Large Soller slits 0.04 rad.">
				<opening unit="rad">0.0400</opening>
			</sollerSlit>
			<filter id="20030001" name="Large beta-filter Nickel">
				<material>Ni</material>
				<thickness unit="mm">0.020</thickness>
			</filter>
			<detector id="7010019" name="PIXcel1D-Medipix3 detector" xsi:type="rtmsDetectorType">
				<phd unit="keV">
					<lowerLevel>4.02</lowerLevel>
					<upperLevel>11.27</upperLevel>
				</phd>
				<mode>Scanning</mode>
				<activeLength unit="deg">5.542</activeLength>
			</detector>
		</diffractedBeamPath>
		<scan appendNumber="0" mode="Continuous" scanAxis="Gonio" status="Completed">
			<header>
				<startTimeStamp>2025-12-20T14:00:44-08:00</startTimeStamp>
				<endTimeStamp>2025-12-20T14:08:51-08:00</endTimeStamp>
				<author>
					<name>AutomatedUser</name>
				</author>
				<source>
					<applicationSoftware version="1.7b (136)">PANalytical Aeris Instrument Suite</applicationSoftware>
					<instrumentControlSoftware version="3.2.00000000 20240306">AERIS</instrumentControlSoftware>
					<instrumentID>950485</instrumentID>
				</source>
			</header>
			<dataPoints>
				<positions axis="2Theta" unit="deg">
					<startPosition>10.00943322</startPosition>
					<endPosition>99.99442286</endPosition>
				</positions>
				<positions axis="Omega" unit="deg">
					<startPosition>5.00471661</startPosition>
					<endPosition>49.99721143</endPosition>
				</positions>
				<commonCountingTime unit="seconds">12.495</commonCountingTime>
				<counts unit="counts">2890 2934 2820 2785 2905 2839 2975 2901 2910 2882 2902 2898 2884 2878 2911 2930 2965 2971 2968 2942 2829 2978 2903 3088 2933 2915 2889 2851 2949 2893 2918 2960 2821 2882 2999 2960 3025 2949 3026 2883 2870 2934 2950 2975 2951 2897 2985 2956 2969 2869 2933 2924 2862 2918 2898 2883 2847 3024 3016 3040 3070 2972 2959 2993 2988 2992 2963 3009 3079 3004 3156 3020 3066 3081 2996 3078 2921 3045 2958 2942 3078 3020 2951 3037 3090 3050 3087 3002 3061 2980 3008 3079 3083 3037 2964 2959 2950 3073 3027 3013 3037 3037 3046 3035 3041 3114 3104 3009 3213 3041 3076 3057 3033 3099 3038 3007 3125 3070 3085 3098 3082 3085 3136 3113 3115 3142 3106 3100 3074 3159 3021 3092 3143 3124 3062 3038 3065 3095 3031 3068 3015 3192 3114 3058 3144 3061 3033 3152 3273 3120 3115 3240 3135 3161 3124 3092 3229 3243 3156 3052 3075 3101 3105 3122 3160 3175 3109 3170 3141 3117 3139 3152 3111 3166 3076 3153 3213 3201 3142 3159 3160 3086 3004 3109 3111 3159 3062 3065 3077 3070 3076 3134 3203 3015 3110 3091 3065 3062 3113 3160 3104 3147 3091 3043 2950 3055 2987 3137 3118 3081 3053 3189 3122 3072 3203 3064 3001 3079 3080 3094 3051 2997 3052 3046 3072 3088 3027 3071 3060 3125 3115 3005 3042 3023 3029 3014 3016 3020 2916 2973 3015 3023 3060 2983 3078 2993 3001 3013 3008 3014 3113 3078 3016 3023 2965 3113 3047 3068 3056 2977 2982 3018 3001 2962 2970 3040 2920 3016 3009 2875 2997 3055 2983 3009 3027 2948 2973 3024 3013 3073 2967 2937 2896 3013 3040 3001 2958 3043 3071 2901 3060 3047 2999 2939 3056 3012 2916 2986 2996 3008 3038 3052 2956 2999 3120 3120 2931 2925 2997 2995 3066 2937 3067 2973 3024 3082 3104 3098 3005 2971 3068 3069 3061 3146 2981 3163 3065 3016 3026 3102 3054 3103 3175 3073 3108 3053 3143 3045 3175 3106 3088 3058 3091 3021 3160 3188 3058 3168 3149 3120 3107 3014 3130 3186 3070 3099 3189 3236 3085 3151 3145 3236 3347 3115 3233 3197 3201 3335 3393 3178 3262 3124 3223 3216 3247 3291 3292 3307 3193 3172 3249 3301 3290 3177 3373 3343 3296 3422 3358 3301 3280 3340 3338 3377 3305 3313 3286 3376 3312 3318 3403 3372 3345 3370 3380 3439 3366 3484 3349 3429 3366 3457 3516 3490 3374 3463 3460 3566 3514 3671 3527 3756 3668 3528 3686 3693 3756 3689 3829 3739 3696 3712 3713 3737 3704 3706 3749 3747 3797 3716 3886 3857 3807 3806 3789 3784 3703 3919 3835 3778 3791 3740 3751 3929 3714 3776 3701 3729 3796 3769 3796 3701 3855 3688 3712 3759 3828 3666 3798 3646 3673 3740 3656 3732 3630 3718 3618 3672 3517 3535 3511 3485 3552 3574 3547 3641 3650 3485 3480 3603 3487 3588 3513 3526 3465 3533 3441 3493 3500 3565 3557 3483 3558 3616 3661 3539 3629 3518 3531 3451 3520 3443 3521 3456 3544 3691 3476 3616 3494 3451 3451 3533 3519 3412 3351 3422 3261 3243 3262 3150 3138 3011 3146 3147 3144 3066 3079 3106 2969 3086 3159 3001 2997 3008 3020 2991 2978 3010 3015 3037 3104 2939 3069 3022 2929 2859 3007 2849 2965 2860 2928 2945 2972 2947 2927 2868 2910 2838 2892 2986 2806 2853 2931 2878 2885 2824 2929 2820 2961 2884 2841 2835 2914 2777 2837 2794 2746 2828 2871 2866 2822 2741 2794 2874 2841 2819 2833 2839 2877 2754 2759 2807 2727 2795 2862 2760 2798 2859 2822 2703 2770 2712 2710 2876 2778 2687 2890 2784 2744 2823 2701 2756 2782 2757 2730 2741 2844 2697 2729 2664 2657 2705 2722 2762 2686 2677 2684 2687 2726 2719 2774 2729 2762 2753 2657 2769 2688 2628 2735 2681 2756 2650 2683 2705 2793 2700 2687 2634 2769 2687 2685 2569 2609 2699 2693 2650 2668 2611 2629 2760 2651 2708 2673 2670 2636 2653 2616 2680 2693 2704 2692 2630 2687 2635 2646 2635 2580 2700 2624 2641 2619 2677 2694 2635 2593 2598 2659 2638 2703 2535 2720 2636 2679 2609 2664 2574 2633 2644 2567 2599 2599 2571 2684 2665 2594 2645 2714 2698 2637 2617 2636 2660 2609 2625 2583 2602 2582 2635 2572 2684 2569 2501 2573 2709 2596 2643 2571 2653 2580 2606 2515 2583 2503 2605 2463 2542 2627 2598 2600 2653 2596 2535 2555 2585 2590 2665 2642 2529 2555 2574 2656 2576 2621 2671 2454 2609 2571 2560 2663 2588 2590 2630 2436 2603 2586 2615 2443 2716 2557 2525 2551 2559 2567 2545 2504 2565 2441 2522 2496 2537 2439 2555 2533 2512 2423 2510 2523 2599 2568 2502 2528 2485 2471 2458 2529 2610 2575 2525 2573 2552 2525 2538 2596 2455 2547 2548 2409 2514 2516 2433 2537 2533 2364 2460 2420 2489 2523 2448 2512 2552 2573 2531 2535 2513 2486 2549 2495 2481 2482 2471 2512 2507 2500 2529 2390 2556 2493 2430 2562 2541 2440 2491 2492 2444 2406 2552 2561 2457 2518 2488 2433 2481 2401 2428 2456 2462 2378 2423 2577 2394 2362 2469 2417 2422 2320 2472 2381 2385 2451 2441 2478 2456 2440 2446 2460 2420 2543 2456 2496 2416 2549 2488 2495 2496 2566 2497 2469 2482 2430 2484 2466 2449 2412 2530 2407 2459 2399 2416 2519 2499 2527 2535 2446 2526 2534 2539 2528 2460 2383 2369 2441 2388 2359 2470 2489 2453 2422 2400 2309 2397 2514 2442 2349 2294 2360 2368 2411 2368 2296 2384 2329 2272 2300 2269 2281 2425 2339 2349 2369 2387 2373 2329 2345 2256 2339 2381 2372 2274 2282 2343 2374 2332 2317 2336 2312 2351 2300 2321 2266 2184 2411 2345 2276 2318 2382 2319 2307 2309 2360 2272 2319 2279 2306 2417 2382 2316 2327 2410 2367 2353 2293 2363 2475 2343 2243 2356 2351 2320 2257 2341 2340 2323 2389 2316 2287 2277 2207 2307 2291 2390 2335 2403 2366 2207 2264 2282 2302 2358 2304 2253 2280 2314 2303 2334 2378 2305 2302 2395 2234 2286 2228 2257 2245 2271 2301 2282 2318 2367 2228 2343 2308 2385 2318 2249 2261 2305 2291 2259 2198 2261 2320 2224 2265 2325 2329 2295 2343 2260 2341 2346 2323 2323 2318 2303 2257 2364 2264 2258 2286 2241 2228 2294 2257 2289 2279 2285 2323 2389 2309 2249 2401 2240 2321 2383 2325 2333 2341 2285 2319 2279 2289 2242 2338 2177 2381 2261 2265 2252 2324 2251 2249 2247 2307 2258 2308 2280 2189 2335 2241 2229 2240 2344 2251 2335 2334 2316 2242 2303 2320 2327 2175 2277 2216 2370 2180 2241 2253 2219 2234 2176 2275 2268 2246 2198 2238 2314 2270 2205 2214 2370 2170 2302 2250 2247 2152 2167 2269 2183 2161 2207 2208 2190 2146 2192 2198 2124 2155 2156 2225 2177 2202 2163 2220 2204 2177 2117 2110 2139 2069 2216 2074 2182 2117 2166 2158 2053 2113 2186 2131 2103 2096 2110 2124 2129 2190 2106 2122 2026 2041 2043 2071 2110 1976 2061 2053 2010 2019 2131 2126 2070 2036 2095 1971 1960 2049 2042 2063 2048 2040 1944 1984 2053 2029 2037 2000 1980 1878 2002 1934 1998 2079 1993 1973 2024 1988 1899 1934 1992 1920 1940 1980 1829 1904 1949 1889 1904 1945 1904 1851 1863 1829 1902 1876 1881 1872 1869 1875 1887 1788 1903 1809 1842 1807 1838 1845 1823 1856 1849 1813 1815 1837 1763 1788 1802 1802 1883 1798 1738 1839 1885 1797 1812 1797 1739 1826 1755 1850 1755 1748 1713 1793 1771 1766 1786 1831 1802 1734 1794 1800 1685 1812 1833 1812 1606 1818 1729 1676 1804 1759 1794 1773 1691 1744 1751 1709 1719 1792 1746 1711 1777 1730 1836 1643 1672 1680 1743 1597 1694 1733 1660 1764 1739 1718 1706 1710 1671 1710 1763 1729 1675 1639 1766 1573 1725 1660 1771 1615 1681 1628 1630 1657 1628 1708 1676 1622 1619 1613 1624 1676 1664 1640 1606 1601 1625 1646 1626 1688 1705 1666 1589 1674 1591 1640 1623 1685 1601 1623 1632 1662 1588 1635 1667 1636 1630 1599 1720 1576 1621 1636 1670 1670 1609 1668 1635 1582 1693 1619 1650 1662 1583 1653 1637 1612 1618 1718 1635 1648 1736 1725 1671 1773 1726 1703 1666 1639 1686 1667 1649 1705 1692 1628 1603 1702 1645 1659 1677 1653 1619 1678 1617 1705 1697 1664 1651 1705 1764 1686 1685 1701 1641 1663 1752 1593 1687 1596 1700 1624 1718 1687 1637 1653 1694 1706 1702 1698 1641 1663 1649 1639 1639 1625 1647 1665 1686 1663 1654 1645 1633 1670 1667 1624 1634 1715 1681 1733 1637 1643 1650 1714 1639 1626 1702 1644 1658 1721 1626 1676 1606 1587 1643 1684 1654 1678 1592 1640 1678 1633 1548 1639 1676 1687 1668 1657 1581 1592 1661 1631 1655 1586 1637 1705 1596 1672 1631 1651 1628 1614 1644 1638 1636 1522 1598 1572 1646 1667 1567 1618 1557 1680 1614 1665 1600 1595 1633 1563 1606 1617 1667 1521 1606 1594 1648 1643 1640 1614 1516 1665 1625 1639 1623 1644 1566 1552 1655 1592 1602 1525 1618 1583 1561 1559 1554 1616 1465 1517 1486 1572 1543 1552 1619 1453 1474 1542 1546 1590 1524 1528 1570 1523 1535 1561 1583 1498 1554 1590 1531 1438 1494 1483 1541 1593 1455 1487 1502 1530 1443 1533 1472 1418 1433 1530 1488 1408 1427 1548 1424 1415 1471 1516 1437 1398 1436 1563 1442 1473 1374 1412 1450 1461 1424 1441 1447 1397 1403 1394 1406 1415 1424 1462 1401 1441 1424 1411 1379 1462 1433 1438 1423 1395 1392 1418 1367 1426 1337 1404 1380 1385 1338 1369 1374 1361 1407 1335 1364 1311 1355 1392 1356 1358 1372 1343 1368 1336 1373 1308 1296 1386 1314 1312 1294 1309 1362 1352 1309 1362 1348 1246 1383 1281 1375 1363 1306 1361 1336 1387 1378 1423 1372 1372 1414 1425 1407 1405 1392 1409 1351 1458 1409 1451 1379 1408 1375 1443 1445 1357 1419 1517 1458 1465 1480 1449 1428 1423 1427 1464 1444 1440 1473 1486 1457 1433 1384 1453 1382 1437 1367 1432 1358 1327 1368 1289 1319 1311 1309 1320 1266 1286 1288 1289 1302 1309 1230 1293 1269 1251 1239 1211 1252 1276 1234 1324 1284 1272 1305 1287 1249 1237 1224 1205 1189 1257 1177 1195 1302 1290 1341 1296 1299 1311 1310 1292 1311 1316 1370 1336 1373 1396 1369 1367 1447 1393 1479 1388 1428 1344 1414 1372 1470 1453 1494 1474 1440 1579 1527 1572 1664 1710 1763 1786 1931 2005 2070 2200 2211 2406 2478 2642 2632 2758 3071 2971 3046 3183 3301 3366 3347 3401 3463 3618 3725 3607 3778 3734 3835 3869 3892 3973 4017 3943 3874 3985 4045 3963 4047 4039 4049 3814 3916 3605 3705 3550 3523 3374 3386 3307 3242 3174 3119 3255 3218 3210 3076 3032 3004 3036 2918 2934 2782 2838 2791 2761 2716 2659 2625 2702 2617 2569 2536 2367 2338 2324 2355 2292 2149 2150 2043 2041 2047 1996 1917 1889 1843 1869 1840 1823 1775 1775 1699 1751 1629 1652 1623 1539 1541 1470 1513 1379 1358 1395 1406 1388 1409 1344 1380 1378 1446 1340 1334 1311 1261 1290 1278 1250 1170 1235 1198 1208 1125 1182 1069 1092 1091 1056 1055 1047 1081 1035 1104 1023 1049 1049 1036 1058 997 1048 1014 1062 1054 1066 1067 1040 1067 998 1134 1023 1060 1077 1041 1037 1032 1051 999 1016 1034 992 1007 1002 1033 962 1079 977 1008 1089 1096 1071 1083 1009 1080 1025 1040 1069 985 1027 1037 1025 1033 1001 1022 1000 986 1009 1000 1067 1026 996 1060 1058 999 952 939 990 1000 1044 1003 1017 924 1006 1014 932 986 957 965 926 1001 953 1041 957 949 972 987 932 910 936 863 960 913 983 931 935 907 907 863 935 969 924 929 948 911 938 997 913 946 960 977 887 941 932 943 887 970 943 977 908 887 930 994 884 940 959 956 906 971 906 910 925 900 894 925 905 880 888 950 912 915 903 949 924 924 914 921 893 897 894 934 953 903 907 884 927 933 910 985 865 912 928 918 937 886 860 878 888 933 876 923 883 934 924 940 948 821 901 878 898 923 904 887 956 895 924 838 829 839 878 860 925 865 876 879 865 872 896 910 865 874 831 852 895 879 807 872 835 796 865 857 859 898 871 876 881 893 923 887 870 964 928 894 888 861 893 941 942 924 884 917 965 993 933 933 977 941 908 892 932 954 949 905 990 978 964 939 985 958 953 959 956 878 982 967 962 970 1008 982 959 954 1008 978 956 963 954 990 927 986 998 968 985 953 970 908 984 1012 956 928 917 924 1049 958 975 960 983 989 998 967 945 990 975 1031 948 993 951 1029 980 962 1013 1052 1075 1046 1065 1144 1186 1163 1278 1347 1381 1434 1543 1593 1730 1941 2070 2208 2374 2617 2788 2872 2974 3136 3189 3385 3336 3672 3559 3696 3733 3742 3836 3699 3850 3853 3895 3874 3954 3886 3932 3875 3898 3797 3904 3781 3679 3642 3622 3435 3421 3306 3269 3152 3241 3067 3056 3001 2986 2944 2805 2751 2562 2617 2550 2691 2434 2538 2399 2327 2270 2228 2179 2088 2078 2046 1881 1893 1858 1788 1740 1728 1628 1708 1526 1571 1467 1533 1453 1429 1359 1379 1355 1292 1309 1248 1269 1141 1210 1165 1175 1176 1101 1119 1042 1081 1126 1048 1095 1066 1053 997 997 1007 1014 958 955 971 982 934 935 931 957 888 898 938 904 905 890 850 882 861 808 888 834 844 859 893 871 908 933 868 934 913 894 904 940 922 854 855 898 866 882 870 902 911 841 878 862 830 929 913 887 926 884 848 950 892 960 852 902 879 915 905 857 943 938 952 983 937 1004 992 940 951 955 987 997 1011 1056 998 993 989 1026 1046 1021 1130 1147 1077 1065 1052 1117 1133 1058 1080 1058 1114 1049 1084 1054 1118 1044 998 1084 1032 1087 982 1036 1075 1064 1093 1043 1000 1038 978 937 996 922 980 937 991 936 874 880 915 917 934 944 915 895 887 910 886 872 846 860 832 807 858 843 873 797 832 859 849 827 851 895 811 811 782 807 861 799 822 774 788 777 785 804 786 793 788 747 812 822 814 796 782 741 734 764 759 834 796 790 747 735 746 770 835 784 771 808 744 767 793 725 795 788 787 745 794 766 763 794 783 757 868 789 739 793 793 749 694 768 821 742 784 804 775 813 751 777 761 818 757 808 744 813 791 792 739 780 806 754 753 778 757 773 739 829 798 760 752 760 699 732 752 740 713 777 797 734 724 754 743 734 753 754 759 783 759 754 773 772 810 768 775 745 743 785 731 781 751 783 821 878 844 831 805 798 774 810 744 810 790 731 829 807 829 795 742 809 807 739 788 796 764 808 736 816 776 738 770 770 775 810 773 798 761 822 778 768 759 805 775 792 803 830 796 848 796 828 808 804 823 847 810 833 807 810 834 797 843 844 798 785 833 821 833 777 770 733 791 733 760 759 745 744 763 730 774 727 716 685 699 733 738 740 735 764 739 729 709 697 719 724 680 690 747 756 712 709 690 721 749 708 772 734 749 779 695 747 729 736 764 694 699 753 763 725 718 682 736 732 704 721 744 717 739 694 714 700 694 725 695 682 702 707 683 684 699 803 737 705 769 689 736 651 699 696 790 706 676 729 696 782 689 703 682 694 747 691 660 692 697 714 718 718 737 695 680 662 714 724 686 683 675 732 705 688 716 685 688 720 719 681 695 683 694 720 711 745 748 766 680 711 729 691 744 692 707 723 723 724 730 792 759 744 779 733 734 734 741 690 713 710 664 697 681 682 666 699 694 697 668 693 693 651 646 683 706 710 644 687 692 686 703 685 690 650 725 662 692 641 712 724 661 715 733 717 670 635 679 667 669 696 713 680 652 682 629 679 703 686 662 652 682 682 651 633 634 700 653 659 663 695 699 671 688 669 658 700 651 644 667 666 667 640 638 659 668 686 666 663 688 654 677 699 669 656 703 696 690 653 649 662 670 627 666 667 644 708 656 678 671 654 656 649 684 694 706 664 677 641 660 668 673 625 694 708 666 678 650 656 613 713 687 647 665 653 726 604 691 685 684 599 677 667 668 677 645 676 635 684 743 676 679 655 642 657 659 676 655 651 685 664 669 727 689 668 677 729 651 711 743 721 674 750 751 763 750 730 827 718 747 775 770 762 718 766 769 792 832 791 780 757 845 798 822 858 778 840 770 765 794 819 780 785 785 799 787 767 791 782 741 713 747 736 743 687 748 705 769 769 735 758 762 758 727 768 703 726 700 684 730 671 705 693 664 698 706 693 704 712 737 660 676 678 736 663 661 654 637 723 696 681 716 656 690 652 652 620 682 692 690 695 711 680 674 679 650 678 640 658 654 691 685 665 663 701 666 649 664 668 664 650 708 697 659 671 675 702 704 652 663 667 699 678 680 688 736 652 654 719 666 687 664 676 640 702 678 679 711 688 699 678 636 636 656 675 658 650 657 694 691 675 655 664 586 669 623 641 641 643 662 624 631 665 633 655 629 641 613 644 669 637 639 666 598 633 671 611 641 642 615 667 672 615 700 670 712 665 692 668 752 719 727 727 729 736 715 783 837 756 763 842 788 770 863 819 831 869 801 891 894 900 859 903 868 862 848 816 888 852 839 847 858 793 855 873 815 850 833 804 785 861 838 802 798 805 759 745 752 765 750 719 749 723 735 753 735 768 731 764 720 677 709 670 669 693 677 653 688 689 744 749 740 726 742 742 744 841 792 779 826 788 860 810 852 825 932 891 899 902 935 922 887 888 960 903 950 910 910 947 909 867 880 884 870 910 932 866 851 822 806 842 871 863 813 775 791 780 827 796 692 762 794 754 767 737 725 716 703 707 677 694 688 636 706 684 680 669 690 661 660 622 695 670 627 623 639 636 604 649 566 622 613 636 668 634 609 663 659 646 617 579 668 636 603 651 634 592 604 602 625 630 619 608 652 597 598 628 605 635 631 566 617 614 606 601 616 618 618 624 614 580 580 528 585 637 651 572 591 604 590 621 600 648 582 634 596 589 653 569 604 599 638 649 572 600 626 561 596 600 662 609 647 584 578 579 584 625 557 557 643 621 602 586 621 578 652 621 548 627 572 612 559 581 582 594 624 648 608 628 598 640 579 587 594 615 636 588 605 647 633 637 637 622 620 632 631 609 649 644 621 585 603 664 604 606 651 626 644 585 671 609 582 619 629 646 651 629 631 655 695 686 686 675 658 664 676 676 661 662 627 652 612 639 643 649 667 635 689 632 719 694 652 711 670 644 666 708 649 687 693 656 671 691 725 670 654 707 668 653 635 687 630 641 665 687 690 675 666 701 655 627 616 655 669 672 657 630 637 602 636 627 693 605 647 579 639 665 622 621 662 624 630 611 644 682 652 672 586 659 618 642 591 646 621 648 602 627 608 638 675 654 649 636 634 589 650 598 631 614 626 607 612 654 566 588 584 648 628 619 630 620 632 651 629 603 626 635 692 632 630 649 628 675 611 579 677 661 624 618 641 668 636 693 623 638 624 641 632 647 666 655 665 650 676 641 657 659 681 634 693 657 674 663 654 667 654 685 677 731 733 713 715 710 763 767 744 765 824 832 956 918 972 1180 1175 1257 1364 1453 1533 1545 1610 1685 1657 1855 1953 1926 1949 2117 2183 2273 2311 2335 2329 2399 2361 2476 2437 2404 2366 2340 2413 2428 2412 2407 2411 2402 2445 2360 2292 2235 2297 2206 2118 2063 2089 1993 1923 1920 1921 1811 1768 1731 1709 1652 1534 1486 1459 1339 1372 1355 1275 1248 1197 1155 1172 1109 1126 1038 1101 1051 1077 1034 1040 987 997 1024 1008 1005 932 928 1041 985 1010 988 971 950 926 962 968 1003 989 994 998 965 858 1009 888 900 902 867 845 834 814 822 821 788 808 818 765 681 778 743 731 695 707 700 702 711 669 589 661 619 636 653 610 618 656 640 657 637 583 649 653 617 599 625 592 617 583 596 568 601 540 559 584 615 614 610 568 575 608 566 554 603 593 610 577 600 623 613 601 594 605 600 593 644 611 589 582 584 611 568 602 582 608 615 617 655 583 555 634 650 631 589 566 601 579 601 540 612 573 615 643 611 525 573 618 607 604 569 595 591 611 574 589 565 574 604 595 568 599 622 583 652 571 640 610 584 632 576 595 633 594 611 623 645 659 620 673 674 725 651 685 706 744 715 744 726 773 722 780 779 793 802 770 780 783 753 843 779 744 835 800 848 797 780 761 800 794 797 788 810 758 792 760 759 776 777 778 821 728 750 789 775 744 746 750 751 730 701 689 714 746 703 723 728 698 707 661 689 726 739 754 746 645 720 708 767 723 647 718 732 710 715 697 732 686 703 725 728 756 701 671 739 731 722 654 668 667 754 716 669 695 714 697 685 624 687 607 563 620 630 587 602 584 611 586 630 590 610 549 591 583 581 599 631 596 545 589 554 578 571 580 599 517 612 560 577 546 612 571 537 568 575 593 549 561 597 538 563 500 536 550 530 587 509 528 540 538 593 551 557 587 528 570 545 560 554 548 544 573 569 549 570 558 528 539 566 569 583 529 545 549 516 545 537 631 559 533 535 523 575 537 570 522 543 530 573 534 535 525 572 568 606 568 528 534 485 545 575 521 545 513 538 580 536 580 569 569 539 523 520 592 539 554 567 586 513 532 499 486 574 508 557 579 534 528 533 521 541 539 542 573 541 543 561 551 539 609 530 542 590 591 595 568 561 547 569 517 538 559 547 585 537 531 593 580 580 596 603 635 596 592 567 626 611 656 644 605 623 601 614 610 643 633 616 596 566 635 587 639 598 646 626 607 600 598 637 616 606 592 620 618 588 596 636 647 690 665 586 617 615 597 589 597 581 620 571 627 600 607 571 586 638 633 582 588 530 562 548 572 573 574 617 553 588 559 559 582 558 582 525 529 536 507 540 574 547 486 553 536 555 520 525 546 516 511 561 573 558 501 501 516 539 511 532 559 542 529 509 496 515 465 487 519 514 520 512 537 537 501 542 533 507 500 506 481 508 531 551 527 513 535 523 572 512 548 518 534 520 596 542 541 550 512 517 516 504 521 465 479 540 501 503 553 513 554 499 520 512 487 529 494 525 513 541 524 495 487 497 515 554 503 508 527 516 519 498 540 528 519 530 537 561 530 521 578 508 517 537 547 539 547 585 591 577 524 528 567 572 609 540 580 579 635 546 557 641 627 625 632 622 561 602 554 581 564 563 585 592 593 588 537 533 549 597 546 563 583 573 549 535 520 566 548 515 572 546 521 539 578 500 543 555 550 546 569 532 549 495 524 521 495 517 505 495 514 463 515 527 551 513 534 539 531 523 501 570 504 519 503 488 493 475 524 536 532 523 519 515 552 519 546 520 530 487 507 522 512 525 525 536 517 542 489 538 552 528 530 528 498 552 557 539 554 546 600 568 587 618 566 541 561 548 610 557 628 586 578 598 629 571 638 609 603 558 663 615 591 553 557 577 577 548 594 562 561 568 533 550 558 546 576 576 556 582 519 557 576 579 542 571 501 544 574 553 582 533 592 561 543 566 584 540 594 556 593 602 650 583 660 622 669 644 644 691 688 682 701 731 828 760 831 827 811 826 860 944 952 973 1028 1032 1048 1037 1028 1078 1033 1073 980 1046 1032 1117 1091 1062 1076 1084 1060 1066 1116 1035 1051 978 1023 1002 940 999 962 932 896 921 912 880 875 897 846 848 785 892 759 827 758 762 700 737 730 729 761 685 702 663 666 668 643 664 631 671 690 686 697 635 700 710 617 608 677 699 646 646 625 570 671 668 677 648 638 640 660 619 646 709 660 680 691 674 680 624 658 693 685 692 681 699 674 674 650 674 649 627 681 646 660 656 620 701 643 663 680 599 597 654 586 578 645 538 570 614 549 565 505 548 523 567 482 570 538 537 533 533 541 500 527 524 492 534 544 563 495 510 530 508 515 499 559 502 507 464 509 504 479 506 518 495 503 473 510 443 494 530 469 533 515 527 466 516 494 503 535 509 511 490 492 496 488 521 492 526 569 488 472 486 555 476 543 516 523 549 511 511 514 503 545 480 481 495 556 560 507 502 526 525 525 510 461 508 480 515 495 500 551 526 499 500 527 534 509 516 522 517 514 498 541 516 546 523 553 501 531 545 495 516 529 545 502 483 512 553 502 497 514 502 544 536 531 597 563 562 567 564 608 609 605 633 649 656 664 705 689 751 755 747 757 774 827 814 896 921 891 855 936 930 894 982 989 926 1021 985 985 960 1004 1002 974 973 1003 931 932 966 913 972 954 922 911 955 954 930 1000 951 1025 917 849 896 922 851 882 829 770 789 813 742 791 791 748 765 769 809 691 736 703 728 687 656 639 654 635 663 617 613 615 647 583 550 613 618 560 593 576 610 575 572 615 575 589 596 614 660 624 611 600 602 665 612 612 572 605 601 631 621 610 631 659 638 630 691 611 642 608 595 611 665 631 573 600 535 546 580 545 536 624 550 575 564 579 566 568 527 562 560 546 582 580 578 611 587 560 548 548 576 577 582 577 559 545 538 527 552 538 524 520 549 520 518 528 522 499 488 520 500 502 531 514 477 512 516 521 516 494 490 510 480 470 485 504 480 486 487 463 488 489 506 477 523 511 519 476 492 501 522 493 496 532 492 536 537 516 540 548 537 520 514 524 575 544 609 568 533 593 547 570 586 560 582 556 614 572 536 588 582 567 565 529 596 551 551 541 567 577 567 592 579 548 580 546 554 552 546 566 560 482 541 544 515 532 546 544 569 496 532 515 490 494 542 537 559 511 501 485 498 469 526 544 509 503 520 557 508 519 499 555 506 515 479 505 469 505 502 552 443 494 475 525 502 509 482 475 467 492 488 512 481 492 488 514 488 511 504 512 473 463 496 458 478 456 480 462 470 482 485 503 473 474 453 495 469 473 508 453 477 503 503 494 480 457 493 484 466 477 428 456 480 433 490 453 499 488 519 472 501 503 477 468 525 475 471 508 490 486 491 488 464 516 487 509 498 504 516 506 465 489 477 530 522 543 525 469 509 485 518 516 500 494 465 479 524 523 497 478 517 472 502 501 473 509 515 452 503 494 477 481 510 495 484 484 470 510 463 490 452 481 472 472 486 459 458 505 474 519 478 453 491 464 479 444 439 447 509 448 501 482 435 471 466 459 444 479 462 497 513 489 479 456 483 448 488 441 437 439 471 436 457 432 472 453 469 462 453 475 481 473 494 426 432 466 428 454 422 479 447 508 452 453 459 488 471 435 446 460 431 473 503 461 453 420 452 426 507 497 429 465 463 500 491 478 453 492 455 446 474 490 467 476 481 468 462 459 449 442 451 464 470 469 516 516 442 451 513 492 519 471 450 436 451 451 450 443 408 427 471 479 523 452 465 461 465 437 452 485 465 474 472 430 420 434 486 505 448 525 488 466 419 481 477 448 461 478 503 464 451 492 460 462 471 490 455 480 469 452 470 480 452 429 464 461 430 427 455 450 499 442 482 442 438 440 465 465 464 479 476 478 487 397 451 490 524 481 451 427 449 449 507 470 501 444 487 454 491 442 452 425 461 462 449 485 393 464 448 401 461 443 454 450 484 420 476 459 471 483 472 482 456 431 465 474 454 467 500 477 496 450 463 451 487 405 437 484 439 466 489 459 486 445 471 446 445 454 471 437 496 428 480 461 483 439 450 469 451 430 464 445 467 423 458 464 424 486 411 433 452 467 416 494 441 453 448 438 480 440 463 470 432 495 453 435 420 469 468 450 457 471 450 457 455 475 488 495 467 502 445 486 407 503 472 467 493 488 450 490 475 536 488 489 482 542 534 550 513 538 487 492 476 493 473 496 492 499 478 494 486 546 466 513 485 500 510 469 468 479 483 525 452 491 464 507 498 492 463 466 499 470 487 471 464 443 466 454 490 444 462 468 458 462 480 440 440 456 475 497 478 440 454 436 471 407 453 449 411 435 504 457 428 422 469 459 450 472 478 435 449 460 454 438 413 474 480 463 478 491 448 434 460 469 485 463 463 479 457 471 463 477 475 493 459 464 435 488 532 500 479 474 464 453 427 490 471 494 440 442 442 497 478 442 469 484 454 430 463 470 414 467 457 460 459 445 461 511 456 481 493 413 415 451 453 441 422 436 445 438 477 437 448 458 463 453 438 444 467 405 444 414 464 449 440 425 445 440 431 458 436 437 426 433 419 406 442 453 442 443 424 479 450 430 481 439 455 420 415 417 431 442 449 457 462 471 461 470 476 426 451 410 430 442 409 448 419 451 454 458 454 432 478 482 415 469 437 448 435 412 470 426 425 430 438 426 435 420 447 459 423 421 461 427 436 445 443 425 411 452 437 431 438 434 453 412 455 444 450 410 451 437 444 438 477 428 432 476 415 415 441 421 436 422 467 445 468 455 472 479 463 435 463 462 456 461 414 462 468 472 474 501 444 488 426 505 486 504 499 483 494 485 535 511 542 515 528 534 548 582 545 561 631 525 569 578 598 602 567 546 585 608 620 551 592 597 619 662 592 577 633 621 554 583 589 587 582 581 590 581 578 559 577 636 555 587 571 562 582 554 556 574 570 588 538 536 575 554 599 566 602 625 494 509 534 567 551 525 546 527 499 525 544 510 519 548 515 552 502 538 505 515 519 469 485 480 494 484 489 464 465 516 457 492 475 491 490 456 498 467 487 475 480 478 502 441 463 499 468 454 450 474 495 463 449 472 486 451 468 482 482 490 460 494 490 452 497 465 499 462 511 502 464 472 430 497 438 461 469 477 465 471 496 461 512 482 411 462 478 493 464 465 444 471 453 414 431 438 438 450 472 442 456 453 430 436 416 445 490 440 532 413 505 445 494 444 426 444 484 424 468 436 462 469 435 458 455 454 454 430 449 464 414 442 417 461 484 449 445 482 488 455 467 495 482 477 485 429 467 425 438 475 440 452 472 461 459 455 452 429 440 457 443 494 454 461 454 429 455 442 470 444 443 462 444 478 437 449 443 446 410 479 451 444 446 465 455 451 432 449 398 428 453 422 461 438 479 416 438 452 466 433 442 456 431 438 437 441 404 441 488 421 481 455 433 458 414 444 476 436 428 449 451 451 504 455 493 447 447 435 417 432 464 457 463 442 426 439 460 455 492 427 442 455 466 447 478 426 447 490 481 446 485 447 503 477 481 506 492 438 456 459 474 480 443 480 469 438 439 515 453 494 446 478 478 472 456 455 443 470 444 429 466 482 483 472 456 450 469 448 455 440 427 448 452 449 486 430 443 462 412 444 495 461 459 478 453 416 485 457 479 492 488 460 470 453 471 440 485 493 454 477 512 489 501 480 538 464 480 453 495 469 496 449 498 450 485 482 483 462 505 472 491 474 522 435 457 464 530 455 475 454 444 473 475 443 426 442 469 438 434 455 445 462 441 463 437 449 444 419 466 444 497 432 475 456 449 449 482 445 504 416 481 447 479 431 468 417 459 431 464 472 457 470 433 469 444 439 446 478 453 481 441 518 483 458 434 419 456 452 454 433 450 482 519 438 443 471 432 411 455 430 453 428 408 461 493 450 457 476 432 454 450 439 486 431 419 450 441 450 445 470 448 462 448 440 501 462 449 451 414 471 452 425 466 446 491 494 421 452 494 457 467 448 400 419 474 431 423 411 428 431 446 421 465 441 406 463 434 470 412 489 411 468 439 420 421 434 442 439 426 448 450 430 473 409 452 437 451 437 431 438 394 482 461 476 461 450 435 471 440 458 468 440 419 466 443 444 430 433 508 451 486 434 472 444 454 457 465 448 464 474 478 472 471 406 474 455 440 480 465 458 467 470 449 476 479 427 481 482 466 439 500 431 432 477 467 422 429 430 463 455 457 436 476 443 427 425 497 476 447 449 475 488 455 475 438 496 452 473 442 420 382 466 459 496 488 491 473 530 486 424 460 522 469 526 506 518 469 487 466 491 495 492 485 496 528 513 460 539 505 517 486 528 487 458 491 482 512 490 486 531 514 468 507 460 500 506 531 511 546 485 512 485 492 499 497 518 527 514 536 523 499 478 527 511 518 521 572 515 577 546 543 576 596 611 577 525 602 623 568 604 605 610 586 636 657 667 656 622 616 652 656 669 668 605 646 647 601 633 604 665 612 631 629 661 581 607 605 620 600 605 640 655 609 581 585 585 559 562 569 550 579 577 525 599 564 529 544 557 490 518 489 503 465 510 550 529 556 482 488 538 516 477 462 471 515 457 505 477 504 476 547 496 538 490 472 490 548 489 428 490 503 516 457 486 482 474 484 470 489 473 499 497 473 473 480 476 523 487 473 484 493 490 470 510 477 543 495 476 515 519 439 546 487 474 518 512 533 535 522 471 510 501 520 515 522 565 544 524 524 467 516 513 569 538 507 544 524 520 552 514 514 526 561 547 459 504 483 566 535 561 545 485 519 487 510 475 457 483 475 527 496 529 531 505 500 534 472 490 505 527 520 474 462 473 459 455 476 421 453 504 455 507 506 486 473 446 469 513 508 474 467 466 474 452 440 451 495 459 491 488 489 480 532 496 477 460 507 483 500 500 510 516 490 485 513 565 544 589 564 596 572 642 585 615 577 666 630 653 666 667 684 690 745 738 751 703 772 685 709 756 763 714 745 754 749 765 793 740 829 743 799 847 792 773 768 791 817 801 734 748 776 729 743 745 730 737 694 680 773 732 748 696 725 720 737 639 706 690 684 603 680 683 693 665 645 653 642 659 621 584 615 622 591 576 575 565 591 563 584 551 558 586 548 563 529 519 601 525 542 502 488 507 520 506 511 565 516 510 507 500 507 463 535 515 500 502 517 503 455 474 540 494 549 466 485 481 493 494 475 481 526 468 527 475 484 482 481 528 533 532 537 468 483 550 520 540 490 507 517 558 495 486 510 517 531 479 544 517 519 568 510 542 553 520 539 524 526 534 480 523 547 557 516 571 519 532 484 494 552 548 525 511 518 554 539 509 486 499 500 477 489 519 491 495 516 522 498 558 510 503 446 481 488 494 531 549 476 523 477 507 515 487 524 452 485 489 457 483 439 507 487 443 490 458 496 508 466 474 518 484 432 473 493 489 475 468 465 444 488 453 471 467 449 485 433 485 491 470 477 433 478 486 424 472 493 456 445 454 434 443 461 485 423 504 416 398 465 479 459 457 454 465 456 465 454 445 429 455 510 437 489 458 474 473 489 454 448 453 432 451 454 416 421 492 434 439 465 465 433 474 422 445 454 456 430 448 427 441 431 466 418 436 449 466 435 462 437 431 434 413 451 419 458 414 479 494 477 426 439 428 463 429 420 449 417 419 435 428 444 428 444 455 469 479 460 395 465 459 452 464 451 429 480 422 455 497 410 485 432 453 479 446 439 460 476 448 433 427 466 427 427 420 440 428 424 473 513 453 410 450 454 441 443 457 429 415 480 447 474 430 452 431 463 454 418 452 439 462 478 456 452 461 448 430 448 435 439 467 469 496 507 471 467 522 441 484 456 483 474 467 462 483 459 464 487 481 479 487 469 478 486 471 486 480 486 478 449 465 427 442 461 480 476 473 475 488 482 439 464 457 472 490 409 468 482 436 432 453 448 437 442 459 486 454 447 435 472 444 424 473 430 440 455 483 492 455 438 478 481 450 487 468 490 416 448 470 440 442 450 469 444 465 456 453 468 435 417 452 438 452 465 484 483 475 484 475 440 468 431 481 459 499 448 449 395 444 464 459 444 461 458 443 445 432 432 426 468 439 428 448 443 452 429 438 436 429 441 450 433 470 430 470 456 420 429 430 465 452 445 435 468 435 445 470 426 437 466 427 482 494 405 462 419 437 457 434 478 453 485 463 418 436 472 449 461 458 437 452 507 484 442 418 469 487 463 464 480 457 487 423 426 476 428 463 482 460 425 440 468 434 463 437 434 495 434 442 479 420 433 430 438 445 468 451 427 429 461 419 430 450 446 454 436 412 434 430 455 433 471 470 443 435 466 433 432 435 438 453 442 476 445 429 449 461 428 438 454 458 512 481 471 468 462 488 465 451 465 441 473 497 525 457 456 434 458 484 468 483 485 478 441 411 417 472 437 453 474 451 430 457 477 431 500 473 467 453 415 417 465 433 520 487 435 443 472 460 445 490 448 426 450 449 427 439 457 456 428 440 466 478 457 466 490 450 456 420 441 446 463 454 449 448 430 495 413 495 459 442 445 447 436 482 441 423 442 440 442 428 427 467 450 475 449 426 448 448 426 440 479 449 433 417 460 419 457 440 415 461 465 461 416 420 427 444 425 451 442 458 416 421 465 431 421 457 433 440 433 412 438 413 463 408 437 420 428 472 449 424 463 436 458 421 476 413 470 430 450 450 405 465 419 437 436 473 435 439 448 435 448 466 438 424 414 473 484 479 450 455 391 393 449 449 415 431 488 399 456 459 448 458 434 466 429 468 449 441 474 442 440 410 469 446 407 404 455 455 434 406 453 431 439 439 454 443 467 442 375 427 437 433 445 428 435 431 434 448 442 442 389 432 414 429 417 470 459 453 441 492 474 438 423 466 438 458 438 459 467 466 463 470 473 462 467 428 466 459 500 439 508 458 465 472 441 468 457 473 440 451 467 453 466 432 444 440 513 478 485 513 468 499 530 475 484 550 482 522 529 510 518 506 540 539 532 530 576 571 541 613 592 577 607 527 606 611 633 583 659 649 638 634 636 655 635 626 664 667 665 676 657 672 587 632 651 679 644 651 673 621 653 677 626 647 653 675 643 695 658 640 625 644 667 589 644 644 666 642 628 629 596 687 603 567 651 620 532 549 558 604 627 548 569 555 588 583 579 525 567 536 551 546 555 590 552 544 529 530 529 500 502 490 492 484 470 473 538 501 538 490 486 472 462 463 490 460 461 507 454 469 453 469 488 452 499 472 460 469 461 467 504 478 466 471 471 475 448 421 476 451 482 468 458 490 451 481 440 442 430 450 476 425 456 445 466 447 502 479 444 419 489 477 485 447 456 451 509 438 470 476 470 446 472 490 463 466 471 510 452 460 476 448 480 457 471 490 480 477 468 501 476 480 439 476 487 448 478 484 468 487 468 499 500 550 467 462 501 503 453 521 518 466 474 497 479 517 497 494 474 505 473 442 484 453 438 457 516 454 446 435 481 466 471 456 447 488 447 424 448 436 448 474 468 410 438 447 444 416 428 452 423 439 407 414 431 410 434 418 449 437 470 447 434 432 416 413 425 418 470 430 408 431 425 411 473 450 450 434 452 441 434 393 479 431 447 424 411 446 432 443 456 404 438 417 426 429 459 435 415 432 428 405 426 399 410 461 410 441 427 410 439 405 458 437 443 405 423 406 442 446 432 459 453 436 414 438 411 428 424 446 435 424 468 405 401 419 446 425 406 422 420 430 415 400 445 439 448 448 462 432 462 428 432 401 481 478 430 444 429 453 445 431 449 416 424 418 440 393 429 450 446 428 418 406 407 411 412 424 433 445 422 385 409 423 452 414 421 422 413 434 433 430 448 445 459 440 451 410 412 410 417 440 446 429 455 428 443 434 404 434 396 462 418 412 413 430 454 462 428 449 442 403 398 412 408 406 422 426 448 407 400 433 433 432 440 439 421 430 420 434 455 435 452 418 416 388 412 438 426 440 402 413 473 458 412 424 461 424 419 440 412 405 436 410 459 448 424 447 418 430 448 430 456 451 423 445 413 415 439 431 436 413 449 416 409 470 423 424 433 398 448 480 450 400 436 462 464 403 433 442 430 418 421 461 421 472 464 429 443 434 467 437 466 447 446 440 440 402 442 472 429 449 425 468 388 475 444 457 415 455 406 406 413 431 469 473 428 435 438 470 416 444 405 443 390 432 420 451 446 446 407 441 440 423 407 447 408 437 433 424 422 452 423 447 439 460 454 443 476 431 453 439 421 462 419 408 443 401 442 397 467 409 464 424 449 449 434 431 433 467 423 441 382 398 438 444 463 443 447 407 458 438 426 412 465 453 409 375 440 422 391 460 378 443 437 423 421 430 414 435 481 478 443 433 437 435 476 417 398 429 427 445 469 449 470 440 464 444 451 427 468 440 443 441 440 449 456 495 496 452 475 461 485 476 495 464 469 449 441 494 515 492 476 470 470 481 499 492 489 543 499 489 489 473 514 511 489 489 563 484 529 520 533 465 481 481 466 515 497 531 490 497 522 515 499 533 528 539 540 471</counts>
			</dataPoints>
		</scan>
	</xrdMeasurement>
</xrdMeasurements>
