<?xml version="1.0"?>
<xrdMeasurements xmlns="http://www.xrdml.com/XRDMeasurement/2.3" xmlns:xsi="http://www.w3.org/2001/XMLSchema-instance" xsi:schemaLocation="http://www.xrdml.com/XRDMeasurement/2.3 http://www.xrdml.com/XRDMeasurement/2.3/XRDMeasurement.xsd" status="Completed" recordIdentifier="{186354CF-29E5-45CC-851D-74314205EA2D}">
	<comment>
		<entry/>
	</comment>
	<sample type="To be analyzed">
		<id>GPSS_Li1p5Fe0p5Sc0p5Cl4_110625_690d9f07f040177efa2b78ed</id>
		<name></name>
		<preparedBy></preparedBy>
	</sample>
	<xrdMeasurement measurementType="Scan" status="Completed" sampleMode="Reflection">
		<usedWavelength intended="K-Alpha 1">
			<kAlpha1 unit="Angstrom">1.5405980</kAlpha1>
			<kAlpha2 unit="Angstrom">1.5444260</kAlpha2>
			<kBeta unit="Angstrom">1.3922500</kBeta>
			<ratioKAlpha2KAlpha1>0.5000</ratioKAlpha2KAlpha1>
		</usedWavelength>
		<incidentBeamPath>
			<radius unit="mm">145.00</radius>
			<xRayTube id="1010048" name="Empyrean Cu LFF HR (9430 033 7310x)">
				<tension unit="kV">40.0</tension>
				<current unit="mA">15.0</current>
				<anodeMaterial>Cu</anodeMaterial>
				<focus type="Line">
					<length unit="mm">12.0</length>
					<width unit="mm">0.4</width>
					<takeOffAngle unit="deg">6.0</takeOffAngle>
				</focus>
			</xRayTube>
			<sollerSlit id="21010002" name="Soller slits 0.04 rad.">
				<opening unit="rad">0.0400</opening>
			</sollerSlit>
			<mask id="22031000" name="Fixed mask 13 mm">
				<width unit="mm">9.00</width>
			</mask>
			<divergenceSlit id="22120001" name="Divergence slit 1°" xsi:type="fixedDivergenceSlitType">
				<distanceToSample unit="mm">50.00</distanceToSample>
				<height unit="mm">1.52</height>
			</divergenceSlit>
		</incidentBeamPath>
		<sampleMovement xsi:type="spinningSampleMovementType">
			<spinnerRevolutionTime unit="seconds">1.0</spinnerRevolutionTime>
		</sampleMovement>
		<diffractedBeamPath>
			<radius unit="mm">145.00</radius>
			<antiScatterSlit id="22090040" name="AS slit 9 mm (PIXcel)" xsi:type="fixedAntiScatterSlitType">
				<height unit="mm">9.00</height>
			</antiScatterSlit>
			<sollerSlit id="21020003" name="Large Soller slits 0.04 rad.">
				<opening unit="rad">0.0400</opening>
			</sollerSlit>
			<filter id="20030001" name="Large beta-filter Nickel">
				<material>Ni</material>
				<thickness unit="mm">0.020</thickness>
			</filter>
			<detector id="7010019" name="PIXcel1D-Medipix3 detector" xsi:type="rtmsDetectorType">
				<phd unit="keV">
					<lowerLevel>4.02</lowerLevel>
					<upperLevel>11.27</upperLevel>
				</phd>
				<mode>Scanning</mode>
				<activeLength unit="deg">5.542</activeLength>
			</detector>
		</diffractedBeamPath>
		<scan appendNumber="0" mode="Continuous" scanAxis="Gonio" status="Completed">
			<header>
				<startTimeStamp>2025-11-09T12:32:24-08:00</startTimeStamp>
				<endTimeStamp>2025-11-09T12:40:31-08:00</endTimeStamp>
				<author>
					<name>AutomatedUser</name>
				</author>
				<source>
					<applicationSoftware version="1.7b (136)">PANalytical Aeris Instrument Suite</applicationSoftware>
					<instrumentControlSoftware version="3.2.00000000 20240306">AERIS</instrumentControlSoftware>
					<instrumentID>950485</instrumentID>
				</source>
			</header>
			<dataPoints>
				<positions axis="2Theta" unit="deg">
					<startPosition>10.00943322</startPosition>
					<endPosition>99.99442286</endPosition>
				</positions>
				<positions axis="Omega" unit="deg">
					<startPosition>5.00471661</startPosition>
					<endPosition>49.99721143</endPosition>
				</positions>
				<commonCountingTime unit="seconds">12.495</commonCountingTime>
				<counts unit="counts">3266 3192 3229 3181 3213 3107 3065 3038 3205 3105 3237 3202 3035 3149 3042 3162 3175 3267 3111 3058 3069 3178 3123 3198 3198 3187 3003 3122 3008 3129 3114 3073 3154 3069 3069 3117 3103 3135 3119 3107 3210 3064 3141 3053 3144 3109 3117 3115 3077 3071 3078 3111 3150 3120 3139 3192 3127 3081 3124 3108 3092 3064 3225 3130 3051 3099 3046 3126 3044 3127 3118 3157 3036 3157 3199 3143 3019 3020 3041 3118 3163 3104 2990 3119 3095 3080 3118 3139 3084 3081 3042 3039 3138 3158 3129 3059 3089 3186 3074 3045 3134 2955 3045 2995 3174 3069 3071 3005 3084 3064 3028 3135 3125 3105 3132 3101 3117 3088 3153 3149 3149 3068 2973 3092 3031 3076 2995 3072 3009 2974 3067 3125 3132 3012 3025 3021 2981 3054 3093 2966 3095 3002 3008 3106 3115 3097 3057 3108 3067 2933 3184 3070 2984 3082 3004 3124 3051 2965 3037 3057 2958 3136 2977 3071 3015 3039 3114 3039 3094 3006 2993 3030 3075 3056 3052 3067 3032 3090 3080 2995 3087 3013 3086 2967 3014 3016 3010 3023 3040 2965 3019 2922 3029 3024 3007 3001 3047 3037 3063 2978 3065 3012 3073 3046 3064 3069 3008 2978 3052 3031 2911 3132 3079 2986 3051 2933 2972 2955 3070 2993 3001 2928 2994 2915 2830 3091 2989 3068 3064 3101 3017 3059 3002 2978 2923 3083 2977 3010 2922 3030 2994 2954 2962 2896 3058 3105 3101 3074 2923 3007 3039 2966 3061 3116 3053 3094 2948 3021 2961 3052 2924 2937 2994 2947 2963 2981 2951 3019 2935 3040 2879 3109 2961 3040 3074 3146 2998 3015 3014 3055 3093 3060 3124 3072 3001 3103 3061 3126 3207 3145 3133 3098 3117 3077 3122 3082 3150 3193 3162 3037 3087 3158 3183 3160 3144 3186 3178 3261 3182 3097 3255 3128 3208 3302 3168 3202 3186 3259 3287 3235 3252 3231 3249 3277 3291 3207 3280 3376 3317 3285 3372 3314 3318 3353 3372 3270 3339 3383 3342 3266 3521 3438 3363 3373 3416 3406 3354 3433 3372 3494 3402 3420 3420 3522 3400 3504 3411 3335 3444 3425 3469 3449 3567 3535 3440 3447 3616 3546 3535 3517 3525 3666 3367 3507 3604 3688 3557 3536 3643 3540 3574 3547 3657 3708 3674 3607 3699 3708 3748 3844 3737 3808 3776 3695 3847 3841 3850 3887 3810 3953 3817 3909 3997 3991 3942 4069 4071 4120 3993 4186 4211 4298 4283 4319 4431 4530 4521 4639 4706 4700 4843 5112 5033 5036 5316 5442 5770 5754 5927 6230 6265 6321 6600 6725 6673 7060 6915 6935 7268 7396 7266 7548 7724 7728 7731 7781 7737 7687 7431 7274 7212 6922 6858 6744 6532 6580 6373 6162 6043 6043 5898 5850 5878 5637 5487 5440 5323 5438 5174 5250 5099 5088 4874 4838 4841 4828 4682 4583 4484 4476 4362 4377 4269 4212 4233 4063 4129 4065 4068 4130 3923 3936 3832 3804 3816 3695 3887 3652 3608 3717 3701 3540 3604 3679 3565 3645 3721 3618 3626 3586 3641 3547 3632 3637 3684 3572 3578 3654 3584 3611 3516 3576 3567 3593 3576 3592 3489 3441 3588 3459 3481 3497 3519 3485 3541 3553 3461 3615 3494 3415 3562 3560 3559 3469 3500 3477 3682 3515 3455 3512 3514 3574 3560 3542 3556 3535 3543 3520 3546 3529 3489 3488 3410 3574 3536 3534 3529 3545 3472 3349 3430 3424 3477 3429 3437 3468 3391 3348 3406 3392 3383 3453 3507 3423 3346 3342 3248 3284 3358 3444 3381 3321 3333 3340 3352 3498 3425 3318 3389 3421 3362 3384 3249 3334 3319 3307 3401 3292 3372 3274 3397 3358 3300 3338 3381 3509 3363 3287 3425 3421 3377 3426 3310 3362 3289 3330 3413 3403 3461 3323 3433 3236 3288 3260 3258 3468 3405 3331 3217 3389 3269 3328 3519 3387 3304 3444 3432 3314 3334 3348 3295 3318 3433 3453 3377 3361 3364 3366 3352 3372 3362 3246 3407 3349 3394 3344 3267 3324 3328 3334 3286 3335 3205 3356 3293 3268 3134 3258 3347 3248 3309 3254 3354 3246 3279 3173 3284 3287 3201 3259 3230 3141 3181 3242 3220 3273 3344 3201 3296 3247 3170 3275 3203 3099 3237 3224 3222 3287 3241 3154 3132 3104 3212 3278 3244 3157 3110 3214 3208 3204 3226 3148 3292 3161 3199 3214 3131 3208 3006 3198 3146 3102 3118 3112 3166 3211 3282 3208 3150 3172 3109 3198 3072 3222 3125 3208 3067 3048 3073 3176 3118 3102 3271 3113 3131 3157 3139 3138 3112 3207 3209 3162 3131 3166 3105 3076 3088 3159 3059 3120 3112 3257 3199 3195 3214 3159 3097 3132 3235 3152 3132 3049 3110 3054 3166 3153 3269 3249 3235 3083 3065 3071 3163 2963 3083 3274 3179 3079 3177 3109 3062 3171 3139 3052 3155 3159 3027 3155 3054 3097 3039 3100 3098 3013 3077 3136 3092 3139 3041 3134 3090 3049 2937 3129 3050 3080 2952 3054 3144 2992 3025 2964 3035 3117 3156 2983 3022 2942 3184 3046 3103 3003 2940 3018 3084 2993 3016 3048 3113 3061 3000 3001 3037 2903 3058 3060 2979 3051 3030 2961 3003 2944 2969 2999 2965 2952 2996 2972 2965 3018 2951 2935 2909 2962 2962 2875 2966 3006 2883 2968 2927 2926 2912 3027 3044 2983 3010 3008 2879 3011 2921 2900 2976 2987 2895 2914 2950 2919 2969 2990 2986 2892 2951 2903 3017 2862 2959 2888 2909 2837 2938 2903 3045 2890 2911 2826 2846 2921 2842 2892 2891 2879 2838 3007 2901 2872 2890 2911 2865 2915 2904 2880 2922 2872 2885 2899 2838 2924 2892 2934 2799 2890 2928 2892 2882 2866 2947 2795 2842 2925 2955 2896 2883 2827 2902 2763 2864 2852 2767 2792 2817 2886 2846 2815 2992 2857 2825 2902 2821 2918 2879 2801 2882 2794 2833 2767 2852 2854 2815 2807 2847 2810 2838 2900 2827 2893 2858 2883 2841 2813 2827 2801 2885 2816 2752 2817 2886 2834 2850 2784 2960 2868 2902 2949 2829 2800 2824 2816 2751 2814 2798 2984 2841 2933 2899 2779 2904 2887 2865 2845 2781 2810 2940 2885 2818 2839 2855 2932 2720 2797 2947 2907 2794 2914 2856 2928 2889 2846 2827 2947 2895 2865 2875 2882 2895 2848 2938 2886 2896 2784 2938 2802 2820 2921 2862 2866 2898 2902 2848 2825 2891 2901 2841 2892 2950 2953 2847 2885 2878 2921 2966 2919 2853 2909 2896 2926 3000 2853 2827 2980 2818 2884 2878 2847 2804 2755 2924 2863 2757 2896 2807 2854 2839 2943 2892 2908 2909 2865 2883 2955 2805 2870 2837 2761 2765 2771 2782 2814 2850 2863 2798 2787 2782 2975 2771 2824 2754 2850 2786 2838 2860 2873 2817 2905 2818 2874 2808 2820 2771 2835 2747 2779 2788 2652 2703 2681 2828 2821 2824 2747 2756 2800 2754 2754 2766 2706 2718 2789 2700 2714 2764 2684 2636 2802 2674 2707 2677 2733 2684 2784 2704 2754 2612 2651 2696 2578 2723 2639 2693 2661 2624 2687 2660 2699 2677 2651 2751 2676 2662 2661 2593 2634 2589 2622 2608 2674 2583 2688 2636 2647 2656 2708 2687 2596 2627 2556 2540 2567 2499 2561 2561 2477 2683 2625 2614 2482 2563 2405 2520 2569 2525 2511 2524 2429 2475 2493 2507 2538 2473 2505 2467 2504 2473 2414 2514 2583 2522 2494 2447 2490 2507 2379 2507 2504 2431 2469 2540 2456 2506 2419 2419 2402 2424 2395 2448 2450 2452 2409 2397 2379 2424 2355 2306 2388 2388 2383 2281 2445 2290 2404 2364 2360 2350 2323 2308 2357 2431 2421 2367 2428 2361 2312 2303 2322 2276 2370 2318 2303 2269 2402 2376 2352 2223 2348 2305 2268 2296 2307 2341 2241 2361 2213 2404 2293 2349 2331 2281 2366 2352 2318 2338 2317 2403 2328 2277 2291 2351 2338 2313 2325 2352 2372 2412 2348 2324 2326 2371 2378 2420 2353 2280 2366 2245 2340 2360 2379 2294 2243 2301 2268 2271 2296 2293 2341 2297 2295 2320 2159 2348 2266 2466 2228 2282 2285 2259 2259 2211 2284 2264 2178 2301 2181 2289 2230 2349 2267 2303 2244 2204 2221 2227 2182 2290 2171 2287 2232 2288 2161 2260 2235 2198 2253 2271 2322 2181 2311 2225 2242 2225 2240 2263 2180 2252 2252 2258 2183 2275 2207 2265 2272 2265 2230 2279 2266 2206 2189 2279 2364 2239 2225 2190 2182 2168 2207 2273 2249 2287 2246 2302 2211 2222 2228 2329 2205 2338 2206 2211 2243 2330 2237 2224 2237 2236 2250 2293 2246 2209 2183 2320 2210 2282 2291 2267 2298 2273 2191 2276 2257 2173 2196 2264 2194 2329 2281 2257 2293 2189 2290 2280 2274 2218 2329 2244 2318 2178 2314 2254 2237 2256 2266 2278 2200 2255 2261 2258 2211 2301 2197 2197 2188 2209 2270 2281 2269 2266 2150 2238 2258 2211 2119 2293 2175 2251 2196 2273 2240 2208 2272 2268 2227 2191 2229 2248 2217 2272 2245 2206 2192 2169 2154 2276 2228 2324 2268 2298 2283 2183 2271 2165 2218 2218 2252 2241 2230 2202 2277 2231 2255 2237 2187 2135 2290 2213 2239 2242 2163 2187 2117 2202 2108 2138 2166 2175 2234 2290 2215 2145 2162 2175 2218 2121 2178 2129 2243 2208 2157 2247 2097 2121 2116 2064 2140 2110 2157 2214 2231 2160 2165 2150 2176 2140 2137 2099 1955 2156 2065 2226 2115 2094 2121 2066 2028 2124 2093 2091 2126 2103 2055 2030 2032 2142 2063 2056 2022 2003 2005 2138 2043 2035 2087 1929 2021 2005 1964 2064 2028 2010 2084 1999 2032 2019 2041 2023 1980 2017 2062 1970 1960 2007 2000 2030 2007 1962 2002 1981 2082 2027 1978 2006 2002 1988 1935 1886 2001 1968 1922 1964 2032 1958 1989 2010 1918 1923 1996 1909 2043 1916 1941 1964 1891 1919 1964 1976 2009 2031 1970 1878 1938 1966 1911 1957 1957 1992 1977 1966 1918 1983 1970 1913 1907 1879 1951 1926 1955 1998 1951 1933 1957 1930 2001 1999 1933 1997 1961 2057 2054 2065 2046 1975 2143 2111 2130 2154 2214 2235 2334 2371 2411 2306 2478 2484 2539 2527 2573 2633 2668 2734 2538 2631 2595 2503 2606 2493 2517 2472 2394 2481 2369 2395 2314 2356 2391 2305 2252 2254 2288 2141 2191 2199 2074 2084 2045 2144 2130 1966 2069 1943 2060 2071 2071 2030 2038 1975 1964 1920 1944 2056 1905 1899 1974 1934 1937 1927 1880 1876 1872 1918 2026 1835 1855 1930 1873 1885 1915 1919 1820 1805 1813 1912 1792 1917 1845 1818 1908 1805 1862 1878 1900 1903 1911 1926 1971 1951 1940 1943 1997 2044 1978 1882 1870 1900 1980 1984 2026 1987 2013 2085 2138 2076 2200 2253 2295 2296 2259 2527 2639 2661 2582 2787 2878 2920 3134 3149 3328 3392 3502 3794 3739 3948 3999 4193 4308 4331 4380 4456 4486 4501 4357 4408 4225 4221 4074 4139 4017 3883 3856 3716 3743 3641 3692 3866 3676 3712 3773 3838 3759 3825 3803 3797 3854 3810 3751 3687 3651 3598 3507 3343 3242 3121 3046 2797 2841 2637 2589 2467 2376 2334 2330 2298 2252 2156 2161 2073 2050 2059 2055 2056 2106 2046 2024 1962 1946 1966 1927 1943 2023 1918 1935 1894 1854 1847 1836 1770 1789 1764 1817 1733 1718 1669 1695 1719 1665 1679 1705 1764 1692 1796 1719 1703 1711 1708 1682 1682 1645 1737 1634 1691 1684 1686 1672 1656 1732 1703 1706 1619 1714 1707 1629 1724 1674 1661 1652 1688 1721 1597 1711 1587 1738 1741 1614 1667 1703 1756 1679 1623 1620 1679 1700 1725 1607 1707 1673 1696 1646 1700 1668 1674 1730 1674 1623 1652 1636 1702 1708 1751 1690 1652 1662 1713 1635 1760 1691 1696 1664 1665 1619 1704 1720 1683 1740 1666 1779 1741 1701 1677 1753 1679 1698 1754 1714 1772 1783 1823 1777 1808 1912 1868 1895 1923 2095 1992 2128 2170 2128 2147 2441 2302 2407 2597 2611 2602 2677 2713 2767 2723 2713 2685 2606 2581 2603 2465 2420 2278 2308 2270 2228 2159 2114 2073 1973 2014 1910 1949 1899 1856 1901 1823 1788 1814 1814 1788 1800 1867 1740 1811 1843 1845 1756 1745 1758 1761 1774 1729 1705 1746 1678 1662 1627 1630 1777 1608 1678 1622 1659 1609 1660 1690 1589 1600 1742 1617 1662 1685 1625 1626 1696 1624 1674 1611 1633 1528 1541 1563 1571 1636 1677 1600 1648 1656 1598 1580 1670 1624 1643 1695 1531 1558 1612 1540 1571 1733 1618 1671 1631 1575 1571 1610 1592 1648 1571 1607 1643 1629 1612 1581 1634 1640 1549 1614 1596 1533 1611 1555 1633 1598 1606 1638 1611 1627 1588 1599 1599 1542 1564 1659 1609 1573 1618 1506 1615 1542 1469 1550 1625 1608 1634 1567 1599 1618 1633 1577 1628 1634 1663 1610 1578 1616 1615 1641 1597 1561 1600 1617 1583 1670 1628 1688 1580 1608 1669 1657 1647 1642 1631 1594 1693 1641 1606 1604 1630 1561 1622 1689 1582 1654 1661 1627 1661 1758 1626 1662 1714 1605 1725 1643 1610 1732 1762 1724 1755 1740 1645 1766 1695 1773 1718 1771 1805 1821 1793 1770 1806 1867 1768 1824 1901 1843 1848 1894 1928 1920 1934 1949 1994 2022 2097 2147 2159 2182 2176 2288 2261 2471 2501 2499 2536 2756 2795 2810 2964 2994 3042 3200 3307 3428 3526 3726 3985 4266 4339 4753 4991 5056 5500 5670 6026 6342 6514 6711 6844 6866 7190 7108 7143 7077 6995 6881 6582 6512 6390 6136 6026 5905 5661 5436 5186 5167 5204 4925 4861 4773 4877 4794 4638 4625 4552 4633 4291 4313 4150 4033 4030 3769 3599 3680 3515 3267 3227 3104 2924 2831 2667 2570 2611 2507 2432 2337 2315 2197 2164 2198 2061 2003 2033 1977 1861 1879 1826 1871 1840 1826 1777 1755 1727 1788 1753 1741 1773 1681 1685 1689 1632 1673 1565 1697 1689 1572 1639 1572 1631 1532 1559 1537 1717 1562 1630 1582 1540 1609 1606 1518 1518 1511 1604 1631 1465 1571 1575 1601 1501 1534 1538 1567 1558 1495 1573 1553 1604 1487 1524 1519 1562 1553 1570 1601 1563 1507 1558 1545 1546 1626 1534 1573 1575 1536 1543 1535 1548 1526 1513 1435 1473 1533 1552 1515 1513 1495 1476 1520 1403 1508 1498 1492 1523 1561 1461 1487 1492 1522 1493 1502 1573 1431 1467 1478 1507 1530 1470 1540 1440 1554 1541 1505 1523 1461 1515 1394 1528 1464 1481 1499 1430 1476 1518 1452 1444 1436 1515 1482 1488 1424 1461 1460 1526 1430 1486 1476 1450 1454 1495 1463 1462 1460 1426 1518 1427 1454 1466 1517 1453 1458 1530 1456 1552 1491 1407 1436 1538 1398 1501 1386 1533 1406 1401 1463 1453 1402 1447 1418 1489 1452 1433 1490 1414 1370 1498 1415 1488 1467 1484 1448 1489 1481 1464 1425 1493 1534 1423 1428 1439 1392 1470 1437 1418 1427 1398 1460 1446 1422 1422 1524 1478 1447 1401 1439 1478 1467 1406 1437 1440 1415 1433 1346 1471 1436 1408 1464 1410 1461 1478 1439 1457 1446 1393 1404 1466 1371 1424 1434 1413 1451 1411 1440 1478 1377 1481 1457 1488 1475 1465 1461 1548 1432 1472 1532 1464 1426 1513 1498 1498 1470 1483 1468 1494 1502 1444 1533 1462 1433 1449 1518 1515 1529 1390 1478 1454 1420 1425 1431 1445 1500 1503 1437 1443 1445 1494 1512 1388 1439 1359 1498 1389 1467 1556 1430 1402 1382 1433 1355 1444 1405 1434 1400 1442 1439 1379 1461 1365 1428 1343 1358 1377 1392 1311 1327 1431 1380 1365 1405 1349 1428 1463 1366 1372 1426 1371 1417 1311 1328 1319 1419 1400 1415 1369 1394 1428 1355 1396 1369 1352 1412 1459 1458 1348 1409 1419 1393 1347 1390 1387 1463 1413 1344 1398 1360 1391 1366 1354 1323 1363 1380 1356 1447 1328 1473 1465 1392 1413 1433 1425 1416 1411 1398 1359 1427 1380 1465 1399 1433 1411 1381 1436 1414 1430 1422 1430 1428 1432 1393 1393 1367 1395 1414 1358 1439 1404 1359 1403 1445 1338 1396 1363 1412 1374 1386 1358 1367 1380 1350 1383 1390 1371 1353 1341 1464 1361 1424 1426 1304 1425 1429 1394 1356 1381 1411 1380 1343 1421 1363 1399 1345 1362 1370 1352 1405 1380 1466 1368 1402 1360 1461 1397 1384 1374 1341 1392 1327 1366 1340 1390 1332 1347 1395 1315 1375 1327 1365 1396 1366 1435 1411 1311 1337 1342 1381 1355 1419 1353 1355 1393 1396 1410 1342 1369 1325 1414 1367 1279 1398 1360 1338 1346 1318 1377 1308 1292 1379 1389 1352 1373 1353 1330 1333 1340 1335 1405 1298 1380 1349 1390 1362 1383 1339 1374 1358 1371 1355 1304 1316 1388 1366 1427 1356 1335 1392 1314 1380 1346 1384 1374 1380 1358 1389 1379 1314 1350 1296 1373 1311 1386 1284 1352 1341 1377 1453 1312 1332 1421 1433 1428 1384 1324 1390 1369 1340 1415 1396 1384 1346 1382 1377 1408 1380 1453 1407 1380 1362 1370 1397 1407 1354 1406 1351 1413 1316 1384 1364 1360 1390 1406 1385 1406 1404 1393 1446 1346 1412 1352 1387 1483 1397 1443 1404 1480 1527 1432 1511 1471 1445 1489 1495 1563 1588 1615 1607 1725 1702 1697 1805 1721 1796 1886 1903 1906 1909 1906 2021 1941 2010 1919 1931 1873 1916 1889 1916 1850 1862 1794 1796 1714 1658 1607 1624 1581 1545 1636 1529 1533 1545 1522 1522 1517 1467 1503 1471 1501 1488 1463 1463 1436 1465 1495 1459 1445 1487 1419 1361 1328 1459 1360 1454 1394 1358 1397 1350 1342 1376 1304 1340 1307 1346 1336 1350 1327 1429 1298 1353 1384 1273 1368 1324 1346 1327 1337 1303 1332 1355 1412 1272 1328 1368 1336 1394 1348 1327 1319 1327 1341 1415 1402 1350 1314 1305 1321 1211 1404 1366 1359 1298 1306 1224 1389 1304 1288 1302 1303 1342 1314 1314 1351 1359 1353 1387 1304 1320 1335 1250 1377 1250 1317 1277 1371 1360 1331 1362 1326 1397 1378 1317 1339 1325 1361 1337 1411 1348 1362 1335 1318 1324 1384 1316 1316 1396 1347 1390 1371 1352 1340 1358 1328 1366 1323 1341 1308 1301 1319 1317 1351 1330 1285 1320 1286 1285 1420 1313 1333 1332 1303 1286 1273 1339 1299 1337 1317 1302 1322 1369 1272 1295 1311 1293 1335 1311 1332 1295 1325 1346 1315 1377 1318 1347 1319 1292 1375 1310 1341 1235 1372 1251 1326 1298 1323 1326 1371 1337 1357 1361 1413 1344 1341 1304 1393 1298 1307 1317 1353 1317 1287 1349 1323 1289 1402 1320 1254 1341 1278 1414 1339 1333 1285 1376 1334 1327 1279 1337 1358 1338 1301 1368 1404 1330 1270 1222 1308 1304 1319 1322 1349 1325 1280 1311 1272 1368 1275 1366 1337 1267 1318 1377 1365 1311 1276 1339 1352 1313 1345 1283 1325 1303 1372 1339 1363 1322 1301 1314 1459 1365 1287 1354 1339 1324 1340 1348 1356 1364 1347 1346 1325 1424 1291 1350 1359 1380 1296 1340 1322 1352 1342 1359 1380 1391 1302 1344 1332 1305 1313 1269 1394 1310 1323 1330 1291 1342 1316 1332 1410 1347 1327 1396 1359 1252 1335 1385 1325 1431 1311 1395 1411 1435 1358 1354 1394 1437 1403 1351 1401 1366 1376 1466 1460 1412 1468 1491 1478 1459 1546 1454 1640 1593 1622 1638 1630 1725 1780 1748 1741 1767 1770 1739 1865 1854 1844 1760 1814 1776 1751 1784 1676 1782 1715 1695 1668 1675 1599 1621 1532 1618 1598 1594 1576 1564 1540 1562 1472 1488 1556 1553 1470 1430 1502 1447 1539 1485 1550 1458 1454 1478 1452 1492 1434 1490 1434 1425 1448 1479 1474 1354 1371 1348 1431 1408 1420 1385 1379 1345 1353 1336 1290 1347 1345 1329 1359 1321 1344 1394 1277 1375 1341 1340 1293 1330 1337 1244 1352 1358 1321 1267 1260 1303 1374 1295 1296 1357 1373 1333 1312 1273 1228 1343 1249 1279 1251 1229 1328 1360 1347 1299 1311 1251 1315 1282 1279 1278 1300 1287 1345 1305 1310 1267 1288 1275 1219 1322 1316 1314 1324 1302 1262 1336 1283 1274 1261 1317 1306 1336 1258 1260 1280 1285 1302 1252 1226 1304 1291 1286 1264 1333 1261 1246 1213 1376 1263 1358 1289 1321 1267 1227 1324 1317 1308 1246 1249 1237 1289 1277 1330 1320 1228 1291 1280 1188 1258 1217 1178 1256 1287 1245 1272 1244 1244 1239 1267 1261 1329 1260 1276 1278 1289 1196 1318 1306 1243 1279 1240 1304 1254 1304 1232 1291 1299 1261 1273 1314 1290 1284 1274 1251 1274 1243 1319 1248 1308 1270 1272 1303 1307 1296 1310 1291 1288 1203 1320 1290 1348 1300 1293 1271 1312 1320 1306 1331 1290 1303 1313 1269 1189 1256 1267 1289 1199 1288 1307 1285 1254 1331 1404 1264 1322 1353 1315 1365 1317 1287 1352 1297 1320 1332 1318 1315 1332 1350 1360 1282 1351 1291 1253 1331 1343 1345 1364 1311 1352 1356 1341 1318 1312 1312 1292 1357 1348 1319 1308 1352 1245 1361 1262 1318 1248 1339 1314 1320 1302 1263 1340 1248 1313 1314 1337 1314 1261 1280 1357 1279 1359 1360 1330 1371 1325 1386 1374 1345 1319 1286 1373 1390 1339 1317 1343 1415 1305 1362 1305 1311 1381 1358 1339 1362 1357 1294 1350 1403 1353 1350 1331 1363 1359 1342 1399 1323 1390 1391 1407 1353 1386 1417 1449 1377 1437 1427 1459 1435 1421 1423 1516 1502 1481 1512 1425 1594 1548 1544 1521 1656 1568 1525 1621 1631 1721 1630 1627 1823 1743 1830 1857 1899 1912 2056 2100 2126 2200 2312 2289 2418 2503 2498 2503 2692 2692 2952 2931 3095 3253 3367 3336 3596 3507 3712 3797 3880 4046 3971 3990 4015 3925 3885 3870 3988 3926 3727 3806 3802 3779 3657 3617 3485 3351 3280 3189 3155 3145 2974 2913 2829 2922 2764 2744 2688 2662 2619 2574 2552 2591 2415 2496 2461 2551 2439 2484 2518 2360 2327 2357 2327 2174 2136 2151 2074 2089 2015 1997 1987 1876 1894 1843 1771 1816 1590 1617 1650 1632 1566 1573 1571 1523 1532 1566 1465 1526 1463 1477 1455 1475 1407 1459 1357 1409 1435 1376 1404 1388 1389 1390 1381 1371 1322 1436 1337 1361 1266 1402 1310 1316 1323 1329 1364 1328 1362 1265 1343 1300 1346 1353 1353 1293 1414 1283 1291 1269 1346 1375 1292 1259 1318 1331 1333 1277 1298 1323 1338 1304 1264 1324 1241 1278 1319 1221 1330 1286 1268 1244 1292 1269 1359 1270 1259 1238 1288 1195 1300 1301 1281 1307 1290 1296 1304 1300 1262 1251 1218 1303 1282 1213 1255 1235 1315 1304 1316 1265 1274 1304 1300 1287 1228 1275 1271 1289 1263 1240 1263 1287 1263 1295 1251 1258 1278 1276 1265 1281 1311 1302 1288 1264 1257 1262 1268 1261 1266 1343 1326 1308 1288 1326 1310 1324 1338 1362 1290 1280 1311 1249 1323 1324 1366 1328 1339 1416 1340 1318 1328 1430 1398 1404 1399 1434 1417 1482 1512 1515 1406 1519 1445 1617 1561 1455 1537 1560 1495 1503 1561 1619 1566 1485 1515 1539 1376 1503 1503 1523 1520 1456 1482 1437 1482 1414 1506 1480 1465 1482 1387 1408 1352 1431 1407 1394 1351 1389 1328 1353 1370 1291 1375 1339 1399 1369 1391 1388 1366 1311 1350 1378 1304 1352 1289 1293 1337 1317 1276 1350 1322 1240 1326 1268 1268 1230 1274 1317 1235 1302 1392 1288 1252 1183 1276 1244 1245 1285 1269 1213 1263 1252 1206 1185 1279 1204 1240 1263 1273 1255 1262 1230 1199 1254 1265 1278 1245 1316 1240 1270 1243 1206 1213 1250 1262 1195 1169 1206 1280 1251 1242 1260 1241 1253 1268 1237 1246 1229 1271 1306 1250 1261 1233 1251 1224 1271 1290 1241 1209 1233 1295 1267 1239 1156 1268 1257 1208 1210 1240 1248 1242 1201 1252 1174 1213 1180 1242 1240 1258 1243 1202 1221 1215 1284 1229 1303 1286 1226 1222 1226 1214 1223 1166 1205 1224 1235 1189 1231 1204 1130 1238 1323 1230 1257 1140 1260 1224 1270 1202 1226 1218 1299 1231 1212 1187 1203 1176 1234 1219 1176 1235 1236 1281 1197 1213 1240 1205 1208 1296 1188 1242 1291 1257 1255 1255 1269 1224 1259 1257 1310 1248 1293 1259 1247 1292 1290 1329 1257 1297 1358 1351 1369 1260 1348 1277 1445 1374 1431 1402 1466 1414 1457 1531 1499 1561 1475 1476 1459 1545 1462 1527 1484 1471 1449 1464 1441 1434 1422 1380 1416 1421 1401 1382 1369 1296 1381 1356 1294 1326 1276 1310 1321 1310 1327 1252 1248 1273 1187 1278 1260 1226 1251 1204 1189 1262 1243 1191 1192 1246 1169 1258 1240 1250 1278 1235 1267 1184 1175 1227 1168 1251 1215 1221 1194 1215 1218 1231 1191 1216 1252 1241 1184 1209 1199 1237 1187 1135 1202 1212 1193 1169 1170 1222 1168 1109 1173 1190 1202 1225 1137 1216 1118 1197 1176 1189 1162 1203 1232 1233 1223 1221 1194 1207 1250 1173 1219 1208 1194 1198 1179 1157 1151 1212 1160 1135 1273 1152 1163 1098 1151 1178 1161 1202 1195 1185 1153 1185 1166 1203 1160 1197 1137 1188 1198 1183 1179 1151 1180 1254 1161 1217 1201 1180 1141 1131 1090 1171 1211 1172 1189 1168 1240 1162 1151 1231 1171 1177 1274 1187 1162 1170 1167 1155 1250 1180 1297 1152 1186 1158 1165 1167 1132 1227 1109 1149 1122 1127 1243 1148 1280 1158 1142 1210 1176 1194 1209 1138 1168 1188 1236 1168 1145 1183 1192 1215 1201 1206 1141 1145 1146 1202 1184 1168 1151 1192 1151 1141 1172 1115 1123 1178 1161 1146 1130 1185 1205 1230 1204 1162 1122 1139 1185 1232 1203 1187 1232 1202 1140 1173 1091 1141 1131 1144 1168 1168 1099 1206 1156 1213 1164 1155 1198 1156 1183 1165 1149 1191 1129 1163 1184 1195 1212 1180 1233 1211 1186 1194 1200 1172 1138 1145 1143 1221 1178 1158 1161 1128 1152 1135 1186 1135 1211 1182 1109 1143 1169 1199 1212 1211 1074 1206 1138 1237 1132 1187 1144 1175 1197 1185 1186 1165 1256 1183 1174 1199 1116 1118 1167 1161 1129 1257 1188 1195 1217 1187 1185 1105 1158 1165 1231 1187 1194 1232 1156 1150 1186 1135 1152 1229 1134 1125 1223 1149 1239 1163 1128 1140 1169 1162 1186 1184 1165 1141 1224 1188 1207 1234 1220 1296 1186 1212 1185 1212 1145 1224 1148 1271 1228 1195 1267 1202 1247 1253 1244 1231 1284 1168 1292 1209 1209 1269 1224 1242 1245 1215 1235 1250 1208 1345 1283 1260 1239 1203 1294 1197 1261 1232 1238 1212 1275 1243 1277 1225 1254 1335 1276 1360 1328 1329 1283 1393 1257 1336 1311 1363 1392 1438 1360 1410 1417 1406 1358 1443 1405 1472 1490 1525 1465 1469 1514 1517 1513 1508 1501 1486 1580 1486 1565 1505 1543 1569 1487 1561 1474 1510 1455 1497 1385 1468 1507 1419 1500 1430 1458 1408 1445 1417 1509 1450 1415 1386 1368 1366 1325 1386 1264 1355 1350 1357 1402 1410 1409 1388 1397 1389 1360 1367 1356 1365 1355 1271 1367 1350 1371 1403 1393 1326 1299 1363 1308 1267 1412 1224 1303 1332 1321 1310 1302 1334 1247 1230 1264 1207 1201 1225 1279 1226 1214 1255 1251 1264 1218 1189 1220 1278 1198 1220 1173 1261 1227 1328 1223 1259 1208 1272 1239 1214 1194 1172 1221 1202 1194 1261 1283 1226 1197 1223 1206 1223 1244 1262 1224 1268 1236 1267 1277 1190 1178 1204 1173 1250 1212 1248 1191 1135 1215 1196 1172 1186 1190 1186 1235 1183 1247 1189 1236 1246 1216 1107 1199 1191 1169 1137 1129 1128 1159 1258 1210 1212 1211 1229 1171 1184 1168 1180 1285 1179 1165 1214 1201 1255 1142 1213 1194 1161 1229 1190 1186 1213 1177 1150 1200 1139 1170 1163 1177 1181 1185 1108 1211 1165 1244 1177 1188 1158 1137 1205 1252 1190 1195 1158 1139 1169 1163 1180 1158 1178 1135 1168 1155 1252 1174 1186 1172 1146 1246 1200 1178 1172 1201 1148 1174 1169 1140 1160 1174 1126 1261 1197 1214 1182 1151 1200 1223 1206 1210 1281 1235 1169 1241 1204 1243 1199 1246 1209 1192 1299 1257 1270 1292 1344 1298 1284 1295 1338 1336 1391 1342 1423 1330 1357 1397 1412 1381 1444 1455 1412 1442 1463 1593 1522 1584 1541 1590 1653 1638 1665 1710 1764 1696 1822 1598 1715 1771 1680 1743 1691 1740 1741 1680 1713 1708 1655 1693 1668 1654 1616 1568 1559 1633 1587 1519 1543 1591 1539 1518 1471 1510 1508 1473 1436 1436 1472 1380 1453 1398 1389 1400 1452 1355 1410 1429 1415 1397 1437 1406 1492 1451 1433 1328 1412 1432 1400 1355 1429 1424 1496 1463 1400 1418 1527 1495 1552 1559 1410 1524 1550 1530 1431 1369 1365 1394 1400 1374 1304 1366 1350 1294 1367 1323 1354 1290 1351 1316 1304 1295 1227 1256 1194 1300 1276 1261 1216 1200 1179 1158 1192 1206 1199 1221 1204 1183 1231 1184 1212 1215 1166 1221 1109 1174 1119 1173 1214 1176 1126 1173 1135 1109 1145 1142 1195 1145 1141 1135 1224 1126 1157 1103 1067 1123 1166 1157 1119 1184 1171 1177 1130 1173 1218 1165 1200 1167 1163 1193 1123 1118 1152 1165 1164 1150 1160 1134 1124 1121 1177 1155 1159 1144 1132 1085 1191 1175 1084 1175 1157 1127 1174 1146 1212 1151 1199 1173 1144 1112 1117 1172 1116 1182 1206 1217 1145 1221 1161 1184 1214 1220 1213 1181 1235 1179 1258 1242 1200 1233 1269 1315 1253 1341 1176 1268 1256 1278 1316 1285 1271 1202 1272 1227 1239 1269 1276 1238 1249 1211 1253 1243 1239 1248 1217 1228 1235 1200 1167 1202 1209 1207 1184 1224 1179 1119 1166 1180 1226 1178 1210 1201 1181 1143 1130 1180 1087 1137 1224 1150 1191 1081 1105 1102 1140 1158 1158 1186 1179 1171 1151 1105 1127 1178 1137 1122 1108 1184 1196 1138 1098 1133 1133 1126 1159 1122 1104 1187 1115 1128 1067 1157 1134 1101 1131 1111 1119 1103 1178 1157 1151 1129 1105 1200 1135 1157 1121 1138 1093 1140 1084 1106 1080 1173 1049 1175 1120 1131 1084 1142 1099 1144 1154 1090 1128 1161 1108 1083 1094 1141 1123 1128 1066 1056 1118 1172 1041 1164 1121 1132 1093 1169 1068 1112 1156 1138 1069 1124 1095 1136 1069 1092 1084 1109 1079 1156 1067 1089 1074 1098 1101 1086 1125 1113 1132 1083 1070 1106 1039 1111 1101 1083 1094 1092 1022 1153 1090 1110 1050 1083 1061 1099 1076 1101 1120 1117 1072 1146 1131 1077 1165 1129 1083 1071 1134 1076 1077 1073 1061 1090 1103 1094 1072 1102 1142 1038 1135 1083 1060 1116 1113 1068 1142 1068 1120 1047 1158 1071 1130 1175 1099 1077 1132 1100 1090 1110 1090 1167 1122 1031 1058 1126 1128 1116 1143 1142 1082 1081 1160 1137 1117 1072 1106 1173 1184 1138 1174 1106 1078 1151 1104 1178 1161 1096 1112 1147 1070 1109 1124 1159 1115 1241 1101 1100 1044 1061 1109 1114 1063 1139 1168 1130 1143 1126 1133 1043 1130 1137 1058 1062 1130 1086 1102 1046 1059 1075 1098 1089 1044 1133 1105 1087 1114 1055 1189 1143 1113 1129 1082 1069 1118 1124 1089 1074 1080 1072 1090 1078 1092 1113 1124 1095 1115 1142 1139 1053 1076 1148 1139 1079 1016 1181 1127 1101 1032 1095 1144 1102 1144 1071 1101 1112 1077 1116 1051 1129 1137 1088 1070 1153 1080 1103 1088 1061 1116 1124 1046 1112 1101 1112 1103 1039 1140 1042 1081 1093 1073 1103 1135 1144 1144 1080 1065 1045 1062 1065 1041 1129 1108 1060 1072 1078 1127 1073 1146 1111 1126 1142 1116 1113 1081 1098 1083 1165 1098 1108 1120 1105 1106 1119 1118 1021 1141 1097 1086 1001 1048 1083 1105 1058 1075 1077 1052 1120 1051 1101 1128 1050 1047 1108 1060 1101 1084 1102 1076 1076 1106 1135 1149 1066 1083 1110 1026 1057 1117 1097 1053 1096 1026 1113 1103 1116 1072 1089 1069 1132 1115 1108 1081 1042 1110 1153 1073 1086 1120 1073 1081 1149 1096 1079 1113 1088 1082 1101 1076 1113 1059 1089 1132 1077 1076 1059 1035 1077 1124 1124 1089 1101 1060 1051 1109 1092 1009 1026 1108 1065 1137 1116 1128 1112 1033 1071 1088 1095 1123 1145 1127 1109 1115 1037 1073 1194 1061 1112 1076 1096 1055 1076 1129 1111 1075 1082 1190 1097 1114 1154 1068 1140 1206 1171 1083 1172 1122 1070 1185 1154 1212 1136 1165 1155 1184 1127 1169 1118 1160 1194 1193 1116 1086 1177 1138 1110 1181 1086 1083 1152 1153 1182 1155 1119 1122 1130 1133 1124 1169 1098 1122 1150 1156 1098 1107 1148 1174 1135 1077 1091 1112 1063 1077 1135 1104 1133 1115 1118 1120 1126 1139 1063 1100 1093 1084 1108 1096 1113 1117 1092 1148 1105 1100 1088 1069 1150 1030 1092 1125 1125 1067 1113 1082 1123 1128 1059 1070 1049 1128 1050 1060 1087 1081 1104 1086 1114 1051 1067 1057 1131 1085 1110 1062 1006 999 1065 1089 1067 1116 1062 1091 1164 1055 1088 1100 1110 1086 1096 1036 1078 1054 1048 1061 1137 1045 1059 1018 1056 1094 1078 1044 1096 1028 1123 1014 1114 1037 1073 1039 1068 1091 1092 1117 1034 1099 1080 1083 1045 1143 1101 1107 1083 1043 1107 1083 1017 1085 1031 1110 1085 1062 1102 1059 1017 1092 1136 1077 1137 1042 1048 1089 1004 1060 1090 1070 1088 1058 1045 1025 1045 1099 1073 1038 1110 1106 1054 1075 1060 1086 996 1037 1058 1047 1068 1025 1095 1026 1083 1091 1019 1011 1071 1091 1089 1053 1082 1049 1068 1115 1091 1047 1073 1067 1094 1066 1115 1065 1027 1098 1103 1041 1059 1063 1059 1017 1147 1081 1092 1126 1091 1114 1086 1050 1053 1168 1062 1078 1150 1084 1064 1097 1089 1109 1013 1067 1118 1054 1040 1134 1024 1077 1132 1128 1074 1062 1095 1093 1130 1057 1073 1068 1073 1058 1067 1110 1012 1016 1061 1051 1090 1110 1082 1158 1090 1111 1115 1147 1098 1136 1176 1115 1102 1087 1111 1172 1075 1132 1129 1143 1135 1116 1185 1172 1160 1149 1122 1129 1137 1181 1097 1189 1162 1170 1164 1176 1182 1199 1197 1209 1236 1215 1226 1244 1249 1254 1201 1198 1214 1262 1188 1270 1219 1246 1307 1246 1311 1272 1281 1212 1251 1306 1276 1242 1168 1233 1237 1181 1236 1238 1230 1131 1219 1184 1297 1186 1260 1259 1175 1181 1170 1218 1160 1135 1147 1168 1264 1200 1195 1130 1137 1158 1137 1166 1053 1140 1180 1159 1109 1194 1100 1151 1107 1189 1185 1162 1145 1082 1147 1126 1116 1179 1166 1115 1140 1141 1135 1101 1128 1114 1153 1131 1119 1100 1117 1117 1152 1058 1105 1073 1091 1096 1078 1085 1114 1103 1047 1041 1107 1060 1126 1067 1111 1103 1063 1075 1101 1106 1064 1109 1127 1064 1122 1069 1053 1074 1061 1086 1128 1023 1067 1091 1074 1097 1078 1046 1056 1089 1038 1040 1123 1161 1016 1139 1033 1089 1054 1028 1036 1049 1054 1098 1035 1035 1082 1073 1109 1101 1044 1056 1106 1060 1041 1080 1007 1083 1080 1064 1041 1033 1070 1032 1049 1071 1050 1020 1038 1019 1029 1053 1110 1024 1054 994 1047 1031 1058 1062 1051 1108 1095 1053 1051 1017 1096 1088 1020 1042 1048 1065 1053 1071 987 1027 1071 1044 1104 1112 1105 1073 1046 1048 1085 1032 1089 1082 1046 1035 1051 973 1030 1081 1079 1046 1075 1031 1015 1077 1064 1045 1107 1093 1043 1083 1041 1066 1047 1064 999 1094 1038 1097 1078 1032 1109 1081 1087 1048 1081 1017 1011 1089 999 1080 1073 1076 1040 1071 1054 1066 1009 1052 1074 983 1082 997 1048 1054 1114 1021 1026 1070 1000 1001 1102 1019 1083 1064 1073 1019 1057 1054 1045 1012 1036 1087 1092 1136 1114 1066 1067 1019 1073 1027 1051 1070 1072 1055 1080 1019 1060 1060 1124 1051 1051 1039 1043 1066 1025 1031 1066 1064 1128 1033 1074 1026 1074 1059 1085 1029 1011 1050 1062 949 1071 1071 1074 1067 1041 1055 1072 1097 1086 1090 1062 1079 985 1078 1050 1068 1119 1095 1075 989 1110 1076 1004 1091 1040 1064 1035 1095 1134 1050 1102 1062 1026 1028 999 1095 1083 1050 1062 1023 1060 1094 996 1092 1065 1034 1090 1091 1113 1100 1128 1058 1055 1108 1064 1070 1015 1137 1131 1059 1086 1072 1045 1074 1076 1051 1086 1023 1113 1096 1124 1098 1093 1132 1048 1099 1144 1059 1061 1043 1076 1034 1092 1050 1018 1004 1091 1004 1036 1146 1072 1052 1095 1039 1046 1020 1071 1056 1078 1064 1042 1057 1048 1116 1086 1084 1077 1047 1081 1067 984 1050 1081 1038 1017 1098 1010 992 1035 1066 1090 1073 1056 1092 1046 1115 1069 1085 1046 1080 1080 1061 1011 1079 1047 1115 1114 1079 1016 1031 969 1020 1070 1023 1035 1054 1053 1058 1067 987 1023 1063 1040 1035 1043 1102 1105 1039 1052 1059 1057 1049 1116 1073 1100 1012 1003 1007 1039 1082 1035 1072 1050 1028 1049 1006 1104 1099 1046 1121 1106 1036 1066 1024 992 1076 1056 1083 1080 1074 1053 1055 1103 1104 1002 1031 1049 1040 1061 1046 1049 1088 1046 1043 1057 1029 1103 1090 1020 1100 1051 996 1079 1044 1109 1079 1018 1101 1072 1089 1105 1093 1029 1088 1013 1020 1019 1096 1063 1009 1037 1021 1068 1069 1082 1113 1092 1089 1019 1052 1111 1069 1093 1062 1043 1042 1079 1060 1070 1040 1069 1058 1014 1081 1091 1058 1000 1097 1074 1055 1048 1039 1017 1056 1058 1078 1049 1061 1090 1051 1077 1073 1057 1133 1047 1053 1064 1039 1096 1030 1057 1037 1090 1041 1047 1047 1086 1022 1066 1073 1060 1092 1084 1038 1034 1099 1055 1082 1059 1080 1031 1053 1011 1056 1034 1049 1097 1088 1100 1070 1122 1036 1067 1064 1036 1115 1119 1096 1092 1060 1026 1086 1024 1090 1130 1051 1114 1103 1040 1081 1080 1069 1053 1106 1155 1070 1097 1125 1111 1082 1142 1134 1098 1097 1078 1123 1038 1162 1092 1141 1047 1130 1099 1129 1119 1114 1152 1108 1102 1100 1092 1113 1097 1086 1082 1097 1153 1084 1158 1159 1102 1151 1124 1126 1119 1133 1173 1139 1149 1152 1131 1159 1091 1178 1106 1174 1123 1095 1140 1149 1120 1097 1186 1171 1158 1108 1151 1151 1129 1170 1116 1173 1161 1154 1114 1166 1084 1181 1130 1170 1121 1116 1147 1105 1176 1157 1153 1121 1168 1123 1126 1162 1118 1115 1111 1113 1134 1183 1213 1133 1130 1092 1112 1204 1167 1105 1130 1078 1119 1123 1148 1136 1187 1119 1151 1122 1146 1100 1155 1146 1164 1114 1134 1191 1032 1116 1138 1109 1139 1130 1141 1186 1175 1129 1089 1070 1122 1115 1076 1176 1141 1160 1145 1143 1122 1147 1163 1057 1176 1143 1175 1183 1130 1104 1161 1171 1147 1176 1136 1116 1183 1109 1156 1162 1095 1111 1148 1178 1117 1145 1114 1153 1143 1080 1117 1107 1104 1132 1146 1113 1220 1097 1056 1072 1126 1096 1145 1147 1115 1139 1102 1132 1133 1027 1117 1086 1038 1149 1110 1086 1128 1122 1147 1092 1145 1122 1083 1112 1087 1095 1116 1088 1145 1141 1050 1085 1070 1108 1109 1107 1124 1070 1053 1090 1070 1108 1071 1093 1083 1077 1005 1130 1116 1086 1053 1086 1032 1104 1101 1118 1031 1071 1074 1139 1090 1095 1072 1120 1170 1118 1136 1128 1098 1120 1069 1047 1095 1098 1111 1138 1176 1187 1144 1121 1115 1057 1141 1131 1114 1135 1142 1138 1115 1104 1093 1159 1164 1151 1174 1203 1140 1135 1149 1267 1234 1143 1154 1255 1248 1261 1202 1227 1245 1233 1214 1248 1213 1224 1293 1326 1313 1305 1264 1334 1351 1351 1325 1371 1384 1420 1405 1428 1502 1420 1353 1414 1408 1465 1428 1379 1461 1494 1449 1420 1501 1388 1440 1437 1536 1463 1462 1455 1428 1425 1455 1404 1367 1468 1439 1371 1397 1422 1351 1411 1381 1393 1329 1381 1441 1350 1356 1337 1433 1281 1364 1352 1383 1317 1378 1328 1310 1380 1315 1393 1348 1366 1276 1299 1240 1270 1247 1323 1327 1283 1355 1252 1283 1230 1282 1295 1241 1282 1235 1261 1285 1253 1292 1206 1241 1207 1205 1191 1287 1248 1216 1217 1252 1252 1249 1230 1240 1244 1283 1226 1193 1176 1142 1228 1177 1223 1175 1225 1169 1160 1214 1140 1139 1147 1162 1096 1096 1166 1178 1150 1133 1104 1192 1169 1139 1132 1114 1131 1158 1154 1044 1113 1077 1087 1100 1149 1075 1113 1109 1081 1151 1088 1063 1140 1126 1085 1066 1097 1080 1060 1085 1052 1091 1087 1069 1091 1067 1098 1116 1107 1107 1022 1028 1087 1101 1116 1076 1123 1118 1176 1135 1077 1121 1099 1081 1098 1123 1115 1101 1110 1099 1101 1120 1103 1118 1084 1082 1111 1141 1060 1085 1151 1085 1042 1133 1147 1111 1116 1092 1089 1100 1102 1079 1125 1060 1057 1122 1057 1100 1077 1061 1101 1125 1113 1148 1139 1071 1104 1087 1060 1132 1113 1092 1107 1056 1051 1096 1085 1061 1051 1130 1085 1088 1077 1063 1059 1064 1073 1100 1072 1097 1084 1132 1081 1069 1092 1106 1062 1061 1039 1120 1117 1063 1085 1051 1007 1102 1048 1014 1105 1124 1079 1040 1093 1054 1052 998 1037 1051 1027 1128 1109 1115 1144 1073 1101 1035 1067 1079 1076 1144 1047 1083 1026 1055 1044 1080 1056 1040 1071 1113 1100 1058 1088 1106 1063 1003 1015 1096 1072 1119 1069 1043 987 1090 1063 1101 1100 1096 1023 1054 1072 1105 1069 1021 1057 1043 1101 996 1075 1074 1054 1009 1077 1104 1061 1021 1065 996 990 1020 1009 1067 1039 1084 1022 1118 1047 1074 1045 1085 999 987 1048 1138 1025 1050 1060 1073 1042 1036 1069 1071 1040 1106 1044 1061 1092 1104 1020 1093 1042 1057 1017 1062 1047 1050 1031 1056 1035 1030 1063 1023 1090 1045 1061 1105 1045 1078 1116 1134 1086 1074 1100 1092 1147 1067 1071 1074 1087 1072 1035 1120 1068 1108 1072 1133 1081 1104 1128 1139 1064 1138 1086 1066 1092 1068 1005 1099 1093 1117 1056 1141 1114 1073 1120 1068 1076 1115 1077 1076 1038 1160 1128 1066 1123 1139 1088 1083 1163 1123 1130 1082 1127 1179 1097 1092 1033 1124 1085 1076 1103 1070 1058 1061 1128 1095 1099 1102 1115 1057 1097 1087 1110 1083 1072 1064 1045 1011 1029 1084 1084 1104 1062 1084 1062 1105 1051 1036 1052 1054 1079 1050 1008 1048 1041 1083 1059 1064 1040 1082 1083 1081 998 1049 1054 1052 1035 1076 1044 1061 1094 1070 1016 1020 1076 1087 1015 1047 1039 1039 1103 1118 1095 1082 1061 1057 1067 1055 1071 1073 1034 1013 1023 1096 1042 1049 1073 1042 1006 1075 1095 1068 1010 1079 1019 1073 1051 1044 1072 1036 1056 1059 1049 1086 1074 1076 1013 1106 1063 1077 1101 1059 1008 1054 1016 1089 1070 1093 1034 1003 977 953 1090 1056 1078 1031 1060 1093 1074 1104 1016 1036 1100 1066 1121 1119 1043 1053 1053 990 1129 1063 1032 1056 1026 996 1001 1009 1033 1005 1018 1019 1028 1076 1004 1051 1041 1142 1001 1102 1063 1037 1016 1122 1043 1067 1067 1057 1091 1041 975 1059 1061 1137 1049 1115 1005 1057 1005 994 1101 1023 1071 1023 973 1072 1074 1040 966 1041 1082 1069 1032 1019 1055 1017 1109 1033 1067 1073 1050 997 1076 1088 1058 1040 1106 1077 1035 1066 1119 1054 1114 1071 1069 1027 1062 1105 1086 1072 1079 1042 1082 1095 1109 1033 1114 1083 1110 1075 1028 1072 1094 1083 1068 1085 1165 986 1047 1017 1115 1118 1090 1054 1110 1057 1064 1008 1051 1073 1048 1042 1103 1062 1028 1106 1072 1114 1092 1077 1078 1022 1082 1036 1094 1098 1072 1119 1082 1036 1047 1099 1105 1037 1167 1070 1039 1092 1086 1054 1069 1038 1081 1044 1111 996 1059 1032 1066 1081 1027 1090 1052 1065 1039 1018 1080 1077 1051 1035 981 1039 1052 984 1091 982 1070 1028 1065 1074 1089 1057 1075 1055 1046 1014 1096 1077 1064 1063 1043 1108 1100 1006 978 1030 1054 1040 1034 1046 1096 1037 1102 1071 1041 1069 1049 1045 997 1007 1014 1038 1034 1056 1028 1048 1058 1042 1007 1025 1083 1040 1036 1045 949 1067 1014 1048 1011 1039 1034 1109 1086 1027 1074 1045 1090 1082 1085 1037 1062 1049 1086 1033 1010 1084 1000 1082 1034 1059 1028 1029 1001 1039 1019 1063 1072 1060 1080 1058 1010 1045 1094 1089 1019 1040 1036 1060 1047 1035 1062 1043 993 1051 1057 1057 1001 1088 1108 1057 1074 1044 1101 1044 1090 1066 1055 1051 936 1090 1043 1019 1069 1084 1046 1043 1052 1029 1021 1103 1038 1075 1023 1036 1077 1078 1051 1030 1106 1017 1012 1068 1069 1050 1049 1011 1055 1083 1067 1091 1060 1077 1068 1062 1011 1123 1113 1110 1058 1072 1101 1119 1097 1041 1107 1119 1143 1126 1143 1109 1108 1070 1100 1071 1167 1197 1142 1140 1114 1076 1123 1140 1141 1118 1132 1171 1232 1178 1215 1158 1177 1115 1223 1192 1166 1173 1141 1224 1151 1241 1171 1166 1217 1268 1161 1287 1273 1271 1266 1203 1213 1257 1206 1238 1303 1307 1294 1354 1280 1260 1271 1245 1262 1278 1270 1254 1294 1291 1243 1273 1242 1281 1290 1308 1235 1249 1246 1226 1270 1318 1225 1241 1223 1185 1223 1157 1257 1293 1194 1223 1189 1208 1205 1132 1206 1189 1109 1201 1127 1223 1170 1184 1196 1220 1150 1140 1148 1132 1193 1138 1141 1138 1137 1190 1127 1133 1153 1153 1193 1101 1110 1153 1092 1153 1093 1157 1178 1203 1078 1098 1130 1099 1168 1108 1103 1117 1163 1072 1131 1090 1112 1188 1092 1099 1147 1184 1060 1107 1075 1174 1181 1113 1109 1060 1084 1076 1117 1108 1158 1138 1121 1032 1126 1149 1152 1080 1108 1059 1083 1092 1101 1110 1038 1149 1099 1154 1081 1051 1111 1045 1060 1086 1085 1088 1039 1061 1003 1027 1049 1018 1060 1029 1119 1114 1085 1095 1045 1083 1062 1069 1054 1020 1071 1015 1060 1047 1020 1090 1101 1070 1103 1062 1023 1070 1050 1071 1115 1053 1024 1086 1109 1071 1079 1121 1065 1067 1081 1050 1133 1110 1083 1081 1046 1061 1085 1071 1105 1025 1099 1096 1054 1076 1008 1044 983 1063 997 1044 1066 1085 1079 1080 1104 1032 1041 1068 1079 1101 1098 1118 1096 1052 1044 1076 1073 1073 1058 1028 1020 1076 1027 1058 1061 1019 1094 1058 1027 1071 1065 1094 1027 1097 1090 1041 1071 1086 1064 1110 998 995 1037 1103 1065 1094 1076 1015 998 1025 1008 1064 1051 1037 1035 1012 1012 1048 1114 1047 982 1114 1085 1084 1007 1012 1034 1067 1020 1070 1042 1046 1048 1152 979 1026 1010 1072 1014 1096 1092 1005 963 1074 1048 1086 1024 1039 1090 1023 1015 1016 1094 1012 1083 1021 1049 1005 1065 1000 1075 1074 1053 1058 1059 1067 950 1071 1020 1048 1087 1006 1007 965 1111 1003 983 956 1023 1020 1049 1036 1003 1024 1027 1018 1066 1082 1012 1105 1057 1091 1079 1079 1083 1121 1065 1017 1003 1020 1086 1033 1081 1036 1030 1081 1034 1056 1066 1011 1054 1028 1078 1087 1034 1046 1017 1018 1136 1054 1072 1043 1032 1032 1066 1032 1023 1062 1031 1018 1066 1044 1077 1019 1080 991 954 1026 1065 1046 980 1056 1031 1035 1062 1016 1088 1053 1055 1056 1018 1037 1051 1025 1038 1051 1058 1045 1006 967 1058 1074 1108 1055 1045 1088 1074 1053 1006 1045 1049 1079 1016 1015 1036 1030 1006 1000 1014 1074 1023 1100 1049 1038 1005 1024 1014 1038 1034 1060 1010 998 1032 1079 1040 1008 976 1029 1051 1037 1001 1074 1074 976 1046 1064 1079 1027 1077 1045 1088 1050 1035 1049 1072 1076 1025 1101 1030 1058 958 1053 1025 1053 992 1006 1065 1050 1014 1047 1015 1033 1053 1019 1034 1033 1031 1038 1052 1054 1052 1013 1041 1016 1020 1045 999 1028 1032 1041 1022 1023 1017 993 1002 999 1063 1031 1003 1090 1020 1048 1015 1027 987 990 1036 1040 979 1039 1028 1069 1077 1021 1001 1010 1030 981 1057 1017 986 1039 1015 988 1040 1046 980 1059 1008 1082 1055 1023 1103 1066 984 995 943 1047 1000 952 1105 1037 1058 1027 1029 1039 1039 964 995 1062 1047 1015 954 1054 1014 994 1027 1022 1046 970 1085 1018 1056 1085 1028 1009 1015 1015 1005 991 1045 1068 984 1017 1004 1002 1078 1023 1062 1050 1079 1052 1034 1073 1023 1019 1033 1094 984 1020 1046 992 1032 1051 1021 1026 1038 1025 1053 1032 1039 1046 1068 1106 1056 1014 1037 1062 997 1109 1029 1090 1007 993 1071 1078 1060 1097 1020 988 1080 1023 1009 1055 1055 1046 1009 1071</counts>
			</dataPoints>
		</scan>
	</xrdMeasurement>
</xrdMeasurements>
