<?xml version="1.0"?>
<xrdMeasurements xmlns="http://www.xrdml.com/XRDMeasurement/2.3" xmlns:xsi="http://www.w3.org/2001/XMLSchema-instance" xsi:schemaLocation="http://www.xrdml.com/XRDMeasurement/2.3 http://www.xrdml.com/XRDMeasurement/2.3/XRDMeasurement.xsd" status="Completed" recordIdentifier="{76EB936F-7742-447C-B01C-1A98220C6FCD}">
	<comment>
		<entry/>
	</comment>
	<sample type="To be analyzed">
		<id>GPSS_Li1p8Fe0p6Mn0p2Y0p2Cl4_112425_69248ac4f4e53d1f723993cb</id>
		<name></name>
		<preparedBy></preparedBy>
	</sample>
	<xrdMeasurement measurementType="Scan" status="Completed" sampleMode="Reflection">
		<usedWavelength intended="K-Alpha 1">
			<kAlpha1 unit="Angstrom">1.5405980</kAlpha1>
			<kAlpha2 unit="Angstrom">1.5444260</kAlpha2>
			<kBeta unit="Angstrom">1.3922500</kBeta>
			<ratioKAlpha2KAlpha1>0.5000</ratioKAlpha2KAlpha1>
		</usedWavelength>
		<incidentBeamPath>
			<radius unit="mm">145.00</radius>
			<xRayTube id="1010048" name="Empyrean Cu LFF HR (9430 033 7310x)">
				<tension unit="kV">40.0</tension>
				<current unit="mA">15.0</current>
				<anodeMaterial>Cu</anodeMaterial>
				<focus type="Line">
					<length unit="mm">12.0</length>
					<width unit="mm">0.4</width>
					<takeOffAngle unit="deg">6.0</takeOffAngle>
				</focus>
			</xRayTube>
			<sollerSlit id="21010002" name="Soller slits 0.04 rad.">
				<opening unit="rad">0.0400</opening>
			</sollerSlit>
			<mask id="22031000" name="Fixed mask 13 mm">
				<width unit="mm">9.00</width>
			</mask>
			<divergenceSlit id="22120001" name="Divergence slit 1°" xsi:type="fixedDivergenceSlitType">
				<distanceToSample unit="mm">50.00</distanceToSample>
				<height unit="mm">1.52</height>
			</divergenceSlit>
		</incidentBeamPath>
		<sampleMovement xsi:type="spinningSampleMovementType">
			<spinnerRevolutionTime unit="seconds">1.0</spinnerRevolutionTime>
		</sampleMovement>
		<diffractedBeamPath>
			<radius unit="mm">145.00</radius>
			<antiScatterSlit id="22090040" name="AS slit 9 mm (PIXcel)" xsi:type="fixedAntiScatterSlitType">
				<height unit="mm">9.00</height>
			</antiScatterSlit>
			<sollerSlit id="21020003" name="Large Soller slits 0.04 rad.">
				<opening unit="rad">0.0400</opening>
			</sollerSlit>
			<filter id="20030001" name="Large beta-filter Nickel">
				<material>Ni</material>
				<thickness unit="mm">0.020</thickness>
			</filter>
			<detector id="7010019" name="PIXcel1D-Medipix3 detector" xsi:type="rtmsDetectorType">
				<phd unit="keV">
					<lowerLevel>4.02</lowerLevel>
					<upperLevel>11.27</upperLevel>
				</phd>
				<mode>Scanning</mode>
				<activeLength unit="deg">5.542</activeLength>
			</detector>
		</diffractedBeamPath>
		<scan appendNumber="0" mode="Continuous" scanAxis="Gonio" status="Completed">
			<header>
				<startTimeStamp>2025-11-27T09:58:53-08:00</startTimeStamp>
				<endTimeStamp>2025-11-27T10:07:00-08:00</endTimeStamp>
				<author>
					<name>AutomatedUser</name>
				</author>
				<source>
					<applicationSoftware version="1.7b (136)">PANalytical Aeris Instrument Suite</applicationSoftware>
					<instrumentControlSoftware version="3.2.00000000 20240306">AERIS</instrumentControlSoftware>
					<instrumentID>950485</instrumentID>
				</source>
			</header>
			<dataPoints>
				<positions axis="2Theta" unit="deg">
					<startPosition>10.00943322</startPosition>
					<endPosition>99.99442286</endPosition>
				</positions>
				<positions axis="Omega" unit="deg">
					<startPosition>5.00471661</startPosition>
					<endPosition>49.99721143</endPosition>
				</positions>
				<commonCountingTime unit="seconds">12.495</commonCountingTime>
				<counts unit="counts">3337 3197 3207 3212 3230 3284 3306 3122 3199 3179 3322 3191 3318 3238 3218 3296 3175 3278 3342 3296 3329 3284 3323 3176 3195 3269 3271 3251 3334 3308 3296 3215 3334 3251 3378 3301 3170 3283 3282 3281 3297 3266 3343 3291 3380 3219 3297 3342 3355 3412 3302 3375 3258 3269 3305 3348 3484 3319 3303 3335 3299 3365 3361 3328 3438 3300 3395 3342 3390 3339 3382 3376 3410 3365 3302 3471 3487 3320 3421 3547 3329 3448 3362 3480 3442 3414 3458 3430 3421 3426 3454 3442 3386 3534 3506 3546 3503 3629 3494 3543 3513 3455 3513 3580 3421 3507 3472 3505 3457 3590 3497 3449 3404 3515 3565 3467 3420 3377 3516 3476 3537 3514 3382 3541 3522 3483 3482 3582 3618 3521 3594 3552 3474 3405 3520 3532 3570 3520 3577 3436 3555 3565 3608 3637 3615 3601 3664 3511 3638 3557 3533 3606 3569 3504 3546 3534 3595 3637 3593 3558 3692 3552 3502 3634 3542 3571 3596 3632 3662 3611 3467 3579 3639 3466 3559 3534 3651 3479 3527 3513 3579 3485 3525 3506 3520 3479 3509 3525 3655 3672 3659 3456 3515 3616 3508 3641 3657 3484 3590 3502 3484 3699 3688 3715 3625 3529 3540 3565 3477 3563 3492 3516 3576 3592 3540 3579 3476 3506 3526 3519 3433 3560 3594 3393 3460 3490 3438 3501 3516 3509 3643 3540 3622 3530 3502 3483 3564 3443 3478 3386 3410 3447 3533 3513 3517 3535 3531 3489 3504 3473 3512 3417 3445 3498 3470 3439 3479 3491 3500 3404 3452 3597 3385 3512 3401 3427 3463 3532 3468 3588 3399 3423 3474 3511 3362 3415 3430 3383 3505 3418 3461 3537 3584 3406 3468 3505 3544 3577 3423 3527 3481 3649 3412 3444 3540 3458 3560 3570 3546 3604 3359 3449 3658 3490 3415 3474 3487 3526 3548 3598 3489 3436 3589 3550 3493 3548 3577 3569 3499 3551 3656 3536 3528 3451 3628 3696 3598 3571 3641 3539 3593 3596 3580 3561 3634 3618 3601 3692 3707 3627 3717 3656 3708 3600 3588 3630 3666 3597 3733 3677 3628 3717 3704 3703 3598 3809 3683 3856 3740 3764 3740 3775 3747 3780 3790 3819 3777 3864 3854 3856 3935 3841 3828 3871 3740 3844 3883 3820 3844 3801 3814 3872 3937 3774 3811 3912 3866 3841 3952 3818 3773 3787 4014 3901 3825 3974 3946 3870 3861 3899 3981 3924 3999 3828 3951 4001 4014 3952 3933 4092 3941 4031 3908 3988 4072 4010 4138 4072 4019 4126 3964 4240 4185 4300 4276 4160 4337 4354 4378 4324 4513 4577 4454 4458 4678 4466 4623 4660 4743 4749 4687 4753 4712 4854 4789 4716 4702 4857 4786 4950 4753 4865 4627 4747 4748 4765 4736 4658 4752 4725 4600 4655 4651 4610 4562 4518 4629 4683 4451 4616 4508 4608 4485 4481 4476 4451 4342 4351 4279 4248 4389 4237 4238 4307 4266 4145 4311 4259 4089 4096 4162 3969 4101 4226 4124 4126 4083 4041 3998 4000 4022 4087 3969 3892 3938 3831 3872 3970 3915 3827 3949 3764 3686 3837 3814 3786 3806 3663 3712 3721 3635 3788 3695 3685 3761 3758 3663 3764 3677 3788 3818 3678 3724 3722 3896 3702 3748 3755 3696 3835 3792 3668 3722 3620 3713 3624 3770 3739 3842 3796 3663 3752 3733 3786 3733 3656 3670 3579 3692 3732 3639 3783 3624 3634 3583 3526 3577 3616 3598 3606 3546 3640 3481 3568 3638 3476 3519 3510 3401 3439 3479 3353 3488 3517 3382 3523 3448 3371 3417 3566 3424 3487 3392 3427 3509 3478 3495 3529 3373 3375 3492 3445 3413 3537 3446 3366 3435 3427 3532 3403 3442 3330 3342 3449 3398 3423 3340 3328 3420 3352 3397 3369 3498 3427 3318 3435 3372 3318 3371 3349 3410 3432 3438 3364 3405 3430 3348 3329 3402 3409 3392 3446 3301 3375 3434 3384 3257 3441 3292 3285 3437 3396 3410 3341 3401 3362 3347 3415 3451 3315 3370 3291 3317 3473 3323 3482 3382 3474 3520 3530 3568 3504 3484 3513 3511 3367 3551 3499 3517 3522 3481 3554 3598 3507 3503 3347 3489 3517 3541 3352 3571 3545 3476 3636 3601 3532 3548 3418 3437 3428 3451 3386 3426 3426 3367 3476 3452 3444 3278 3353 3317 3331 3236 3281 3173 3263 3268 3204 3359 3361 3354 3355 3249 3300 3360 3336 3306 3231 3178 3219 3294 3190 3245 3252 3206 3408 3310 3239 3211 3320 3201 3220 3283 3222 3188 3223 3275 3261 3310 3276 3241 3243 3406 3242 3258 3290 3150 3242 3215 3146 3307 3332 3246 3217 3268 3237 3311 3366 3254 3225 3246 3173 3314 3211 3310 3235 3330 3271 3202 3282 3187 3233 3262 3237 3265 3185 3259 3236 3242 3202 3267 3313 3203 3418 3191 3293 3194 3277 3234 3190 3192 3231 3247 3123 3261 3089 3213 3296 3080 3237 3218 3165 3219 3276 3210 3210 3222 3222 3291 3262 3206 3185 3206 3195 3166 3110 3180 3223 3124 3174 3140 3139 3208 3219 2997 3203 3102 3254 3088 3158 3179 3275 3138 3152 3118 3106 3135 3071 3197 3139 3253 3151 3264 3209 3115 3148 3198 3173 3079 3173 3130 3142 3124 3104 3087 3173 3150 3132 3048 3121 3096 3068 3085 3106 3102 3057 3253 3164 3192 3204 3116 3056 3126 3131 3202 3227 3187 3189 3170 3082 3046 3100 3036 3089 3206 3041 3109 3130 3108 3093 3041 3050 3056 2987 3130 3047 3061 3017 3031 3063 3069 3021 2978 3081 2959 3014 3038 3032 3070 3156 3001 3061 3048 2960 2971 3019 3143 3040 3028 2999 3035 3069 3100 3003 3007 3019 3078 2968 2960 3003 3084 2983 2994 2999 2960 3121 3027 2993 2974 2998 3009 2972 3063 3082 2952 2959 3011 2912 3091 3060 3013 2965 2986 3089 2992 3060 3049 3000 2943 3004 2918 2998 3090 3088 2995 2989 3039 3011 3018 2972 3005 3037 3078 2916 3006 2974 2980 2997 3082 2966 3076 3089 3044 2953 2941 3041 3018 3067 2980 3069 2945 2994 2940 2995 3036 2968 3071 2928 3024 3051 2837 3054 3037 2926 2981 2978 3101 3006 2912 2973 2985 3004 3021 3012 3063 2944 3027 3037 2956 3049 2918 2972 2964 2968 3066 3050 2913 2993 2950 2944 2998 2979 3098 3033 3105 2982 3089 3042 3112 2970 3064 3071 3003 3025 3071 3092 3117 3081 3022 2971 2973 2938 3003 3026 3090 3019 3181 3108 3053 3002 3100 3062 3013 3005 3030 3062 3004 3092 3053 3100 3089 2982 3090 2992 3021 3100 3037 2962 2968 2990 3135 3044 3022 2990 3126 3042 3112 3049 3040 3014 3110 2947 3039 2936 3035 3069 3024 2964 2949 2986 2922 2970 2986 3038 2882 3016 2980 3046 2812 2959 2894 2932 2905 2903 2968 2957 2876 3019 2942 2996 2963 2998 2922 2975 2929 3005 2953 2883 2979 2936 2945 2988 2923 3031 2866 2926 2967 2911 2940 2872 2741 2806 2834 2891 2913 2940 2878 2945 2912 2925 2943 2887 2867 3009 2853 2869 2905 2810 2806 2952 2786 2912 2784 2761 2923 2840 2849 2881 2723 2811 2669 2872 2607 2705 2750 2797 2737 2769 2700 2877 2812 2736 2630 2700 2768 2772 2674 2737 2820 2685 2689 2702 2716 2696 2676 2691 2733 2730 2758 2713 2699 2652 2676 2758 2701 2625 2608 2769 2531 2583 2641 2640 2648 2679 2601 2640 2580 2575 2638 2598 2622 2500 2716 2654 2636 2623 2606 2610 2691 2659 2686 2672 2622 2784 2584 2707 2686 2619 2706 2730 2617 2578 2604 2611 2732 2620 2591 2607 2562 2664 2611 2743 2564 2618 2575 2591 2544 2570 2578 2457 2526 2623 2559 2462 2434 2530 2529 2536 2552 2409 2446 2531 2452 2404 2441 2462 2451 2417 2446 2496 2459 2446 2518 2452 2545 2383 2408 2381 2447 2414 2476 2532 2350 2425 2500 2385 2441 2422 2455 2426 2439 2392 2485 2457 2470 2450 2425 2342 2348 2486 2451 2414 2438 2326 2444 2426 2518 2377 2303 2378 2457 2412 2358 2369 2402 2469 2451 2436 2462 2392 2495 2398 2314 2358 2418 2398 2415 2466 2434 2472 2356 2435 2433 2357 2306 2343 2423 2419 2402 2369 2365 2430 2478 2409 2393 2428 2410 2438 2397 2305 2395 2449 2427 2347 2380 2345 2432 2337 2359 2378 2405 2322 2438 2381 2410 2516 2416 2443 2375 2480 2454 2383 2394 2418 2419 2481 2377 2418 2373 2407 2462 2383 2328 2408 2308 2415 2344 2334 2325 2379 2378 2338 2348 2490 2301 2339 2408 2438 2359 2343 2375 2261 2350 2455 2383 2436 2431 2458 2413 2404 2447 2420 2406 2385 2309 2451 2406 2359 2421 2384 2423 2381 2380 2379 2405 2402 2366 2449 2336 2372 2468 2493 2369 2373 2477 2385 2416 2334 2400 2413 2448 2376 2358 2368 2345 2423 2380 2361 2456 2413 2363 2441 2383 2340 2402 2432 2367 2442 2338 2321 2410 2405 2414 2397 2276 2384 2417 2362 2353 2363 2336 2322 2324 2426 2319 2396 2426 2325 2417 2283 2426 2436 2388 2377 2330 2424 2264 2372 2379 2349 2433 2320 2386 2300 2444 2360 2371 2368 2357 2300 2295 2356 2460 2386 2301 2304 2408 2340 2298 2398 2376 2262 2388 2366 2359 2450 2450 2321 2270 2296 2277 2336 2325 2313 2253 2302 2365 2258 2311 2191 2212 2195 2299 2229 2336 2226 2272 2241 2233 2204 2173 2148 2203 2247 2300 2216 2205 2184 2243 2161 2199 2150 2232 2259 2167 2184 2216 2191 2190 2141 2249 2177 2136 2187 2194 2139 2234 2146 2084 2140 2169 2096 2131 2162 2206 2218 2101 2219 2157 2135 2084 2168 2148 2082 2050 2124 2069 2087 2155 2133 2107 2071 2123 2099 2138 2162 2025 2170 2159 2115 2222 2054 2095 2091 2108 2066 2196 2108 2089 2089 2122 2096 2134 2167 2097 2131 2184 2143 2168 2099 2052 2089 2091 2021 2064 2052 2125 2129 2056 2058 2029 2037 2052 2177 2112 2115 2041 2050 2031 2051 2051 2040 2022 2078 2122 2105 2178 2113 2196 2044 2096 2120 2208 2183 2230 2220 2201 2197 2188 2222 2259 2382 2339 2349 2270 2352 2315 2320 2412 2482 2408 2495 2469 2508 2634 2603 2537 2601 2563 2629 2695 2652 2679 2532 2513 2578 2472 2574 2585 2581 2573 2538 2433 2523 2555 2508 2435 2438 2443 2324 2371 2398 2276 2380 2319 2255 2296 2320 2213 2118 2226 2142 2124 2107 2120 2059 2099 2126 2046 2049 2138 2061 2024 2100 2013 1961 1968 1976 2046 2025 2029 1960 2005 1949 1975 1983 2010 1997 2024 2088 1987 1954 1980 1999 1968 2030 1903 1910 1914 1923 1883 2021 1993 1953 1998 1931 1927 1971 1949 1923 1995 1848 1972 1929 2069 1966 1985 1975 2081 1964 2004 1993 2049 2071 2035 2028 2137 2102 2178 2158 2244 2404 2334 2399 2335 2456 2475 2578 2601 2633 2621 2711 2656 2782 2854 2807 2808 2743 2790 2799 2824 2766 2762 2879 2772 2789 2790 2791 2688 2800 2803 2735 2741 2719 2645 2747 2796 2719 2755 2624 2759 2759 2601 2672 2687 2577 2649 2665 2535 2555 2429 2455 2451 2421 2355 2277 2362 2362 2329 2196 2237 2304 2233 2129 2103 2086 2012 1968 2129 2042 1990 1996 1964 2090 1996 1933 1938 1866 1947 1951 1977 1851 1913 1906 1872 1914 1768 1793 1842 1866 1803 1798 1894 1859 1799 1811 1903 1780 1819 1795 1803 1842 1817 1902 1789 1816 1784 1802 1784 1786 1800 1773 1759 1861 1789 1789 1727 1767 1751 1724 1832 1785 1758 1769 1801 1755 1770 1770 1778 1807 1765 1821 1806 1776 1799 1768 1835 1744 1816 1815 1807 1750 1828 1784 1740 1802 1799 1796 1797 1777 1877 1814 1883 1827 1923 1957 1959 2017 1990 2071 2187 2199 2261 2298 2369 2446 2346 2466 2455 2382 2366 2462 2439 2567 2479 2529 2437 2458 2556 2491 2515 2442 2348 2367 2412 2265 2334 2320 2234 2264 2235 2169 2174 2105 2160 2024 1950 2079 1869 1911 1905 1928 1904 1941 1837 1828 1805 1751 1769 1777 1720 1798 1775 1790 1792 1826 1725 1749 1763 1822 1810 1744 1760 1789 1734 1760 1830 1809 1817 1744 1718 1714 1710 1844 1770 1736 1831 1740 1735 1725 1838 1750 1741 1766 1717 1755 1744 1645 1781 1732 1704 1689 1828 1760 1738 1697 1754 1673 1710 1775 1708 1793 1678 1712 1718 1733 1713 1804 1661 1728 1723 1761 1654 1742 1703 1782 1791 1717 1678 1716 1798 1754 1671 1766 1760 1717 1829 1749 1780 1859 1815 1737 1782 1725 1762 1786 1835 1703 1778 1715 1758 1736 1746 1748 1668 1766 1667 1745 1680 1788 1710 1774 1740 1694 1791 1621 1737 1674 1741 1705 1693 1725 1712 1651 1648 1653 1770 1691 1672 1677 1753 1759 1679 1666 1667 1693 1749 1686 1676 1667 1702 1686 1736 1659 1661 1676 1720 1698 1728 1691 1670 1710 1748 1756 1664 1702 1688 1675 1708 1756 1697 1653 1767 1694 1804 1695 1717 1711 1673 1716 1803 1785 1748 1659 1748 1747 1726 1801 1739 1836 1885 1885 1794 1747 1836 1789 1846 1908 1862 1893 1813 1868 1803 1836 1852 1970 1957 1810 1773 1837 1743 1822 1892 1896 1812 1878 1847 1871 1902 1898 1906 1883 1776 1892 2071 1919 2028 1914 2015 2034 2196 2037 2115 2172 2223 2207 2309 2377 2367 2504 2564 2665 2701 2786 2951 2932 3171 3310 3505 3654 3750 3919 4137 4274 4471 4545 4536 4715 4979 4872 4920 5172 5169 5215 5140 5304 5322 5268 5307 5244 5286 5201 5192 5078 4987 4928 4911 4789 4677 4624 4545 4556 4409 4427 4258 4161 4011 4028 3964 3841 3748 3706 3802 3586 3469 3415 3273 3346 3248 3037 3046 2917 3053 2971 2823 2745 2519 2616 2492 2497 2429 2422 2410 2451 2417 2256 2139 2319 2188 2212 2190 2225 2165 2188 2102 2122 2000 2049 2062 2095 2042 2046 1914 1965 1963 1947 1867 1910 2058 1927 1943 1945 1898 1875 1874 1839 1882 1981 1785 1936 1824 1809 1829 1865 1873 1856 1851 1906 1866 1749 1805 1705 1806 1834 1784 1796 1779 1814 1784 1761 1755 1775 1822 1779 1727 1703 1740 1772 1704 1764 1789 1764 1715 1740 1764 1712 1696 1771 1699 1743 1695 1713 1668 1627 1731 1648 1775 1743 1618 1613 1677 1640 1596 1729 1720 1639 1610 1604 1612 1651 1643 1680 1688 1750 1635 1627 1659 1667 1542 1663 1576 1563 1561 1615 1579 1519 1610 1635 1621 1595 1575 1641 1586 1612 1613 1639 1598 1565 1657 1590 1681 1611 1621 1642 1700 1661 1704 1599 1684 1750 1627 1662 1705 1751 1607 1755 1688 1712 1653 1711 1709 1660 1567 1762 1598 1706 1662 1584 1649 1627 1610 1672 1701 1589 1679 1651 1582 1772 1664 1517 1699 1702 1675 1586 1650 1586 1622 1591 1494 1575 1594 1572 1587 1613 1615 1598 1604 1506 1618 1638 1599 1529 1645 1568 1525 1587 1563 1544 1616 1567 1560 1569 1671 1542 1629 1622 1625 1583 1553 1577 1545 1628 1599 1615 1590 1539 1612 1593 1581 1608 1580 1601 1482 1589 1538 1628 1562 1647 1634 1608 1563 1637 1552 1619 1623 1590 1591 1602 1669 1598 1654 1590 1676 1560 1554 1636 1649 1609 1681 1602 1628 1624 1622 1612 1690 1545 1542 1668 1585 1655 1624 1561 1597 1647 1582 1589 1584 1578 1564 1667 1643 1681 1617 1584 1580 1546 1626 1644 1581 1552 1553 1529 1559 1551 1545 1559 1515 1602 1515 1631 1526 1581 1596 1555 1530 1486 1481 1576 1622 1499 1488 1538 1541 1557 1608 1538 1542 1493 1558 1549 1577 1566 1634 1553 1555 1550 1517 1523 1519 1551 1549 1634 1588 1561 1540 1512 1499 1503 1542 1532 1565 1539 1583 1585 1578 1539 1574 1549 1590 1569 1584 1534 1477 1486 1524 1571 1538 1546 1533 1512 1501 1528 1515 1511 1484 1638 1548 1489 1531 1512 1556 1513 1537 1511 1532 1471 1449 1496 1572 1579 1546 1595 1540 1478 1469 1451 1540 1490 1475 1603 1567 1468 1543 1499 1554 1491 1512 1553 1528 1466 1523 1492 1626 1456 1562 1483 1484 1484 1499 1559 1476 1540 1507 1454 1464 1522 1534 1476 1547 1573 1497 1605 1539 1478 1561 1539 1497 1543 1423 1451 1514 1472 1520 1537 1477 1487 1504 1439 1474 1543 1514 1483 1540 1547 1500 1521 1511 1497 1495 1398 1509 1622 1473 1443 1527 1438 1437 1469 1428 1560 1506 1489 1455 1460 1445 1493 1520 1528 1404 1487 1491 1495 1484 1563 1498 1501 1516 1582 1537 1569 1509 1522 1556 1531 1515 1514 1519 1553 1495 1551 1482 1466 1455 1528 1544 1440 1417 1478 1501 1445 1503 1460 1562 1422 1509 1441 1484 1525 1422 1541 1549 1474 1495 1526 1461 1541 1453 1459 1429 1436 1428 1435 1485 1554 1517 1428 1532 1505 1444 1506 1452 1619 1527 1588 1617 1554 1574 1469 1644 1548 1653 1605 1688 1627 1653 1737 1752 1732 1784 1892 1872 1881 1801 1834 1839 1883 1934 1904 1995 1813 1838 1901 1837 1849 1924 1856 1866 1836 1782 1812 1754 1757 1756 1770 1688 1822 1683 1654 1738 1663 1594 1630 1595 1581 1479 1672 1561 1556 1544 1591 1510 1539 1506 1473 1559 1546 1462 1503 1472 1479 1470 1476 1492 1452 1475 1484 1504 1545 1515 1500 1447 1425 1410 1476 1453 1466 1478 1410 1494 1429 1539 1409 1432 1483 1516 1430 1474 1464 1518 1464 1450 1522 1431 1498 1478 1446 1457 1431 1493 1473 1446 1476 1435 1438 1442 1492 1536 1432 1484 1450 1444 1422 1419 1462 1411 1487 1450 1436 1427 1492 1503 1404 1464 1470 1440 1468 1528 1414 1526 1510 1478 1458 1536 1446 1420 1476 1393 1514 1467 1440 1486 1439 1438 1453 1469 1452 1447 1493 1529 1468 1436 1452 1486 1476 1408 1521 1425 1446 1515 1465 1510 1398 1509 1445 1535 1518 1557 1480 1522 1451 1452 1517 1561 1492 1567 1582 1519 1472 1477 1552 1517 1518 1549 1511 1510 1517 1553 1456 1517 1527 1491 1510 1540 1465 1438 1491 1437 1498 1528 1520 1487 1446 1531 1571 1383 1523 1493 1526 1448 1446 1432 1420 1455 1536 1471 1435 1471 1424 1502 1461 1464 1490 1518 1465 1478 1460 1503 1588 1387 1508 1535 1476 1459 1486 1473 1457 1498 1478 1529 1509 1461 1478 1516 1518 1503 1512 1550 1505 1466 1594 1483 1588 1548 1464 1446 1460 1541 1529 1420 1478 1531 1463 1425 1462 1521 1504 1496 1447 1463 1425 1408 1438 1449 1446 1388 1478 1439 1449 1384 1460 1452 1395 1467 1461 1559 1497 1456 1397 1389 1431 1489 1453 1384 1459 1402 1420 1451 1480 1482 1483 1427 1472 1477 1431 1522 1484 1531 1439 1443 1467 1479 1401 1535 1527 1471 1548 1454 1500 1527 1476 1495 1486 1459 1589 1492 1403 1519 1449 1467 1421 1475 1527 1515 1400 1470 1518 1421 1524 1478 1549 1478 1434 1489 1527 1449 1401 1431 1435 1441 1470 1444 1447 1436 1447 1492 1493 1438 1425 1457 1486 1484 1448 1442 1411 1469 1408 1407 1423 1443 1469 1424 1469 1428 1450 1596 1379 1435 1442 1478 1465 1477 1438 1451 1423 1509 1483 1517 1453 1477 1504 1589 1546 1512 1584 1582 1605 1571 1600 1585 1690 1579 1686 1634 1640 1585 1629 1626 1669 1705 1779 1728 1797 1772 1762 1804 1759 1780 1714 1826 1783 1757 1802 1792 1820 1721 1768 1748 1749 1828 1714 1720 1611 1709 1647 1674 1660 1725 1680 1680 1571 1617 1611 1547 1595 1572 1636 1582 1560 1559 1561 1538 1517 1525 1471 1598 1490 1600 1572 1528 1482 1452 1518 1519 1428 1467 1553 1489 1540 1545 1487 1492 1523 1469 1474 1484 1467 1442 1484 1457 1447 1450 1489 1486 1480 1471 1464 1439 1376 1479 1456 1485 1464 1486 1476 1512 1504 1462 1480 1384 1377 1460 1464 1420 1402 1416 1401 1471 1455 1453 1445 1381 1423 1403 1425 1447 1413 1375 1432 1453 1426 1495 1383 1388 1422 1501 1332 1423 1445 1304 1406 1455 1437 1428 1373 1377 1413 1396 1505 1464 1413 1460 1503 1426 1391 1459 1419 1539 1413 1413 1423 1395 1423 1400 1468 1473 1411 1353 1480 1437 1419 1359 1391 1413 1396 1420 1451 1466 1419 1423 1431 1355 1415 1415 1417 1405 1368 1450 1463 1380 1398 1353 1400 1403 1379 1358 1458 1464 1335 1409 1459 1431 1391 1406 1413 1358 1326 1464 1378 1431 1375 1426 1399 1387 1428 1435 1386 1417 1473 1461 1466 1424 1431 1453 1405 1383 1390 1358 1422 1428 1418 1362 1443 1395 1514 1409 1436 1380 1416 1419 1458 1407 1467 1497 1392 1348 1426 1450 1426 1333 1458 1423 1388 1433 1429 1418 1449 1425 1421 1397 1416 1466 1504 1477 1411 1445 1444 1469 1449 1454 1401 1424 1442 1397 1432 1471 1377 1439 1395 1419 1465 1488 1487 1472 1493 1419 1482 1336 1482 1483 1478 1426 1480 1474 1471 1459 1490 1440 1485 1521 1504 1488 1434 1504 1457 1451 1474 1391 1476 1483 1439 1424 1512 1481 1467 1400 1412 1460 1501 1363 1460 1441 1572 1469 1508 1384 1508 1416 1546 1449 1504 1527 1503 1511 1512 1495 1554 1579 1556 1520 1589 1607 1636 1623 1667 1673 1661 1740 1728 1733 1636 1775 1755 1699 1700 1617 1707 1678 1695 1752 1694 1745 1724 1697 1677 1698 1671 1710 1789 1671 1691 1746 1707 1742 1755 1774 1674 1761 1753 1738 1723 1767 1829 1800 1808 1826 1786 1869 1840 1885 1921 1854 1946 1903 2004 1931 2008 2041 2108 2189 2112 2309 2247 2297 2408 2456 2561 2462 2618 2743 2840 2784 2896 3086 3026 3189 3063 3257 3231 3232 3326 3178 3228 3163 3132 3142 3080 3088 3153 3059 3059 2941 2952 2928 2904 2888 2759 2774 2644 2601 2559 2601 2354 2447 2289 2238 2189 2187 2158 2193 2156 2083 2087 1954 1912 1972 1938 1893 1895 1846 1873 1967 1972 1914 2014 1839 1881 1918 1925 1928 1980 1877 1878 1934 1841 1887 1890 1861 1874 1823 1800 1825 1762 1858 1772 1779 1703 1701 1683 1662 1649 1676 1689 1627 1643 1616 1679 1504 1582 1570 1532 1610 1559 1595 1568 1539 1530 1538 1513 1523 1559 1627 1600 1542 1495 1588 1566 1595 1536 1566 1502 1568 1575 1518 1583 1473 1517 1575 1511 1517 1540 1542 1487 1531 1481 1407 1511 1472 1451 1453 1440 1478 1438 1487 1441 1482 1464 1491 1337 1435 1500 1409 1484 1345 1415 1451 1468 1426 1472 1414 1436 1378 1466 1372 1398 1403 1455 1400 1396 1382 1374 1366 1425 1373 1321 1386 1423 1384 1374 1341 1417 1405 1300 1386 1480 1365 1321 1383 1408 1382 1410 1464 1340 1411 1405 1417 1370 1399 1383 1383 1383 1423 1495 1454 1366 1439 1439 1419 1354 1420 1414 1368 1427 1508 1502 1485 1487 1525 1466 1580 1507 1488 1491 1464 1523 1523 1574 1538 1556 1475 1543 1547 1605 1538 1598 1613 1665 1629 1544 1585 1607 1654 1642 1637 1477 1592 1548 1602 1622 1627 1592 1528 1586 1609 1601 1559 1551 1604 1604 1556 1592 1561 1492 1512 1498 1497 1444 1535 1511 1492 1523 1474 1431 1411 1441 1476 1422 1466 1415 1395 1486 1433 1427 1373 1485 1333 1467 1407 1434 1367 1372 1336 1338 1380 1516 1391 1384 1442 1360 1438 1473 1388 1373 1431 1357 1414 1365 1365 1391 1440 1346 1282 1322 1450 1467 1369 1355 1399 1417 1381 1369 1382 1392 1356 1370 1404 1361 1316 1405 1490 1382 1355 1395 1435 1320 1462 1439 1360 1384 1408 1413 1420 1479 1448 1441 1333 1361 1339 1415 1374 1375 1390 1359 1363 1313 1446 1444 1408 1358 1367 1351 1374 1350 1368 1419 1375 1425 1408 1391 1376 1342 1362 1376 1365 1400 1399 1354 1365 1405 1407 1416 1328 1421 1382 1452 1457 1462 1429 1368 1410 1428 1359 1409 1458 1461 1439 1395 1472 1446 1481 1475 1425 1447 1437 1388 1437 1409 1388 1424 1404 1436 1351 1470 1421 1391 1414 1400 1402 1340 1353 1340 1387 1348 1325 1307 1416 1336 1415 1304 1376 1353 1326 1340 1266 1334 1334 1279 1336 1341 1303 1353 1416 1285 1338 1328 1313 1360 1365 1390 1228 1301 1314 1352 1388 1310 1309 1318 1300 1264 1252 1293 1334 1352 1306 1302 1382 1262 1343 1321 1347 1318 1295 1322 1347 1347 1390 1288 1315 1307 1361 1379 1294 1371 1256 1334 1285 1334 1289 1352 1327 1297 1310 1293 1265 1269 1347 1288 1344 1366 1339 1314 1356 1364 1306 1325 1305 1293 1389 1287 1394 1263 1360 1306 1325 1347 1323 1302 1350 1317 1389 1328 1348 1325 1306 1304 1341 1289 1317 1305 1294 1251 1273 1331 1296 1286 1320 1231 1317 1278 1362 1340 1274 1304 1311 1264 1328 1270 1325 1250 1287 1442 1340 1251 1287 1236 1297 1340 1325 1316 1308 1297 1305 1314 1284 1356 1321 1287 1295 1307 1235 1312 1289 1270 1286 1281 1234 1277 1357 1279 1305 1326 1293 1426 1234 1326 1238 1272 1302 1246 1280 1288 1215 1338 1302 1297 1343 1297 1252 1311 1245 1320 1272 1274 1261 1296 1264 1273 1338 1256 1343 1327 1230 1312 1309 1317 1247 1313 1242 1313 1201 1313 1298 1377 1265 1365 1231 1278 1260 1285 1282 1298 1358 1319 1365 1249 1325 1252 1278 1292 1265 1310 1245 1304 1269 1297 1284 1282 1271 1304 1266 1265 1307 1271 1269 1276 1252 1297 1339 1189 1351 1310 1323 1266 1218 1262 1310 1307 1275 1347 1370 1275 1300 1287 1282 1215 1292 1346 1294 1253 1313 1314 1270 1274 1239 1213 1333 1269 1313 1302 1288 1263 1263 1287 1288 1277 1291 1323 1320 1301 1237 1289 1276 1294 1288 1214 1316 1303 1256 1347 1326 1316 1267 1252 1278 1283 1351 1319 1367 1326 1300 1373 1374 1330 1328 1305 1364 1327 1274 1395 1263 1264 1294 1310 1302 1364 1267 1275 1328 1291 1288 1298 1282 1340 1248 1276 1289 1328 1269 1331 1294 1362 1246 1303 1298 1308 1331 1339 1375 1301 1327 1364 1338 1255 1353 1290 1362 1349 1328 1283 1309 1340 1245 1330 1331 1307 1321 1297 1288 1286 1323 1305 1301 1303 1318 1293 1281 1263 1345 1280 1325 1260 1314 1330 1318 1306 1327 1368 1328 1361 1350 1348 1343 1311 1367 1312 1343 1374 1353 1286 1365 1383 1360 1330 1354 1351 1378 1330 1394 1343 1302 1411 1324 1327 1304 1340 1367 1320 1369 1363 1295 1321 1346 1355 1294 1377 1297 1378 1238 1409 1370 1329 1475 1343 1353 1293 1377 1329 1368 1347 1309 1299 1311 1331 1367 1320 1362 1441 1374 1347 1349 1393 1366 1412 1424 1396 1364 1402 1412 1393 1431 1444 1459 1432 1451 1415 1418 1434 1469 1525 1484 1459 1446 1467 1479 1439 1444 1416 1405 1468 1456 1470 1512 1441 1387 1414 1429 1460 1412 1447 1447 1488 1391 1374 1427 1467 1460 1450 1377 1418 1402 1459 1429 1472 1443 1442 1475 1419 1402 1404 1392 1416 1388 1441 1445 1409 1482 1418 1503 1408 1423 1459 1438 1454 1396 1436 1453 1487 1494 1493 1462 1525 1507 1496 1451 1455 1503 1490 1472 1488 1423 1484 1460 1392 1433 1414 1395 1383 1468 1384 1403 1366 1370 1332 1310 1289 1362 1365 1359 1349 1335 1375 1324 1273 1419 1401 1305 1314 1306 1222 1322 1282 1298 1323 1319 1360 1358 1326 1316 1310 1366 1270 1265 1331 1292 1366 1279 1252 1282 1295 1257 1280 1239 1332 1323 1335 1331 1364 1258 1284 1310 1301 1284 1319 1278 1322 1281 1295 1272 1227 1317 1227 1292 1307 1294 1285 1251 1252 1263 1314 1287 1227 1330 1251 1287 1222 1301 1293 1299 1278 1309 1228 1284 1245 1229 1286 1303 1278 1315 1226 1262 1283 1279 1256 1283 1286 1311 1236 1266 1256 1292 1245 1356 1301 1336 1277 1275 1271 1228 1347 1268 1266 1307 1247 1298 1233 1223 1286 1340 1315 1265 1232 1344 1273 1309 1282 1287 1309 1347 1326 1299 1323 1309 1296 1267 1252 1270 1373 1391 1355 1314 1330 1376 1416 1404 1364 1400 1361 1483 1342 1398 1401 1387 1489 1443 1448 1400 1418 1389 1484 1477 1555 1470 1535 1533 1531 1552 1520 1469 1518 1535 1579 1683 1574 1564 1557 1601 1611 1635 1551 1495 1620 1569 1603 1638 1711 1558 1581 1653 1591 1594 1587 1571 1622 1622 1594 1586 1617 1643 1572 1566 1500 1558 1526 1582 1552 1553 1533 1461 1438 1465 1465 1415 1497 1468 1441 1439 1457 1466 1457 1334 1352 1318 1390 1408 1346 1417 1286 1293 1334 1361 1402 1342 1365 1371 1413 1358 1358 1284 1254 1326 1367 1308 1366 1322 1357 1279 1352 1423 1355 1380 1342 1356 1300 1330 1363 1344 1373 1322 1287 1398 1338 1293 1349 1338 1342 1396 1301 1303 1320 1321 1350 1305 1291 1311 1257 1249 1276 1286 1317 1294 1257 1283 1300 1254 1284 1232 1268 1203 1229 1211 1294 1277 1318 1205 1228 1304 1274 1293 1319 1215 1297 1290 1243 1282 1292 1303 1288 1323 1262 1231 1320 1307 1303 1296 1221 1289 1336 1316 1292 1343 1308 1257 1279 1270 1259 1309 1247 1289 1282 1278 1257 1255 1319 1306 1287 1185 1305 1325 1302 1337 1304 1317 1273 1352 1372 1266 1346 1292 1385 1328 1300 1340 1348 1328 1321 1289 1304 1319 1271 1340 1257 1312 1327 1376 1360 1358 1428 1397 1305 1395 1444 1386 1378 1417 1399 1386 1371 1263 1336 1353 1404 1382 1371 1362 1354 1324 1390 1332 1456 1410 1305 1421 1328 1337 1412 1305 1427 1335 1330 1291 1327 1350 1282 1257 1346 1327 1270 1295 1299 1278 1272 1306 1293 1356 1309 1255 1298 1353 1283 1245 1231 1258 1222 1219 1317 1248 1241 1296 1244 1254 1281 1266 1280 1185 1294 1254 1244 1238 1203 1241 1252 1256 1221 1203 1290 1259 1244 1217 1288 1371 1264 1282 1246 1235 1256 1238 1223 1265 1215 1302 1231 1179 1293 1232 1259 1237 1199 1266 1227 1241 1267 1262 1227 1281 1265 1240 1263 1223 1282 1260 1267 1235 1222 1296 1278 1270 1291 1193 1259 1201 1252 1201 1247 1260 1249 1221 1251 1243 1329 1288 1250 1302 1307 1300 1244 1247 1209 1305 1332 1294 1300 1249 1328 1272 1279 1354 1333 1340 1309 1286 1301 1294 1228 1272 1288 1276 1281 1285 1305 1318 1318 1291 1266 1384 1290 1332 1317 1338 1324 1303 1286 1267 1238 1271 1309 1234 1231 1278 1271 1272 1262 1302 1222 1189 1255 1250 1243 1206 1257 1301 1203 1216 1264 1261 1259 1334 1158 1227 1181 1295 1242 1274 1260 1208 1284 1272 1189 1192 1162 1219 1268 1192 1223 1224 1172 1302 1234 1243 1221 1252 1198 1227 1192 1249 1206 1225 1207 1286 1237 1195 1206 1239 1314 1289 1180 1188 1218 1259 1206 1134 1230 1193 1139 1267 1207 1245 1238 1237 1215 1282 1240 1226 1199 1215 1166 1233 1220 1243 1230 1245 1243 1230 1265 1247 1163 1259 1213 1252 1157 1250 1198 1180 1207 1197 1200 1289 1252 1250 1230 1224 1245 1204 1227 1231 1252 1240 1266 1296 1243 1213 1257 1216 1264 1166 1246 1194 1220 1232 1237 1209 1239 1213 1233 1222 1188 1163 1185 1161 1251 1224 1175 1166 1187 1225 1191 1257 1238 1241 1203 1267 1236 1214 1230 1306 1224 1168 1246 1238 1264 1196 1232 1224 1230 1229 1306 1235 1236 1229 1190 1203 1250 1210 1282 1175 1206 1210 1154 1210 1182 1193 1268 1226 1160 1174 1155 1210 1170 1226 1266 1310 1261 1180 1262 1165 1240 1235 1240 1192 1252 1267 1306 1296 1185 1200 1226 1291 1239 1207 1191 1260 1259 1232 1250 1224 1216 1217 1227 1265 1250 1218 1184 1246 1244 1252 1223 1263 1221 1222 1167 1298 1234 1232 1218 1258 1194 1250 1210 1210 1218 1249 1183 1226 1253 1259 1219 1212 1249 1232 1204 1305 1218 1237 1189 1299 1243 1161 1286 1179 1266 1191 1295 1172 1264 1226 1221 1194 1245 1237 1229 1136 1236 1128 1238 1184 1178 1220 1198 1216 1199 1232 1268 1199 1266 1253 1200 1226 1198 1184 1240 1238 1206 1180 1250 1217 1262 1216 1203 1194 1198 1154 1240 1199 1226 1201 1220 1181 1157 1234 1227 1205 1250 1178 1226 1231 1243 1193 1314 1191 1229 1191 1214 1219 1260 1279 1250 1238 1235 1242 1163 1287 1227 1323 1262 1231 1343 1263 1329 1298 1296 1308 1286 1208 1289 1330 1221 1302 1271 1295 1290 1303 1245 1271 1254 1328 1321 1283 1327 1287 1205 1227 1308 1239 1302 1246 1246 1338 1244 1282 1245 1252 1360 1279 1208 1210 1202 1237 1229 1275 1244 1226 1229 1213 1182 1227 1206 1175 1233 1187 1199 1262 1229 1164 1265 1258 1237 1197 1243 1293 1273 1221 1240 1215 1223 1224 1220 1206 1180 1269 1266 1250 1165 1234 1229 1254 1197 1223 1201 1248 1166 1189 1161 1193 1222 1225 1244 1166 1282 1230 1246 1222 1206 1180 1167 1211 1180 1238 1187 1193 1228 1180 1177 1178 1214 1155 1193 1194 1251 1172 1139 1153 1249 1216 1249 1197 1192 1206 1240 1206 1200 1183 1211 1091 1178 1177 1188 1185 1236 1268 1225 1197 1215 1252 1227 1214 1267 1193 1180 1247 1180 1221 1240 1183 1176 1225 1236 1237 1158 1252 1256 1196 1191 1229 1290 1157 1222 1191 1175 1147 1201 1159 1201 1242 1235 1217 1246 1174 1243 1168 1173 1232 1291 1190 1208 1190 1183 1159 1201 1185 1221 1249 1193 1156 1258 1180 1289 1196 1241 1194 1225 1251 1209 1245 1213 1197 1181 1254 1162 1195 1256 1169 1155 1162 1202 1278 1200 1231 1188 1169 1258 1257 1215 1228 1225 1141 1211 1194 1205 1158 1201 1312 1179 1277 1257 1241 1217 1211 1176 1184 1191 1262 1243 1301 1273 1215 1211 1199 1199 1176 1194 1204 1242 1254 1241 1198 1205 1228 1259 1214 1245 1258 1260 1204 1247 1235 1200 1209 1229 1254 1251 1258 1220 1231 1220 1219 1204 1186 1262 1267 1259 1227 1273 1252 1185 1301 1322 1268 1323 1248 1260 1303 1336 1291 1245 1243 1295 1285 1258 1293 1233 1294 1306 1296 1321 1338 1323 1313 1260 1333 1347 1406 1331 1328 1326 1346 1350 1423 1360 1329 1398 1357 1357 1363 1319 1448 1365 1333 1305 1357 1356 1371 1407 1393 1329 1356 1237 1314 1299 1394 1354 1355 1317 1347 1334 1323 1304 1337 1272 1292 1312 1265 1346 1261 1279 1273 1279 1256 1241 1250 1273 1221 1260 1222 1257 1262 1286 1248 1272 1260 1169 1249 1238 1265 1236 1166 1185 1194 1215 1235 1236 1245 1245 1293 1285 1245 1227 1238 1241 1220 1214 1274 1189 1147 1231 1211 1205 1187 1171 1207 1240 1182 1323 1270 1203 1292 1246 1241 1317 1277 1265 1185 1217 1239 1323 1216 1308 1222 1285 1207 1223 1179 1262 1179 1200 1239 1241 1248 1258 1285 1215 1165 1210 1275 1202 1221 1241 1226 1200 1160 1210 1252 1245 1190 1253 1173 1201 1280 1212 1210 1159 1183 1242 1204 1207 1173 1171 1197 1240 1200 1176 1141 1204 1239 1201 1170 1188 1236 1213 1128 1185 1174 1139 1209 1224 1235 1195 1226 1170 1162 1198 1181 1142 1203 1185 1154 1193 1170 1189 1194 1211 1310 1160 1169 1208 1224 1176 1261 1193 1228 1179 1188 1206 1226 1221 1247 1154 1212 1189 1212 1235 1145 1171 1208 1202 1190 1222 1210 1213 1287 1224 1172 1246 1173 1205 1299 1165 1176 1266 1235 1221 1203 1153 1179 1210 1170 1233 1209 1194 1270 1272 1168 1242 1205 1181 1218 1227 1158 1204 1119 1197 1206 1154 1192 1215 1216 1145 1176 1159 1203 1134 1218 1176 1196 1207 1228 1235 1232 1164 1218 1198 1262 1225 1220 1264 1190 1225 1213 1204 1247 1136 1200 1191 1205 1223 1192 1204 1206 1175 1192 1178 1167 1228 1160 1168 1253 1226 1126 1218 1123 1227 1136 1245 1237 1196 1210 1205 1254 1219 1193 1162 1165 1198 1201 1260 1257 1205 1266 1287 1232 1200 1168 1150 1237 1198 1218 1206 1202 1173 1215 1158 1219 1182 1165 1213 1177 1196 1216 1253 1169 1200 1183 1195 1185 1204 1253 1273 1189 1182 1227 1179 1170 1255 1190 1183 1281 1225 1151 1193 1242 1164 1175 1224 1181 1144 1188 1222 1189 1233 1219 1226 1201 1213 1153 1220 1237 1177 1190 1201 1196 1144 1169 1181 1108 1212 1156 1189 1174 1165 1202 1205 1172 1197 1197 1192 1116 1259 1292 1101 1196 1181 1109 1216 1237 1099 1223 1198 1205 1197 1222 1187 1164 1187 1196 1147 1199 1184 1207 1230 1213 1235 1215 1153 1222 1174 1210 1198 1207 1185 1180 1234 1190 1255 1170 1217 1132 1174 1250 1227 1171 1128 1164 1133 1226 1203 1199 1275 1145 1179 1175 1214 1138 1201 1171 1130 1133 1144 1166 1232 1216 1169 1209 1163 1153 1154 1189 1152 1197 1220 1187 1238 1172 1201 1179 1181 1212 1228 1185 1213 1242 1202 1222 1213 1129 1196 1276 1203 1142 1234 1163 1233 1194 1210 1237 1199 1203 1145 1268 1233 1170 1219 1119 1151 1135 1175 1223 1145 1183 1225 1265 1140 1202 1212 1192 1180 1292 1190 1171 1231 1191 1168 1241 1221 1299 1204 1232 1244 1156 1206 1142 1142 1211 1176 1204 1272 1124 1195 1206 1164 1181 1170 1239 1179 1148 1227 1150 1216 1114 1121 1193 1225 1176 1229 1199 1181 1209 1212 1163 1132 1184 1154 1245 1148 1163 1260 1273 1212 1181 1188 1212 1153 1181 1178 1217 1186 1203 1147 1226 1125 1198 1202 1226 1209 1239 1157 1204 1192 1189 1099 1186 1183 1193 1242 1183 1151 1174 1097 1258 1211 1240 1227 1246 1181 1162 1230 1173 1149 1186 1133 1191 1217 1296 1187 1149 1216 1242 1221 1220 1151 1230 1169 1179 1191 1240 1211 1195 1197 1121 1182 1205 1167 1203 1197 1223 1271 1180 1187 1235 1148 1207 1241 1232 1207 1191 1206 1213 1189 1228 1244 1159 1221 1238 1275 1246 1129 1164 1176 1250 1271 1205 1191 1189 1212 1258 1258 1214 1133 1288 1201 1215 1209 1247 1210 1200 1279 1258 1247 1227 1285 1283 1283 1215 1201 1199 1241 1252 1263 1292 1244 1216 1212 1186 1234 1281 1244 1283 1296 1236 1271 1250 1298 1222 1339 1288 1247 1343 1235 1241 1275 1207 1303 1327 1276 1246 1280 1234 1284 1270 1267 1219 1211 1243 1206 1248 1293 1265 1239 1183 1265 1246 1283 1259 1236 1266 1296 1292 1239 1278 1245 1253 1286 1280 1244 1224 1292 1310 1142 1244 1260 1250 1302 1226 1234 1161 1289 1280 1224 1188 1240 1245 1273 1190 1223 1196 1290 1211 1237 1270 1252 1271 1147 1189 1141 1204 1191 1263 1165 1258 1203 1202 1191 1206 1182 1230 1157 1241 1218 1214 1163 1215 1238 1247 1270 1190 1170 1184 1265 1202 1284 1339 1230 1186 1210 1185 1230 1225 1194 1223 1275 1287 1233 1235 1171 1219 1242 1204 1239 1207 1195 1227 1228 1231 1205 1245 1273 1287 1216 1237 1244 1250 1255 1219 1264 1157 1208 1223 1213 1259 1240 1204 1228 1214 1281 1220 1185 1219 1209 1266 1213 1215 1244 1165 1187 1166 1281 1268 1281 1272 1203 1228 1191 1227 1207 1178 1225 1227 1188 1191 1161 1214 1212 1190 1236 1232 1248 1261 1209 1222 1229 1183 1254 1293 1298 1224 1186 1260 1241 1260 1263 1262 1272 1274 1221 1329 1263 1309 1245 1322 1318 1297 1285 1281 1244 1302 1287 1224 1320 1280 1364 1270 1285 1274 1228 1254 1256 1356 1373 1269 1267 1276 1263 1287 1344 1288 1259 1282 1321 1327 1220 1268 1316 1296 1323 1289 1338 1292 1380 1369 1268 1286 1323 1376 1289 1391 1393 1368 1342 1410 1390 1354 1417 1389 1397 1448 1381 1439 1385 1461 1467 1390 1436 1371 1397 1443 1456 1364 1456 1497 1473 1434 1444 1480 1450 1497 1424 1403 1434 1461 1464 1373 1524 1431 1401 1421 1523 1439 1447 1442 1414 1381 1390 1452 1411 1450 1378 1394 1354 1331 1317 1371 1322 1378 1318 1342 1344 1273 1321 1244 1291 1303 1211 1320 1324 1271 1264 1282 1251 1295 1256 1233 1226 1258 1330 1232 1281 1237 1229 1245 1271 1227 1222 1338 1234 1266 1286 1236 1246 1283 1221 1291 1190 1262 1181 1243 1295 1263 1218 1225 1209 1224 1232 1228 1244 1196 1186 1277 1239 1179 1259 1204 1251 1261 1293 1276 1289 1356 1315 1323 1323 1295 1287 1274 1242 1334 1302 1337 1257 1266 1331 1279 1300 1293 1215 1321 1252 1307 1247 1312 1300 1284 1201 1303 1292 1279 1229 1312 1258 1235 1285 1275 1237 1264 1201 1240 1259 1171 1176 1227 1240 1213 1255 1177 1288 1224 1205 1200 1236 1228 1179 1265 1231 1219 1217 1233 1226 1260 1156 1171 1250 1306 1218 1220 1121 1208 1196 1228 1210 1261 1222 1218 1234 1202 1211 1235 1240 1203 1214 1200 1225 1196 1166 1182 1156 1211 1210 1240 1253 1180 1252 1244 1272 1240 1183 1205 1182 1204 1204 1177 1183 1217 1265 1207 1159 1247 1217 1225 1206 1247 1202 1177 1231 1232 1196 1230 1220 1219 1194 1208 1193 1245 1230 1243 1200 1235 1161 1163 1164 1175 1167 1291 1286 1238 1248 1208 1254 1220 1190 1240 1205 1190 1160 1179 1252 1277 1251 1206 1230 1219 1197 1190 1141 1277 1166 1236 1197 1286 1295 1200 1208 1158 1235 1211 1210 1220 1260 1248 1222 1192 1239 1245 1180 1186 1222 1283 1215 1172 1214 1246 1277 1223 1183 1249 1272 1241 1213 1179 1133 1244 1243 1255 1197 1241 1202 1187 1187 1183 1140 1201 1218 1176 1204 1180 1143 1163 1140 1247 1114 1147 1138 1108 1154 1173 1204 1165 1144 1227 1144 1221 1220 1159 1173 1160 1186 1209 1149 1200 1180 1190 1243 1140 1190 1157 1155 1145 1085 1207 1130 1162 1184 1118 1132 1182 1179 1129 1213 1173 1118 1174 1143 1172 1202 1178 1142 1210 1231 1166 1188 1108 1169 1177 1201 1129 1168 1159 1180 1211 1198 1145 1158 1145 1144 1137 1208 1202 1192 1124 1185 1212 1166 1175 1192 1154 1239 1240 1178 1181 1117 1206 1186 1213 1163 1169 1154 1138 1153 1207 1127 1203 1172 1154 1203 1178 1208 1184 1200 1250 1155 1146 1121 1173 1270 1170 1179 1156 1124 1238 1185 1250 1093 1132 1144 1129 1162 1221 1143 1189 1137 1191 1206 1147 1136 1168 1161 1119 1164 1152 1182 1138 1164 1164 1221 1112 1202 1146 1142 1192 1203 1212 1201 1129 1184 1199 1175 1141 1184 1157 1192 1125 1227 1145 1173 1172 1216 1213 1150 1153 1156 1190 1111 1137 1199 1182 1213 1193 1130 1140 1168 1210 1227 1160 1214 1121 1179 1146 1163 1181 1180 1182 1184 1181 1164 1186 1187 1176 1191 1130 1211 1168 1185 1243 1158 1203 1122 1107 1176 1145 1182 1157 1140 1182 1169 1129 1135 1153 1195 1142 1141 1111 1169 1092 1210 1162 1216 1129 1203 1212 1203 1197 1109 1183 1167 1155 1143 1146 1194 1143 1195 1214 1252 1215 1160 1134 1202 1183 1168 1118 1182 1179 1123 1142 1129 1152 1100 1166 1174 1179 1196 1204 1191 1122 1219 1139 1219 1179 1093 1125 1128 1173 1120 1159 1169 1216 1206 1171 1153 1152 1185 1175 1198 1168 1177 1160 1177 1156 1249 1261 1125 1191 1232 1187 1136 1159 1235 1119 1169 1223 1194 1152 1170 1192 1163 1172 1232 1096 1164 1253 1171 1112 1172 1257 1243 1214 1182 1269 1208 1162 1215 1172 1212 1198 1165 1195 1214 1172 1219 1190 1196 1241 1195 1208 1186 1172 1222 1280 1200 1234 1220 1218 1189 1132 1215 1205 1164 1112 1192 1202 1181 1174 1233 1173 1243 1213 1149 1194 1175 1206 1169 1165 1201 1163 1249 1120 1218 1141 1173 1231 1165 1208 1212 1185 1200 1193 1177 1227 1233 1185 1153 1171 1196 1200 1184 1138 1201 1170 1203 1200 1210 1168 1163 1152 1199 1205 1177 1199 1148 1117 1140 1199 1170 1119 1148 1160 1166 1167 1196 1181 1195 1127 1118 1144 1146 1165 1192 1247 1218 1177 1145 1129 1151 1222 1216 1176 1112 1120 1154 1225 1184 1130 1172 1160 1148 1155 1157 1125 1195 1192 1162 1215 1165 1130 1249 1214 1182 1156 1168 1212 1249 1187 1186 1212 1166 1173 1115 1134 1090 1164 1148 1202 1197 1135 1119 1166 1185 1209 1132 1186 1217 1224 1180 1184 1180 1180 1210 1191 1139 1194 1239 1191 1220 1175 1168 1132 1174 1180 1124 1157 1173 1262 1175 1067 1205 1159 1192 1178 1215 1178 1119 1192 1211 1205 1130 1183 1109 1247 1139 1223 1169 1216 1201 1203 1113 1238 1213 1217 1193 1169 1135 1136 1147 1167 1138 1194 1176 1134 1216 1202 1221 1191 1185 1167 1180 1158 1187 1245 1212 1189 1215 1162 1209 1156 1146 1239 1207 1153 1162 1221 1227 1214 1208 1119 1241 1173 1197 1204 1210 1206 1215 1205 1136 1183 1143 1195 1217 1198 1183 1245 1175 1093 1126 1210 1238 1238 1169 1244 1194 1244 1203 1254 1216 1141 1179 1188 1217 1203 1225 1256 1264 1234 1271 1220 1257 1266 1238 1245 1188 1280 1262 1285 1212 1284 1323 1299 1319 1338 1311 1282 1295 1262 1304 1298 1330 1226 1266 1304 1252 1315 1263 1289 1345 1263 1339 1344 1341 1341 1374 1334 1330 1340 1317 1313 1299 1395 1310 1300 1304 1343 1356 1334 1356 1372 1326 1314 1348 1388 1333 1337 1280 1308 1317 1335 1310 1349 1319 1375 1353 1305 1282 1273 1279 1257 1246 1216 1291 1296 1289 1282 1291 1278 1328 1276 1254 1266 1323 1217 1218 1199 1259 1245 1267 1213 1215 1156 1188 1184 1240 1240 1211 1262 1147 1203 1196 1226 1203 1239 1159 1195 1155 1269 1215 1172 1107 1176 1186 1210 1220 1162 1113 1146 1172 1275 1142 1194 1183 1184 1213 1172 1185 1146 1180 1214 1221 1250 1221 1260 1169 1206 1191 1203 1205 1237 1190 1214 1178 1199 1176 1178 1275 1235 1188 1285 1230 1216 1230 1229 1262 1168 1218 1180 1187 1136 1237 1172 1211 1179 1226 1191 1250 1152 1136 1194 1236 1191 1191 1254 1227 1208 1232 1189 1172 1165 1127 1182 1158 1129 1191 1156 1151 1270 1223 1164 1296 1197 1133 1191 1183 1186 1218 1195 1177 1255 1209 1137 1200 1178 1196 1129 1188 1200 1194 1156 1170 1169 1169 1177 1237 1182 1207 1157 1181 1150 1054 1212 1146 1153 1152 1238 1194 1160 1179 1249 1177 1206 1175 1164 1188 1198 1137 1237 1162 1135 1185 1227 1178 1203 1199 1198 1191 1222 1183 1136 1180 1164 1165 1199 1148 1151 1200 1128 1171 1216 1176 1188 1154 1153 1202 1157 1150 1188 1131 1188 1184 1238 1255 1149 1198 1196 1170 1155 1144 1232 1223 1153 1208 1236 1193 1171 1210 1173 1142 1121 1107 1149 1162 1157 1121 1157 1152 1133 1174 1170 1206 1166 1194 1215 1165 1123 1149 1092 1156 1161 1167 1211 1159 1194 1153 1130 1169 1157 1148 1172 1209 1146 1084 1228 1142 1134 1171 1165 1125 1161 1189 1105 1106 1183 1192 1244 1136 1197 1181 1151 1121 1161 1115 1202 1138 1180 1121 1138 1191 1152 1112 1163 1117 1163 1079 1157 1138 1144 1187 1135 1209 1117 1180 1127 1116 1170 1144 1117 1175 1153 1181 1130 1117 1177 1098 1133 1155 1113 1168 1147 1145 1174 1142 1121 1133 1147 1117 1141 1127 1100 1149 1143 1168 1143 1159 1155 1172 1193 1192 1197 1144 1107 1151 1181 1044 1125 1114 1151 1162 1147 1142 1206 1200 1236 1157 1132 1193 1150 1085 1169 1210 1177 1145 1101 1086 1130 1145 1145 1170 1137 1158 1130 1165 1141 1179 1147 1160 1140 1160 1136 1137 1131 1153 1181 1221 1188 1160 1106 1089 1134 1178 1118 1137 1138 1113 1152 1186 1183 1090 1119 1145 1131 1175 1124 1145 1125 1084 1147 1176 1167 1064 1135 1134 1213 1098 1179 1172 1179 1188 1167 1127 1124 1135 1121 1150 1084 1138 1085 1173 1206 1178 1123 1209 1154 1140 1129 1170 1225 1166 1112 1230 1105 1197 1194 1148 1166 1144 1171 1105 1141 1188 1174 1224 1104 1158 1146 1135 1181 1163 1190 1128 1152 1154 1147 1168 1162 1195 1130 1195 1178 1140 1102 1209 1195 1142 1156 1145 1134 1109 1114 1161 1207 1147 1168 1140 1190 1184 1098 1167 1109 1126 1168 1115 1068 1167 1136 1111 1113 1179 1170 1210 1179 1156 1142 1137 1115 1144 1159 1159 1121 1119 1130 1149 1215 1121 1223 1126 1152 1116 1229 1139 1154 1126 1147 1127 1201 1144 1203 1141 1171 1072 1157 1125 1154 1188 1210 1129 1199 1150 1155 1166 1148 1162 1251 1173 1105 1146 1087 1192 1184 1185 1190 1191 1194 1121 1093 1166 1165 1096 1171 1159 1189 1135 1151 1230 1143 1118 1187 1081 1156 1184 1110 1230 1206 1187 1192 1176 1207 1175 1151 1136 1163 1200 1177 1208 1214 1146 1173 1261 1176 1150 1205 1135 1196 1151 1158 1174 1155 1185 1217 1166 1221 1157 1115 1151 1182 1153 1187 1192 1183 1180 1155 1210 1163 1169</counts>
			</dataPoints>
		</scan>
	</xrdMeasurement>
</xrdMeasurements>
