<?xml version="1.0"?>
<xrdMeasurements xmlns="http://www.xrdml.com/XRDMeasurement/2.3" xmlns:xsi="http://www.w3.org/2001/XMLSchema-instance" xsi:schemaLocation="http://www.xrdml.com/XRDMeasurement/2.3 http://www.xrdml.com/XRDMeasurement/2.3/XRDMeasurement.xsd" status="Completed" recordIdentifier="{93537FF5-B147-4E51-A94F-98911E07F181}">
	<comment>
		<entry/>
	</comment>
	<sample type="To be analyzed">
		<id>GPSS_Li1p5Fe0p3Nb0p1Mn0p1In0p2Mg0p3Cl4_122325_694ae824ae15af25ac372787</id>
		<name></name>
		<preparedBy></preparedBy>
	</sample>
	<xrdMeasurement measurementType="Scan" status="Completed" sampleMode="Reflection">
		<usedWavelength intended="K-Alpha 1">
			<kAlpha1 unit="Angstrom">1.5405980</kAlpha1>
			<kAlpha2 unit="Angstrom">1.5444260</kAlpha2>
			<kBeta unit="Angstrom">1.3922500</kBeta>
			<ratioKAlpha2KAlpha1>0.5000</ratioKAlpha2KAlpha1>
		</usedWavelength>
		<incidentBeamPath>
			<radius unit="mm">145.00</radius>
			<xRayTube id="1010048" name="Empyrean Cu LFF HR (9430 033 7310x)">
				<tension unit="kV">40.0</tension>
				<current unit="mA">15.0</current>
				<anodeMaterial>Cu</anodeMaterial>
				<focus type="Line">
					<length unit="mm">12.0</length>
					<width unit="mm">0.4</width>
					<takeOffAngle unit="deg">6.0</takeOffAngle>
				</focus>
			</xRayTube>
			<sollerSlit id="21010002" name="Soller slits 0.04 rad.">
				<opening unit="rad">0.0400</opening>
			</sollerSlit>
			<mask id="22031000" name="Fixed mask 13 mm">
				<width unit="mm">9.00</width>
			</mask>
			<divergenceSlit id="22120001" name="Divergence slit 1°" xsi:type="fixedDivergenceSlitType">
				<distanceToSample unit="mm">50.00</distanceToSample>
				<height unit="mm">1.52</height>
			</divergenceSlit>
		</incidentBeamPath>
		<sampleMovement xsi:type="spinningSampleMovementType">
			<spinnerRevolutionTime unit="seconds">1.0</spinnerRevolutionTime>
		</sampleMovement>
		<diffractedBeamPath>
			<radius unit="mm">145.00</radius>
			<antiScatterSlit id="22090040" name="AS slit 9 mm (PIXcel)" xsi:type="fixedAntiScatterSlitType">
				<height unit="mm">9.00</height>
			</antiScatterSlit>
			<sollerSlit id="21020003" name="Large Soller slits 0.04 rad.">
				<opening unit="rad">0.0400</opening>
			</sollerSlit>
			<filter id="20030001" name="Large beta-filter Nickel">
				<material>Ni</material>
				<thickness unit="mm">0.020</thickness>
			</filter>
			<detector id="7010019" name="PIXcel1D-Medipix3 detector" xsi:type="rtmsDetectorType">
				<phd unit="keV">
					<lowerLevel>4.02</lowerLevel>
					<upperLevel>11.27</upperLevel>
				</phd>
				<mode>Scanning</mode>
				<activeLength unit="deg">5.542</activeLength>
			</detector>
		</diffractedBeamPath>
		<scan appendNumber="0" mode="Continuous" scanAxis="Gonio" status="Completed">
			<header>
				<startTimeStamp>2025-12-24T14:57:29-08:00</startTimeStamp>
				<endTimeStamp>2025-12-24T15:05:36-08:00</endTimeStamp>
				<author>
					<name>AutomatedUser</name>
				</author>
				<source>
					<applicationSoftware version="1.7b (136)">PANalytical Aeris Instrument Suite</applicationSoftware>
					<instrumentControlSoftware version="3.2.00000000 20240306">AERIS</instrumentControlSoftware>
					<instrumentID>950485</instrumentID>
				</source>
			</header>
			<dataPoints>
				<positions axis="2Theta" unit="deg">
					<startPosition>10.00943322</startPosition>
					<endPosition>99.99442286</endPosition>
				</positions>
				<positions axis="Omega" unit="deg">
					<startPosition>5.00471661</startPosition>
					<endPosition>49.99721143</endPosition>
				</positions>
				<commonCountingTime unit="seconds">12.495</commonCountingTime>
				<counts unit="counts">2920 2877 2980 2972 2992 2950 2978 2973 2935 3035 2994 2997 2899 2993 2961 3031 2946 2983 3102 3013 2996 2981 2902 3010 3010 3009 2897 2900 2944 3114 3013 3056 3035 3026 2978 3026 3035 3007 2989 3054 3120 3037 3051 3081 3023 3110 3092 3062 3017 3102 3013 3027 3029 3122 3121 3097 3053 3079 3023 3097 2979 2986 3114 3066 3029 3183 2951 3030 2988 3176 3168 3036 3106 3140 3093 3099 3063 3032 3170 3027 3087 3146 3217 3041 3142 3111 3150 2982 3141 3130 3064 3015 3103 3091 3198 3137 3267 3240 3101 3211 3051 3092 3187 3079 3015 3082 3018 3126 3108 3156 3151 3149 3239 3156 3086 3169 3137 3222 3207 3211 3022 3212 3160 3101 3107 3233 3245 3221 3203 3191 3321 3194 3210 3240 3189 3296 3242 3188 3224 3175 3262 3296 3186 3149 3300 3213 3188 3254 3325 3294 3326 3312 3233 3268 3229 3269 3209 3230 3134 3223 3209 3284 3234 3261 3273 3241 3329 3313 3289 3232 3236 3244 3271 3286 3220 3154 3220 3234 3110 3207 3272 3186 3301 3308 3281 3291 3226 3201 3286 3184 3245 3216 3361 3221 3271 3219 3266 3231 3201 3324 3251 3379 3267 3109 3175 3217 3288 3214 3209 3153 3195 3269 3201 3162 3282 3214 3300 3247 3217 3114 3222 3317 3202 3247 3225 3118 3153 3084 3192 3149 3211 3247 3145 3189 3197 3125 3153 3247 3152 3146 3110 3131 3258 3156 3208 3115 3276 3246 3228 3211 3257 3133 3136 3234 3215 3171 3207 3106 3266 3244 3227 3134 3222 3295 3099 3152 3192 3215 3187 3159 3231 3123 3153 3176 3203 3200 3265 3152 3243 3119 3127 3165 3265 3156 3232 3212 3136 3205 3223 3214 3231 3279 3182 3161 3139 3258 3211 3163 3323 3247 3205 3207 3223 3200 3140 3229 3313 3257 3321 3108 3320 3297 3352 3202 3133 3323 3361 3299 3322 3339 3319 3372 3439 3399 3405 3334 3260 3415 3291 3290 3289 3431 3255 3404 3421 3406 3448 3441 3325 3506 3458 3463 3506 3451 3471 3481 3464 3323 3535 3478 3581 3490 3390 3423 3484 3466 3502 3462 3476 3361 3533 3491 3460 3569 3455 3573 3516 3574 3486 3596 3548 3557 3631 3608 3526 3541 3678 3571 3490 3644 3563 3616 3621 3651 3517 3714 3647 3693 3603 3639 3611 3772 3628 3696 3684 3730 3727 3625 3671 3801 3625 3808 3702 3778 3877 3731 3882 3868 3684 3736 3853 3836 3944 3811 4071 3883 4012 4043 4061 4095 4147 4178 4121 4178 4172 4284 4327 4396 4391 4418 4371 4536 4465 4631 4738 4844 4921 4925 5009 5123 5105 5300 5291 5403 5360 5490 5532 5416 5489 5587 5561 5617 5415 5410 5209 5140 5061 4871 4784 4365 4374 4282 4128 3991 3962 3836 3746 3809 3783 3777 3725 3651 3626 3632 3638 3580 3560 3559 3542 3532 3617 3516 3629 3431 3551 3491 3593 3485 3525 3581 3530 3523 3660 3421 3454 3446 3522 3564 3512 3553 3481 3508 3410 3522 3482 3445 3325 3405 3453 3449 3426 3459 3332 3374 3460 3387 3394 3421 3417 3380 3360 3239 3355 3343 3380 3466 3236 3238 3360 3407 3310 3373 3435 3280 3276 3251 3282 3298 3282 3296 3376 3269 3301 3206 3423 3200 3166 3279 3348 3305 3195 3280 3226 3253 3277 3182 3304 3183 3148 3246 3216 3289 3263 3141 3160 3271 3142 3180 3241 3251 3080 3159 3229 3089 3147 3127 3201 3188 3128 3184 3097 3212 3070 3185 3144 3198 3193 3167 3128 3167 3062 3078 3143 3170 3176 3170 3054 3110 3067 3125 3182 3173 3200 3200 3094 3140 3097 3067 3112 3071 3111 3202 3059 3167 3216 3158 3193 3109 3165 3100 3165 3120 3169 3089 3036 3060 3118 2985 3065 3075 3144 2915 3148 2969 2942 3045 3176 2970 3101 3010 3034 2878 3092 3107 2935 2924 3122 3008 3025 3030 2963 2996 3014 3040 3032 3003 3082 2974 3039 3005 2977 3105 3021 3000 3036 2998 3019 3009 3069 3005 2950 2971 3174 3007 2992 3055 3095 2919 3024 2985 2961 2899 2939 2919 2915 2958 2929 2966 2872 3064 2977 3111 2940 2961 2973 2971 2864 2978 2860 2891 2927 2903 2870 2920 2928 2927 2856 2931 2916 2952 2863 3029 2929 2880 2894 2970 2859 2906 2819 2916 2909 2965 2971 2961 2887 2906 2918 2882 2913 2935 2937 2830 2929 2916 2848 2910 2893 2850 2792 2921 2973 2879 2870 2914 2861 2837 2907 2819 2802 2920 2847 2947 2902 2818 2968 2844 2784 2886 2889 2792 2874 2831 2790 2913 2847 2727 2898 2867 2890 2862 2785 2815 2841 2820 2842 2798 2859 2858 2784 2830 2823 2776 2830 2823 2939 2738 2820 2740 2829 2856 2863 2745 2821 2779 2842 2848 2808 2832 2822 2814 2764 2913 2852 2833 2813 2860 2752 2769 2710 2884 2898 2821 2823 2711 2747 2818 2893 2803 2770 2821 2779 2684 2802 2844 2794 2852 2807 2815 2789 2766 2828 2726 2765 2778 2768 2725 2846 2757 2661 2784 2635 2722 2650 2711 2743 2783 2748 2770 2750 2758 2691 2671 2642 2785 2748 2821 2657 2700 2749 2793 2735 2721 2677 2656 2748 2663 2621 2686 2647 2725 2677 2749 2730 2665 2715 2685 2794 2685 2665 2697 2684 2703 2572 2668 2683 2755 2709 2606 2751 2692 2706 2633 2746 2695 2600 2707 2637 2673 2674 2775 2641 2693 2618 2575 2709 2685 2629 2573 2606 2578 2653 2702 2613 2658 2610 2615 2669 2739 2563 2752 2622 2599 2599 2639 2574 2618 2655 2728 2547 2615 2617 2585 2644 2544 2573 2651 2571 2615 2604 2628 2550 2567 2578 2645 2646 2582 2590 2565 2519 2597 2620 2533 2622 2535 2481 2467 2505 2565 2558 2599 2581 2562 2600 2636 2621 2614 2525 2669 2600 2623 2606 2578 2530 2650 2558 2573 2543 2480 2618 2634 2591 2662 2680 2573 2557 2569 2489 2511 2622 2600 2645 2631 2539 2527 2582 2599 2596 2594 2531 2497 2508 2514 2644 2505 2609 2610 2628 2663 2552 2573 2583 2564 2508 2535 2553 2608 2440 2564 2502 2642 2515 2585 2543 2651 2584 2654 2639 2498 2601 2597 2549 2575 2557 2610 2609 2607 2536 2596 2429 2595 2448 2522 2548 2602 2605 2674 2636 2570 2647 2714 2559 2608 2505 2580 2565 2647 2528 2632 2645 2585 2661 2547 2611 2678 2623 2644 2639 2710 2682 2569 2584 2679 2497 2604 2567 2583 2623 2689 2567 2525 2610 2573 2539 2451 2565 2584 2530 2580 2570 2549 2541 2548 2657 2610 2601 2540 2661 2531 2607 2610 2551 2593 2616 2613 2577 2574 2559 2550 2627 2531 2567 2664 2525 2588 2580 2538 2430 2581 2551 2628 2616 2569 2567 2596 2552 2496 2577 2469 2463 2526 2566 2579 2557 2586 2583 2551 2427 2449 2520 2503 2559 2374 2518 2513 2408 2461 2461 2416 2500 2467 2485 2488 2391 2402 2437 2370 2463 2398 2444 2389 2505 2428 2415 2391 2456 2434 2329 2432 2389 2436 2404 2331 2363 2448 2391 2371 2326 2405 2336 2318 2338 2374 2266 2365 2373 2282 2347 2334 2410 2394 2267 2319 2310 2309 2345 2310 2323 2342 2256 2294 2289 2297 2212 2248 2282 2275 2273 2193 2319 2206 2165 2268 2303 2135 2200 2270 2275 2165 2194 2219 2252 2185 2118 2159 2169 2200 2153 2117 2157 2153 2111 2109 2111 2127 2104 2120 2141 2111 2184 2140 2113 2159 2115 2053 2165 2073 2079 1998 2097 2093 2169 2056 2140 2048 2139 2112 2072 2039 2097 2075 2062 2045 2024 2086 2007 2001 2086 2100 2044 2029 2076 2094 2015 2064 2047 2067 2035 2064 2031 2051 1933 2076 2001 1963 1937 1982 2054 1982 2002 2070 1986 1934 1929 1985 2044 2040 2013 2057 2072 1923 1945 2003 1978 1983 1986 2005 1931 1999 1966 2019 2035 1940 1973 1995 2048 2044 1982 2045 1995 1928 1931 1959 1918 2074 1931 1972 1950 1852 2030 2048 1867 1960 1953 1938 1971 2032 1995 1970 1942 1918 1967 1952 1977 1862 1932 1938 1889 1922 2011 1942 1934 1945 1846 1923 1876 1839 1933 1895 1889 1838 1898 1869 1916 1928 1841 1915 1859 1943 1884 1908 1857 1844 1796 1867 1863 1877 1916 1928 1943 1896 1937 1925 1960 1846 1892 1858 1905 1872 1911 1894 1925 1887 1863 1932 2016 1990 1819 1773 1869 1917 1893 1864 1887 2004 1898 1941 1885 1926 1806 1884 1975 1908 1915 1885 1938 1950 1846 1947 1889 1887 1907 1961 1893 2020 1912 1957 1860 1882 1869 1961 1947 1936 1859 1875 1957 1939 1898 1874 1953 1848 1869 1878 1958 1887 1928 1867 2044 1971 1963 1950 1962 1912 1950 2035 1929 1946 1990 1914 1916 1997 1907 1899 1944 1912 1819 1917 1905 1953 1889 1948 1916 1887 1892 1902 1902 1940 1902 1972 1873 1991 1986 1973 1944 1855 1962 1858 1793 1931 1930 1958 1900 1880 1887 1882 1943 1976 1890 1947 1857 1941 2004 1936 1857 1885 1936 1948 1920 2036 1780 1857 1928 1895 1813 1888 1937 1939 1924 1842 1865 1830 1778 1871 1869 1858 1847 1882 1918 1845 1912 1913 1863 1937 1909 1951 1931 1829 1827 1940 1901 1802 1873 1820 1842 1844 1884 1839 1846 1800 1769 1801 1796 1874 1782 1858 1846 1857 1806 1882 1892 1824 1743 1800 1827 1845 1819 1741 1801 1789 1779 1727 1783 1778 1727 1780 1741 1841 1776 1791 1763 1619 1784 1784 1774 1812 1737 1757 1664 1806 1722 1699 1735 1704 1669 1715 1698 1720 1772 1682 1682 1695 1678 1619 1746 1710 1635 1649 1732 1745 1750 1645 1693 1711 1627 1678 1665 1689 1650 1675 1655 1631 1734 1701 1601 1620 1673 1634 1587 1734 1655 1583 1627 1657 1645 1658 1526 1594 1646 1593 1628 1697 1636 1561 1512 1620 1564 1523 1638 1595 1621 1621 1625 1609 1574 1595 1617 1576 1577 1543 1601 1631 1566 1625 1563 1597 1612 1544 1538 1675 1588 1597 1606 1649 1656 1720 1685 1679 1669 1702 1650 1731 1738 1743 1685 1841 1814 1756 1934 1857 1824 1916 1922 1871 1821 1987 1923 1950 2032 2011 2054 2048 2033 2076 2173 2221 2232 2148 2160 2077 2225 2185 2197 2115 2036 2102 1986 1888 1927 1935 1885 1807 1803 1695 1660 1599 1618 1625 1568 1496 1520 1538 1474 1550 1511 1567 1521 1616 1550 1516 1563 1609 1487 1525 1489 1563 1480 1514 1490 1443 1474 1453 1522 1514 1456 1508 1495 1449 1490 1484 1540 1471 1485 1537 1558 1466 1480 1526 1488 1515 1493 1515 1519 1465 1489 1506 1601 1499 1432 1546 1554 1514 1516 1501 1657 1588 1577 1615 1660 1681 1665 1701 1824 1820 1888 1993 2087 2138 2203 2287 2358 2418 2455 2549 2613 2672 2642 2741 2763 2919 2913 3006 3058 3146 3213 3301 3324 3458 3581 3712 3939 4017 4021 4401 4478 4624 4807 4916 4820 4909 4989 4853 4699 4496 4418 4111 3867 3703 3448 3263 3013 2844 2630 2496 2356 2171 2123 2094 2023 1921 1929 1908 1794 1877 1841 1671 1758 1725 1727 1656 1701 1677 1588 1637 1586 1590 1536 1565 1559 1525 1480 1498 1446 1432 1458 1431 1375 1479 1366 1341 1340 1416 1355 1368 1302 1346 1333 1475 1350 1340 1341 1335 1336 1299 1332 1341 1370 1365 1360 1327 1298 1342 1375 1277 1304 1326 1277 1357 1334 1350 1286 1282 1324 1339 1255 1324 1348 1331 1208 1343 1337 1385 1299 1311 1295 1247 1325 1312 1322 1286 1285 1229 1370 1299 1307 1289 1336 1277 1267 1243 1289 1250 1354 1282 1233 1308 1218 1313 1318 1282 1333 1283 1284 1310 1212 1244 1275 1242 1266 1321 1241 1233 1298 1218 1317 1314 1280 1286 1267 1207 1269 1208 1212 1217 1287 1192 1205 1296 1279 1259 1269 1245 1287 1287 1286 1303 1198 1340 1259 1250 1305 1246 1261 1277 1232 1263 1250 1268 1310 1243 1250 1236 1264 1183 1251 1231 1303 1211 1239 1195 1246 1277 1268 1219 1228 1261 1266 1269 1309 1225 1221 1278 1225 1251 1326 1266 1292 1225 1198 1282 1276 1279 1213 1238 1202 1249 1232 1191 1249 1273 1218 1235 1226 1206 1204 1267 1272 1220 1249 1184 1269 1227 1284 1179 1228 1200 1199 1298 1190 1162 1185 1213 1210 1277 1228 1235 1245 1222 1278 1191 1240 1215 1212 1235 1285 1248 1288 1216 1265 1238 1243 1303 1244 1297 1201 1251 1221 1300 1359 1247 1260 1257 1284 1229 1272 1271 1308 1289 1269 1267 1325 1299 1354 1223 1259 1228 1231 1292 1275 1199 1269 1312 1241 1286 1233 1214 1258 1254 1210 1280 1239 1229 1287 1246 1225 1282 1184 1187 1197 1259 1226 1195 1222 1238 1185 1220 1211 1232 1201 1249 1211 1219 1259 1230 1168 1188 1209 1303 1202 1172 1252 1230 1202 1243 1311 1186 1225 1204 1236 1244 1213 1222 1219 1261 1274 1235 1244 1238 1308 1262 1163 1280 1201 1228 1188 1239 1185 1261 1214 1217 1249 1205 1332 1199 1267 1283 1215 1234 1175 1196 1244 1255 1171 1237 1200 1227 1254 1266 1265 1299 1283 1204 1233 1301 1284 1247 1267 1267 1234 1216 1230 1315 1291 1252 1297 1322 1377 1320 1312 1388 1409 1491 1480 1597 1635 1671 1772 1900 1926 2095 2125 2269 2302 2525 2632 2724 2757 2936 3158 3309 3273 3319 3584 3658 3740 3859 3860 4180 4153 4381 4671 4786 4859 5206 5283 5440 5715 5899 6042 6234 6489 6460 6476 6548 6582 6325 6193 5998 5673 5423 5045 4837 4557 4173 3883 3592 3409 3151 2829 2683 2475 2376 2253 2130 2023 2000 1904 1846 1797 1757 1697 1785 1688 1700 1612 1620 1665 1558 1535 1576 1515 1540 1528 1423 1413 1458 1377 1364 1401 1412 1377 1300 1369 1332 1275 1315 1310 1362 1194 1189 1230 1275 1238 1166 1188 1236 1222 1197 1192 1168 1253 1191 1196 1267 1184 1211 1164 1149 1151 1206 1190 1119 1177 1196 1292 1187 1143 1151 1213 1233 1197 1180 1200 1159 1153 1124 1218 1165 1178 1108 1137 1128 1176 1135 1240 1242 1182 1142 1147 1118 1158 1135 1164 1063 1181 1089 1137 1172 1160 1158 1142 1102 1111 1237 1100 1155 1116 1095 1164 1143 1131 1082 1189 1176 1145 1137 1145 1144 1081 1130 1190 1162 1143 1143 1149 1126 1148 1138 1123 1134 1114 1238 1040 1157 1134 1112 1139 1116 1092 1118 1124 1150 1121 1119 1095 1138 1096 1174 1144 1161 1136 1132 1148 1158 1134 1091 1107 1096 1151 1107 1108 1155 1159 1139 1082 1098 1122 1136 1107 1093 1163 1099 1120 1115 1080 1114 1130 1187 1169 1130 1115 1165 1111 1097 1072 1191 1064 1079 1076 1133 1121 1130 1163 1056 1064 1145 1149 1106 1060 1069 1128 1137 1078 1097 1081 1076 1066 1088 1112 1128 1081 1123 1111 1084 1132 1045 1124 1090 1151 1167 1064 1063 1089 1082 1066 1158 1084 1075 1147 1065 1085 1151 1024 1095 1106 1055 1042 1064 1074 1060 1095 1135 1120 1143 1149 1125 1101 1116 1108 1064 1114 1115 1153 1098 1053 1091 1108 1126 1107 1140 1113 1131 1060 1173 1117 1127 1133 1093 1132 1137 1143 1111 1126 1131 1098 1115 1090 1153 1110 1091 1149 1100 1093 1176 1096 1062 1087 1110 1063 1078 1048 1131 1126 1121 1091 1063 1074 1079 1134 1094 1143 1101 1117 1014 1126 1122 1008 1080 1093 1048 1102 1129 1044 1102 1095 1094 1038 1139 1079 985 1071 1079 1063 1054 1058 1073 1046 1096 1075 1070 1043 1038 1038 1082 1023 1093 1037 1111 1062 1085 1054 1004 1047 1094 1071 1104 1044 1079 1058 1081 1059 1003 1020 1033 1064 988 1059 1101 1012 1050 1099 1031 1001 1077 985 1025 1053 1039 1029 1095 1076 1071 1073 983 1082 1026 1006 990 1073 1041 1081 1022 1059 1080 1077 1077 1067 1075 1052 1025 1101 1095 1056 1096 1078 1090 1013 1055 1014 1029 1037 1116 1073 1026 1013 1077 1090 1073 1034 1081 1052 996 1038 1030 1019 1033 1063 1065 1088 1049 1067 1049 1088 1052 1065 1079 1023 1016 999 1024 1014 1066 1044 1045 1022 1073 1005 977 1003 981 1020 1004 1061 1066 1037 1049 1051 1029 1064 973 1033 1059 1009 1040 1098 1109 1102 1045 1020 1062 971 1014 1046 967 1049 1027 1015 999 1074 1016 1036 1035 973 1020 1084 1043 1022 1039 1042 1055 1004 955 1011 1022 985 1145 1025 1100 1043 981 1043 1015 1057 1030 1041 958 1037 1011 1005 1028 939 1044 984 992 1050 950 1025 1034 1077 954 1016 1029 946 1086 1009 1037 1057 1043 1031 1006 977 1011 1010 1021 1037 1059 1041 972 1009 1087 994 995 1004 1025 1041 1033 1065 1007 1047 1044 1045 995 1045 987 1054 1065 1057 983 1051 1046 1032 1018 1037 985 1033 1000 967 996 1035 1013 1044 982 1004 1035 1004 1035 942 1025 1001 980 1016 984 1046 1013 1014 1013 1051 996 982 993 1067 1054 1022 1007 1067 1027 1081 1024 1020 1093 1003 1026 1001 1016 1061 1006 1034 1003 1060 998 1027 1016 1027 1003 968 1086 1036 1065 1045 1053 981 1004 1017 992 1038 1054 1051 1099 976 957 967 986 1017 998 1023 1057 1009 999 1001 1006 1030 1028 1081 1039 1001 991 1024 991 981 1014 1009 1023 1000 1036 984 1019 1056 976 1040 1020 1001 1001 988 984 1025 998 1037 1035 948 1032 998 1095 995 1042 1055 1006 1078 956 1009 1010 985 1022 1031 1013 1043 975 1024 1032 990 978 976 955 975 1053 1023 985 957 1036 1028 1048 1022 1003 1027 1039 1013 1004 969 998 985 1055 995 983 998 1003 1029 997 994 1013 1013 933 1036 1034 1024 1042 1053 1031 1030 1014 1029 1002 990 1024 1021 965 1038 1070 1029 997 1003 1053 1010 1030 1049 1078 1016 948 1009 1010 989 1018 1080 1017 1100 992 1002 1105 978 1040 993 980 997 991 999 1030 973 951 1034 920 1006 979 1049 1015 1002 1037 1060 1057 1047 938 1067 940 1010 918 995 944 999 998 1048 1021 1001 1021 1022 1033 1049 1026 1003 992 974 993 944 1024 1051 994 966 1053 1033 986 1026 1000 999 1001 1047 1019 1006 952 956 1010 987 975 964 1009 987 1002 944 1001 986 1001 1008 1027 993 960 989 963 1013 980 988 996 1002 1033 1010 1029 979 998 981 1011 1054 997 986 1033 942 983 948 1047 1028 993 985 999 985 1041 972 1039 1028 1004 973 1038 993 990 1014 998 1015 963 961 980 1017 971 979 999 1045 1015 1034 1030 1025 1045 1006 1002 992 970 988 1026 1015 1058 1077 957 992 1017 1010 1014 974 1021 1007 999 954 1011 1010 1060 1109 1002 1050 928 1054 991 997 986 994 1048 1018 1017 962 973 1044 964 985 959 966 1036 969 1044 1039 979 1010 923 1037 944 1043 953 1017 965 1016 975 1002 1008 1002 1012 1028 1005 1019 991 1068 1051 1057 1076 1006 1066 1034 1079 1091 1182 1130 1094 1160 1185 1228 1181 1212 1259 1269 1301 1271 1316 1296 1406 1370 1357 1483 1422 1498 1422 1496 1588 1557 1561 1701 1682 1650 1594 1579 1613 1604 1582 1578 1562 1523 1414 1408 1409 1435 1396 1318 1365 1295 1260 1207 1233 1219 1181 1156 1117 1142 1068 1133 1087 1097 1047 1086 1021 1047 1160 1076 985 1007 1039 1039 1073 1006 1036 938 1018 942 995 1035 971 972 964 948 948 989 975 999 994 1006 968 984 985 996 982 958 974 936 995 953 1002 932 995 924 1002 1016 964 979 973 940 1041 1008 993 929 995 973 958 988 969 992 986 1039 1003 983 962 977 956 901 939 969 927 993 910 937 975 1008 957 976 962 993 986 1010 971 1006 963 962 944 1017 956 884 949 1002 969 938 1010 969 994 1007 975 983 963 939 940 974 915 959 975 922 958 987 972 986 1003 1045 983 969 980 954 926 974 919 976 944 986 1017 987 955 948 941 935 980 985 972 993 1023 939 953 948 990 997 976 979 980 929 933 1008 1004 948 968 966 934 1009 999 932 922 939 1041 953 969 1047 965 958 931 996 992 968 931 1005 1004 963 943 987 969 968 952 954 967 990 922 968 985 1022 969 1026 919 983 981 983 1021 968 978 926 972 959 952 926 1075 983 954 988 942 966 938 968 961 1000 1005 1019 968 1024 967 956 983 1006 1038 1039 920 1011 978 1015 1032 979 963 1028 970 1017 989 1002 1015 1009 1003 959 988 953 985 971 979 1016 990 961 1025 970 965 1011 982 1008 974 1020 951 959 941 968 962 1008 963 990 1000 958 1049 940 1054 970 995 1022 1002 969 1015 1013 1020 972 931 953 957 971 1007 1011 917 980 1008 1015 1019 1043 969 1064 977 1038 1012 1031 1070 968 954 988 1016 1020 952 1005 1041 987 1019 1012 1055 1055 1091 1111 999 1007 957 1035 1045 1001 993 1024 1008 1042 1003 1094 1035 1064 1021 1058 1067 1063 1025 1145 1074 1111 1137 1144 1151 1208 1218 1289 1325 1391 1395 1476 1558 1607 1757 1806 1828 2001 2079 2136 2328 2179 2307 2446 2472 2590 2725 2842 2952 3075 3284 3553 3560 3659 3865 3943 4042 4032 4143 4197 4304 4389 4440 4306 4500 4403 4192 4099 4114 3893 3840 3511 3452 3365 3258 3059 2962 2721 2737 2595 2356 2139 2135 1986 1922 1830 1784 1620 1580 1551 1532 1512 1426 1442 1443 1370 1343 1358 1337 1329 1343 1218 1189 1232 1243 1228 1181 1175 1202 1183 1136 1202 1170 1146 1136 1182 1113 1050 1099 1156 1099 1111 1110 1173 1047 1071 1085 1071 1081 1065 1040 1082 1086 1064 1040 1011 1009 1059 1015 1030 1070 1011 1050 1000 990 1031 1008 999 958 988 1064 1002 1014 993 975 978 1036 983 1018 1016 947 960 983 956 968 986 982 1006 933 1023 1010 977 996 936 946 938 964 943 1005 947 1042 946 925 954 995 902 971 970 958 1011 976 932 965 947 931 981 961 937 962 997 945 959 978 975 964 983 973 965 967 968 979 1032 1025 1001 982 899 980 952 925 939 986 974 985 958 976 945 880 900 987 1002 970 942 1021 855 983 950 989 944 991 957 945 931 954 950 971 1026 942 989 988 916 990 938 966 1008 1023 1006 1021 1057 1009 1055 1021 1039 1048 1017 1079 1088 1058 1102 1104 1110 1108 1146 1144 1133 1241 1197 1160 1145 1214 1236 1260 1246 1274 1305 1294 1290 1245 1294 1224 1280 1283 1224 1264 1158 1204 1188 1218 1189 1197 1118 1066 1121 1138 1099 1159 1093 1018 1049 1063 1079 1021 1060 1046 1005 1052 1028 1005 1017 982 944 933 977 960 1012 915 943 957 947 910 995 972 950 954 997 945 953 978 987 935 987 985 942 939 919 935 945 966 986 973 905 931 923 938 918 913 923 940 933 909 1013 931 892 983 965 990 915 994 968 964 931 952 895 933 879 988 930 896 872 935 938 930 958 942 936 909 893 916 948 912 963 963 945 907 925 849 872 908 953 958 985 929 940 943 883 918 898 912 910 934 891 880 941 926 867 901 962 953 952 978 943 912 945 973 933 899 923 924 933 877 916 922 875 904 963 920 973 953 929 926 877 900 936 917 975 935 975 1011 890 896 905 924 902 970 900 936 919 913 963 934 971 928 963 900 958 925 951 957 935 931 848 945 890 881 950 925 936 879 936 944 912 941 925 914 892 913 914 922 855 895 880 836 911 904 916 936 953 897 938 933 900 888 917 878 941 890 906 882 949 901 982 882 916 875 921 905 928 924 909 909 948 877 949 933 897 925 917 929 871 854 906 870 910 876 905 899 948 959 914 936 920 873 920 893 869 920 904 900 910 876 885 931 866 845 895 862 908 941 887 906 934 855 984 850 967 842 890 895 915 839 880 863 964 887 881 870 925 887 901 923 918 947 910 919 877 959 916 878 947 894 853 927 855 835 864 915 907 933 930 889 879 895 890 896 932 856 921 907 873 881 897 897 833 855 940 887 897 915 915 936 859 930 938 859 896 926 877 978 865 835 862 911 876 928 902 902 919 915 885 860 896 909 921 880 856 901 888 930 930 875 924 849 909 890 893 915 919 885 918 922 943 910 918 960 913 935 865 886 900 913 883 856 829 914 900 912 861 933 888 950 879 932 906 903 875 890 905 901 857 932 900 921 846 938 933 858 868 903 886 906 898 874 846 902 881 924 930 863 902 909 880 878 889 917 907 931 846 913 904 927 895 918 948 876 864 899 858 894 903 967 866 815 920 864 872 898 861 912 900 856 908 887 851 937 936 936 907 885 874 877 843 886 863 912 877 912 893 961 892 877 880 954 906 863 907 875 835 859 858 933 936 871 894 894 907 931 905 897 900 883 908 921 882 873 933 868 881 865 870 904 847 910 857 907 914 893 950 880 905 926 911 925 881 917 917 891 922 924 898 948 945 928 888 882 862 892 899 893 921 897 884 865 936 886 867 843 896 922 946 893 944 912 867 891 946 948 887 914 905 928 919 948 910 951 906 956 982 991 945 973 902 935 970 983 970 983 925 970 985 955 934 1042 982 946 965 962 940 1031 963 924 982 1004 944 978 971 950 936 1019 946 954 963 910 912 999 940 982 1005 971 1029 1002 1031 1021 1091 1045 1064 1124 1069 1067 1097 1136 1122 1151 1181 1283 1202 1247 1291 1272 1338 1306 1358 1387 1392 1408 1474 1466 1444 1388 1440 1505 1428 1429 1394 1411 1401 1352 1269 1355 1280 1248 1218 1243 1252 1270 1222 1248 1148 1116 1156 1130 1091 1081 992 1029 1015 1010 1011 957 965 992 1010 956 998 991 995 955 936 938 976 921 916 978 1009 908 905 951 931 926 946 950 913 938 979 952 901 962 930 886 966 912 926 881 893 962 950 980 920 906 932 986 893 958 926 860 927 854 925 889 965 949 913 904 887 892 912 917 942 918 922 905 902 882 909 921 928 887 891 898 893 885 873 883 887 906 853 895 844 899 895 842 917 913 892 931 857 855 898 879 876 906 855 893 928 889 896 828 872 875 816 906 822 880 843 875 895 871 924 909 924 891 844 860 887 855 860 795 887 912 871 877 892 877 834 877 881 902 938 910 870 909 875 890 871 875 884 888 838 877 889 959 912 847 876 895 883 871 859 841 901 918 881 930 833 875 831 903 848 925 899 860 860 946 938 914 886 921 931 904 905 969 861 895 888 923 874 892 911 875 908 875 879 900 899 864 945 983 896 926 897 905 945 914 917 894 854 933 927 927 947 1004 1008 1001 1046 1030 1095 1099 1105 1099 1175 1145 1165 1183 1248 1246 1283 1229 1275 1286 1380 1391 1494 1465 1477 1556 1537 1626 1738 1677 1780 1732 1823 1772 1870 1873 1931 1932 1905 1891 1839 1818 1772 1572 1679 1572 1655 1610 1624 1589 1509 1484 1519 1412 1443 1409 1297 1309 1323 1211 1110 1194 1160 1099 1099 1085 1054 1110 1099 1064 1001 1020 1055 997 996 987 997 923 998 930 948 1034 954 908 954 931 959 915 910 990 928 986 940 951 965 923 920 897 954 986 949 914 956 897 907 917 869 886 941 965 903 899 869 894 917 872 892 875 865 921 920 910 863 904 871 880 876 870 826 933 852 919 866 885 854 861 842 864 898 880 894 917 901 871 926 877 864 928 881 831 867 925 899 851 879 837 886 884 894 894 880 908 897 863 918 868 874 874 869 867 852 873 860 884 904 870 874 886 883 873 883 872 876 889 848 917 877 826 877 920 869 882 924 936 906 842 861 886 886 870 837 934 907 928 939 914 955 961 926 915 948 984 973 993 965 1029 969 967 1041 1002 1002 1018 1023 957 996 1027 1017 1138 937 1124 1066 1080 1036 1074 1087 1122 1052 1031 1007 976 995 1059 977 1025 1028 1009 994 961 979 1000 930 908 963 914 947 944 940 881 865 934 941 950 922 882 937 894 921 879 891 890 887 906 899 868 877 846 910 920 867 929 894 906 872 876 857 868 864 852 837 909 845 907 864 857 868 891 866 864 886 958 896 880 904 872 898 902 868 863 866 903 851 834 857 822 842 903 878 863 862 913 891 894 868 782 865 844 842 809 841 814 817 892 858 877 902 820 853 874 858 852 840 860 838 898 880 867 897 835 876 835 878 903 860 865 874 867 883 830 891 821 875 888 814 899 899 898 905 853 834 869 851 877 832 851 817 901 797 835 844 909 881 861 796 855 851 848 841 843 854 871 808 842 828 887 906 844 848 832 848 881 864 864 868 880 847 897 855 847 853 826 849 861 824 826 861 843 875 824 859 852 846 889 907 827 819 894 819 848 828 862 815 806 851 862 813 894 826 886 781 829 912 841 814 882 860 836 858 849 851 885 905 834 854 858 830 890 795 880 834 836 838 819 819 875 836 842 867 884 898 816 858 829 825 861 860 836 834 846 853 921 856 870 849 837 843 846 864 832 855 780 830 872 875 815 885 873 818 821 814 853 841 841 871 814 814 858 830 801 898 849 865 862 862 828 900 886 880 787 859 861 847 828 811 840 820 853 799 846 849 878 817 869 893 814 810 819 821 799 909 861 877 901 870 866 850 854 849 849 844 844 841 853 901 830 871 844 911 800 889 837 817 824 847 831 795 834 891 813 878 857 817 890 846 853 835 842 835 873 887 854 870 870 879 852 813 855 823 924 912 844 851 844 822 831 817 882 839 810 869 815 862 845 848 833 808 886 866 902 951 903 872 897 846 848 830 837 803 855 807 845 811 845 818 825 851 811 850 844 845 799 838 799 835 841 874 905 869 805 810 834 829 896 833 838 777 840 850 887 832 857 874 832 841 821 834 786 877 851 832 854 901 850 880 847 838 847 867 826 804 794 836 823 863 848 807 872 851 822 892 882 866 815 827 832 789 890 821 845 873 822 878 895 839 849 849 894 805 845 812 875 833 864 913 823 815 811 838 864 868 884 835 858 889 897 913 871 912 902 938 937 884 965 909 933 985 898 997 960 958 961 979 981 944 1020 976 908 956 933 952 936 903 933 954 985 933 933 841 910 820 958 874 883 924 864 887 895 932 959 875 887 802 883 829 893 875 860 858 860 868 822 858 911 824 905 897 844 861 852 845 803 874 860 790 839 850 855 831 862 843 822 871 845 847 793 872 842 808 881 825 912 819 835 797 879 858 829 838 859 872 834 827 845 870 853 812 868 819 896 841 871 872 855 829 836 833 849 844 823 787 794 852 847 793 802 832 745 809 842 808 869 831 816 856 855 846 851 818 828 810 851 846 868 808 849 836 845 836 834 870 851 860 795 826 909 804 829 842 857 868 892 789 852 844 875 798 756 807 837 889 807 896 787 825 864 854 845 822 819 821 827 896 878 794 844 875 863 779 818 837 795 855 849 852 863 867 791 838 885 814 835 797 869 828 842 811 839 866 787 851 848 858 835 863 848 861 872 871 812 812 813 853 797 863 815 806 884 819 822 861 859 840 895 810 794 820 882 844 813 804 826 857 846 858 792 808 836 828 862 847 802 883 798 839 846 855 832 845 823 859 824 825 803 814 825 826 820 829 825 841 821 850 793 879 866 891 838 840 806 839 837 833 860 891 865 816 865 889 829 910 907 834 839 882 879 852 839 909 914 920 903 951 920 934 861 926 951 954 922 1026 976 992 949 1033 1090 1068 1089 1023 1092 1061 1071 1132 1094 1105 1156 1173 1164 1121 1169 1161 1172 1143 1144 1143 1104 1113 1100 1124 1023 1067 1154 1122 1074 1059 1059 1008 1004 1065 990 925 1080 973 996 962 988 955 951 945 935 960 950 916 930 897 915 914 868 897 946 949 921 861 928 888 945 878 943 867 869 856 867 862 888 860 856 848 885 803 868 816 866 819 854 868 784 874 865 859 849 852 791 838 872 903 840 868 881 873 927 842 851 880 870 863 831 862 821 881 865 799 852 866 809 857 839 872 856 791 841 810 802 860 850 775 760 795 827 854 853 881 899 861 821 784 830 811 824 859 817 872 845 821 868 842 852 808 881 812 809 806 875 805 824 852 869 836 834 848 817 849 839 844 805 910 842 796 778 827 824 874 839 832 844 838 785 845 836 821 801 885 810 838 811 862 802 841 825 854 857 832 869 901 819 845 848 871 833 858 873 807 858 834 811 846 826 848 817 863 835 888 888 893 795 886 845 858 819 853 854 906 802 811 825 865 843 808 859 816 849 863 862 802 831 813 766 832 816 832 823 833 822 792 831 786 821 839 805 856 852 811 830 810 836 877 780 815 829 841 832 844 826 850 795 797 824 851 769 792 861 876 846 864 784 852 832 865 867 814 865 849 794 805 845 824 827 826 817 831 827 860 818 856 792 837 837 852 878 845 827 831 826 848 813 811 848 853 783 856 855 817 881 843 809 849 831 836 819 842 816 865 799 826 831 861 830 795 871 872 850 846 827 845 877 809 792 828 804 848 847 831 744 866 847 917 804 851 811 835 795 805 873 861 860 842 816 814 821 823 842 830 835 796 849 857 811 839 843 814 847 765 786 808 799 837 824 847 859 809 837 842 861 900 759 841 809 764 876 830 833 818 843 738 838 864 862 802 820 843 817 822 876 829 813 827 822 868 870 808 795 868 816 806 845 880 843 820 858 848 848 839 795 831 892 850 793 821 857 868 863 831 796 844 852 835 831 867 801 825 817 855 845 794 811 819 811 808 853 848 837 872 850 850 869 808 835 876 798 867 884 936 814 830 839 841 851 800 782 818 819 840 823 773 797 797 867 840 836 849 833 866 863 816 789 851 815 824 847 841 848 841 830 821 874 806 857 797 833 822 822 823 863 825 831 848 819 915 828 840 817 800 844 838 880 846 802 810 857 885 883 809 793 854 801 818 849 857 850 792 862 822 809 840 815 807 843 811 838 841 867 865 861 810 856 857 801 788 822 860 854 870 797 787 834 836 862 844 842 840 831 865 848 803 857 825 862 833 832 865 781 828 878 852 851 832 864 848 891 860 807 855 845 829 820 817 796 787 810 876 830 890 835 837 833 831 858 850 823 878 863 801 843 823 831 850 871 813 808 820 854 905 871 878 854 835 868 849 783 852 858 863 827 822 881 839 827 860 875 859 861 837 811 874 864 826 871 847 849 833 838 852 798 893 874 858 850 878 814 884 842 936 866 885 951 859 878 871 924 906 857 957 924 944 906 893 818 924 900 954 857 971 949 878 947 921 959 916 902 906 917 841 884 897 895 902 975 893 913 911 923 897 883 915 892 938 897 942 830 921 814 893 883 927 912 893 916 958 899 911 919 883 912 966 942 953 946 1010 960 927 953 991 875 988 962 949 932 1041 981 1040 981 1028 1039 1017 998 1014 1002 986 969 951 967 946 957 988 921 1009 935 941 1010 898 996 930 932 928 960 964 938 928 928 925 863 935 924 906 880 834 896 858 885 909 880 865 886 874 895 865 881 905 899 857 849 883 849 885 899 876 897 858 820 922 869 889 887 877 880 902 863 796 886 836 871 870 868 928 884 878 878 891 823 883 879 823 880 834 864 865 842 840 882 833 892 861 915 877 833 813 867 849 849 842 878 820 826 857 878 905 849 876 865 841 863 874 851 849 880 910 813 823 842 837 877 838 805 878 829 825 870 856 836 841 829 901 841 842 880 897 830 829 844 850 894 799 839 851 840 824 838 849 862 907 858 874 864 923 898 865 917 822 838 860 823 900 881 894 890 889 818 869 863 900 877 871 851 865 892 887 871 839 770 829 819 849 868 873 876 942 880 880 873 947 882 837 867 947 889 877 975 906 879 912 940 976 916 965 950 990 1014 1037 1000 1059 1090 1137 1126 1148 1138 1118 1246 1159 1173 1251 1226 1249 1325 1289 1355 1392 1475 1443 1469 1484 1484 1473 1492 1610 1466 1439 1474 1548 1475 1429 1516 1535 1448 1474 1454 1431 1395 1447 1359 1389 1361 1320 1356 1273 1312 1332 1299 1297 1314 1232 1237 1231 1240 1187 1157 1161 1108 1155 1093 1084 1080 1038 1063 1033 1062 955 1017 999 1019 978 976 942 955 997 917 947 911 901 937 995 995 931 864 951 938 978 917 923 886 909 876 910 914 845 907 924 876 906 880 893 864 906 869 913 918 905 841 892 917 922 914 895 877 907 900 917 881 856 870 864 883 909 862 894 853 877 867 894 885 919 879 892 911 864 842 893 909 813 830 854 868 898 943 867 895 925 867 865 881 842 841 873 855 900 891 858 885 868 859 829 867 873 864 843 833 856 831 850 864 850 884 876 885 868 885 882 863 874 907 869 968 848 901 886 849 876 861 878 863 910 910 887 921 935 870 924 913 939 959 907 891 913 947 875 891 871 858 885 847 904 890 839 893 912 902 903 813 914 829 922 918 863 879 838 903 916 900 880 871 862 854 910 936 857 793 826 833 908 862 836 804 835 836 849 867 861 874 831 849 874 868 853 812 886 873 859 826 874 832 839 821 865 852 833 878 837 862 837 854 889 873 865 924 834 848 847 862 841 844 860 865 800 876 840 870 923 821 851 862 814 885 810 872 859 815 834 832 845 857 811 847 839 823 868 809 809 843 819 827 827 811 847 855 823 898 857 859 863 852 865 840 807 834 842 886 845 837 829 854 862 818 852 789 828 856 845 850 859 876 845 840 888 845 843 894 860 810 891 763 903 816 827 868 820 853 840 819 802 868 788 906 853 879 853 798 804 840 872 795 882 801 850 821 838 773 836 811 825 857 851 892 828 813 866 763 846 814 866 796 837 818 883 862 830 842 822 883 862 840 858 849 834 799 859 841 835 793 909 850 860 863 882 827 845 838 860 851 833 812 877 798 845 866 885 834 842 880 840 861 901 875 878 801 881 853 807 845 860 842 832 803 818 804 834 850 822 785 812 844 843 834 835 783 890 881 846 849 822 883 828 829 862 836 832 811 830 833 856 864 843 837 823 843 839 870 830 854 831 847 855 817 850 866 796 862 847 880 867 873 845 797 872 835 830 845 852 831 833 810 865 865 842 862 775 839 861 842 851 844 800 840 807 866 851 864 824 843 877 840 827 827 813 757 815 869 834 878 832 823 832 909 831 793 826 884 870 781 860 881 851 812 823 847 838 830 809 877 802 854 819 850 804 782 806 823 808 902 850 893 813 814 850 887 839 812 788 834 812 813 829 841 862 853 824 887 829 788 889 829 794 816 830 778 836 830 820 884 881 863 867 830 782 833 868 840 870 874 849 860 823 865 874 859 877 843 850 835 786 807 843 929 792 864 860 814 800 799 830 827 844 858 842 851 836 880 851 885 843 866 854 843 806 871 871 814 855 856 881 873 861 920 921 837 924 877 879 917 888 924 940 904 873 934 895 891 921 947 858 939 946 903 954 939 925 965 873 921 923 894 861 889 876 916 835 874 897 908 907 871 952 904 919 876 907 876 947 909 818 889 881 893 837 861 852 889 900 868 817 821 844 845 848 830 867 806 855 817 820 846 831 791 869 882 853 822 863 803 861 821 861 819 817 811 855 826 889 831 837 886 864 882 844 867 874 793 842 837 834 880 849 829 872 830 884 859 830 807 861 826 820 809 855 853 866 813 828 846 864 806 832 880 865 842 890 809 844 831 893 807 834 824 848 873 801 820 835 859 834 830 836 866 834 831 842 838 795 825 826 815 870 868 877 843 847 857 840 878 863 862 861 828 798 808 843 809 837 843 849 904 836 890 879 877 832 829 819 845 905 842 836 804 815 840 799 805 834 817 861 869 855 840 800 807 846 876 816 883 880 827 843 873 836 866 848 822 840 872 853 826 855 794 815 805 845 865 837 784 854 801 846 841 854 895 829 871 807 908 858 875 876 861 812 823 812 853 846 881 840 830 831 853 897 848 914 849 875 855 850 830 856 817 807 858 901 849 840 900 836 902 884 860 877 873 930 858 873 863 908 850 864 894 915 923 879 990 965 962 901 983 991 1032 1010 970 1019 1031 962 1024 1008 1016 1077 1184 1138 1116 1187 1179 1200 1178 1266 1262 1255 1249 1279 1254 1267 1310 1270 1365 1330 1254 1330 1297 1323 1332 1287 1226 1315 1264 1271 1189 1292 1257 1231 1249 1214 1208 1175 1204 1148 1234 1176 1179 1144 1143 1196 1128 1151 1060 1064 1092 1151 1145 1114 1061 1111 1039 1058 1083 1006 1046 957 999 976 1007 957 928 1002 942 983 994 878 944 962 930 910 898 871 932 901 909 935 887 897 835 886 924 930 947 920 892 872 903 884 874 883 930 867 880 865 870 864 945 930 867 856 883 878 869 866 902 889 919 874 877 850 800 894 841 898 843 879 882 844 896 874 836 869 868 878 822 897 913 886 899 885 893 862 901 828 828 912 868 839 922 892 846 849 877 824 859 867 868 825 901 854 853 878 863 947 869 824 887 882 928 847 831 920 924 857 862 868 876 890 791 833 878 865 848 909 863 828 884 880 878 903 866 888 878 872 838 872 887 852 882 907 799 855 854 850 852 867 928 899 842 874 883 876 830 846 874 885 859 900 864 857 867 851 801 900 866 835 854 826 853 883 885 857 835 839 866 848 853 843 840 843 799 852 857 867 857 858 812 821 806 875 848 835 857 853 854 840 856 787 834 880 841 808 880 860 845 831 891 890 795 903 864 850 930 835 851 829 821 823 886 862 906 834 858 869 864 841 828 855 857 858 853 841 825 829 838 828 819 863 854 853 814 827 871 807 832 850 837 842 781 836 822 865 840 813 790 875 866 833 878 832 866 797 816 840 894 839 847 846 835 875 814 827 867 826 784 862 867 877 825 828 879 828 858 823 830 870 845 869 830 804 804 850 835 845 819 813 861 822 790 874 821 867 833 876 858 853 845 827 846 848 864 858 820 828 823 817 811 872 839 849 892 870 853 857 836 801 834 825 804 826 848 813 899 866 845 859 839 850 829 827 896 845 810 876 844 836 815 796 802 771 809 800 848 784 865 861 889 889 891 835 817 873 875 858 874 867 813 896 822 823 842 799 846 846 836 825 860 895 843 863 798 846 808 869 835 854 833 841 823 862 833 831 842 868 870 861 822 811 862 834 870 830 821 883 817 831 818 915 865 848 900 830 866 850 828 835 834 846 823 877 831 847 822 844 837 846 861 762 804 877 806 859 861 806 854 841 838 874 836 853 850 841 824 833 855 859 865 871 837 870 815 840 813 842 838 863 835 826 897 888 862 874 826 805 819 851 896 828 860 808 870 836 859 893 859 811 860 793 788 822 852 902 806 816 851 871 846 836 846 866 862 882 818 878 832 888 842 857 813 842 845 825 852 814 835 846 833 822 855 829 833 820 877 864 805 794 884 781 877 897 880 825 821 856 886 842 823 760 829 838 838 799 830 858 813 834 839 847 826 853 844 859 838 865 855 817 911 826 802 907 799 827 895 818 827 839 867 781 838 882 851 846 913 804 873 900 852 911 879 910 890 892 874 870 866 860 922 842 882 909 889 915 883 856 915 954 927 925 931 897 931 936 886 980 890 915 956 935 991 968 978 929 992 922 1015 955 898 938 935 916 901 901 912</counts>
			</dataPoints>
		</scan>
	</xrdMeasurement>
</xrdMeasurements>
