<?xml version="1.0"?>
<xrdMeasurements xmlns="http://www.xrdml.com/XRDMeasurement/2.3" xmlns:xsi="http://www.w3.org/2001/XMLSchema-instance" xsi:schemaLocation="http://www.xrdml.com/XRDMeasurement/2.3 http://www.xrdml.com/XRDMeasurement/2.3/XRDMeasurement.xsd" status="Completed" recordIdentifier="{04F78A3E-89E1-401C-972A-593249DA00C7}">
	<comment>
		<entry/>
	</comment>
	<sample type="To be analyzed">
		<id>GPSS_Li1p6Mn0p875Zr0p05V0p15Cl4_111725_691b7e20f3837ac4a0a99380</id>
		<name></name>
		<preparedBy></preparedBy>
	</sample>
	<xrdMeasurement measurementType="Scan" status="Completed" sampleMode="Reflection">
		<usedWavelength intended="K-Alpha 1">
			<kAlpha1 unit="Angstrom">1.5405980</kAlpha1>
			<kAlpha2 unit="Angstrom">1.5444260</kAlpha2>
			<kBeta unit="Angstrom">1.3922500</kBeta>
			<ratioKAlpha2KAlpha1>0.5000</ratioKAlpha2KAlpha1>
		</usedWavelength>
		<incidentBeamPath>
			<radius unit="mm">145.00</radius>
			<xRayTube id="1010048" name="Empyrean Cu LFF HR (9430 033 7310x)">
				<tension unit="kV">40.0</tension>
				<current unit="mA">15.0</current>
				<anodeMaterial>Cu</anodeMaterial>
				<focus type="Line">
					<length unit="mm">12.0</length>
					<width unit="mm">0.4</width>
					<takeOffAngle unit="deg">6.0</takeOffAngle>
				</focus>
			</xRayTube>
			<sollerSlit id="21010002" name="Soller slits 0.04 rad.">
				<opening unit="rad">0.0400</opening>
			</sollerSlit>
			<mask id="22031000" name="Fixed mask 13 mm">
				<width unit="mm">9.00</width>
			</mask>
			<divergenceSlit id="22120001" name="Divergence slit 1°" xsi:type="fixedDivergenceSlitType">
				<distanceToSample unit="mm">50.00</distanceToSample>
				<height unit="mm">1.52</height>
			</divergenceSlit>
		</incidentBeamPath>
		<sampleMovement xsi:type="spinningSampleMovementType">
			<spinnerRevolutionTime unit="seconds">1.0</spinnerRevolutionTime>
		</sampleMovement>
		<diffractedBeamPath>
			<radius unit="mm">145.00</radius>
			<antiScatterSlit id="22090040" name="AS slit 9 mm (PIXcel)" xsi:type="fixedAntiScatterSlitType">
				<height unit="mm">9.00</height>
			</antiScatterSlit>
			<sollerSlit id="21020003" name="Large Soller slits 0.04 rad.">
				<opening unit="rad">0.0400</opening>
			</sollerSlit>
			<filter id="20030001" name="Large beta-filter Nickel">
				<material>Ni</material>
				<thickness unit="mm">0.020</thickness>
			</filter>
			<detector id="7010019" name="PIXcel1D-Medipix3 detector" xsi:type="rtmsDetectorType">
				<phd unit="keV">
					<lowerLevel>4.02</lowerLevel>
					<upperLevel>11.27</upperLevel>
				</phd>
				<mode>Scanning</mode>
				<activeLength unit="deg">5.542</activeLength>
			</detector>
		</diffractedBeamPath>
		<scan appendNumber="0" mode="Continuous" scanAxis="Gonio" status="Completed">
			<header>
				<startTimeStamp>2025-11-20T12:00:12-08:00</startTimeStamp>
				<endTimeStamp>2025-11-20T12:08:19-08:00</endTimeStamp>
				<author>
					<name>AutomatedUser</name>
				</author>
				<source>
					<applicationSoftware version="1.7b (136)">PANalytical Aeris Instrument Suite</applicationSoftware>
					<instrumentControlSoftware version="3.2.00000000 20240306">AERIS</instrumentControlSoftware>
					<instrumentID>950485</instrumentID>
				</source>
			</header>
			<dataPoints>
				<positions axis="2Theta" unit="deg">
					<startPosition>10.00943322</startPosition>
					<endPosition>99.99442286</endPosition>
				</positions>
				<positions axis="Omega" unit="deg">
					<startPosition>5.00471661</startPosition>
					<endPosition>49.99721143</endPosition>
				</positions>
				<commonCountingTime unit="seconds">12.495</commonCountingTime>
				<counts unit="counts">3501 3556 3521 3617 3463 3547 3562 3504 3455 3449 3452 3570 3615 3601 3493 3579 3547 3491 3636 3599 3514 3537 3536 3654 3694 3602 3566 3728 3582 3656 3678 3650 3726 3660 3570 3667 3675 3717 3721 3742 3756 3696 3637 3676 3783 3784 3675 3834 3794 3844 3765 3753 3732 3823 3784 3784 3852 3752 3826 3752 3962 3864 3845 3960 3841 3889 3814 3902 3834 3968 3994 4003 4021 4040 3962 4009 3987 3980 4061 3924 3985 4006 4061 3903 4053 4032 4102 4175 4120 4225 3992 4165 4117 4142 4236 4257 4326 4259 4226 4381 4153 4299 4285 4090 4230 4160 4271 4174 4209 4195 4159 4320 4275 4295 4413 4362 4288 4338 4250 4395 4230 4299 4359 4353 4415 4266 4373 4392 4391 4373 4501 4348 4368 4359 4317 4315 4284 4396 4321 4305 4415 4284 4295 4360 4349 4397 4402 4480 4339 4366 4383 4336 4380 4302 4445 4371 4384 4322 4397 4415 4402 4450 4336 4433 4464 4290 4376 4459 4531 4429 4435 4419 4389 4397 4355 4381 4320 4302 4284 4417 4241 4369 4360 4414 4409 4475 4291 4375 4339 4445 4369 4331 4413 4458 4287 4342 4417 4265 4427 4306 4283 4432 4355 4389 4331 4347 4286 4311 4268 4465 4230 4351 4407 4353 4383 4217 4265 4300 4259 4167 4340 4295 4239 4156 4260 4356 4179 4214 4326 4341 4258 4398 4202 4200 4310 4247 4203 4097 4297 4217 4182 4182 4328 4082 4118 4237 4134 4139 4177 4186 4094 4043 4123 4256 4184 4146 4213 4086 4044 4029 4084 4091 3997 4040 3989 4096 4053 4052 4143 4067 4009 4039 4063 4005 4030 4088 4021 3888 4138 4001 4010 3977 3914 3993 4012 3979 3982 4014 3979 4012 4044 4063 4026 4021 4096 4031 4080 4024 4023 4028 3971 3967 3927 3958 4051 3902 4051 3908 3983 4112 4092 4011 4147 3991 4025 3971 4057 3944 3993 3969 3869 3971 3993 3977 3928 4026 3892 3903 3875 3990 3860 4017 3976 3948 4127 3924 3947 3870 4024 3896 3951 4011 4026 4021 4001 3947 4040 4049 3985 3925 4119 3955 3939 3917 3957 3999 4063 4137 4104 3964 3932 4022 4070 4013 3978 4051 4060 4062 4046 3988 4068 4128 4203 4014 4107 4109 4001 4048 4122 3933 4013 4087 4028 4010 4096 4144 4065 4075 4220 4036 4134 4081 4107 4192 4301 4200 4286 4246 4256 4337 4417 4361 4529 4412 4537 4423 4572 4543 4632 4663 4740 4907 4927 4882 5186 5071 5397 5479 5489 5539 5666 5612 5739 5720 5626 5530 5552 5457 5243 5113 5259 5071 5194 5180 5169 5345 5279 5338 5348 5327 5492 5507 5478 5374 5218 4974 5025 4804 4670 4647 4524 4424 4470 4354 4188 4246 4278 4341 4251 4250 4445 4474 4445 4465 4411 4515 4552 4491 4409 4567 4391 4498 4360 4372 4311 4379 4507 4525 4557 4434 4444 4567 4503 4582 4625 4621 4551 4679 4351 4460 4252 4360 4242 4190 4117 4133 4146 3903 4024 3918 3872 3786 3843 3894 3793 3781 3677 3716 3799 3683 3665 3717 3738 3737 3674 3700 3672 3655 3622 3693 3554 3633 3586 3705 3568 3572 3600 3515 3568 3643 3546 3579 3426 3472 3495 3511 3541 3621 3717 3492 3616 3560 3562 3586 3517 3449 3532 3494 3409 3466 3463 3425 3549 3518 3458 3474 3507 3430 3374 3517 3412 3516 3374 3397 3384 3435 3356 3434 3426 3396 3389 3378 3338 3500 3395 3445 3492 3392 3414 3454 3328 3347 3413 3279 3354 3410 3488 3296 3367 3254 3281 3331 3384 3399 3423 3396 3313 3364 3359 3366 3282 3256 3432 3344 3261 3207 3268 3293 3201 3287 3254 3245 3247 3210 3357 3383 3236 3320 3336 3248 3214 3235 3223 3187 3201 3204 3292 3203 3230 3356 3180 3250 3265 3198 3285 3177 3237 3230 3292 3283 3240 3167 3227 3263 3269 3216 3216 3203 3304 3294 3221 3185 3338 3234 3251 3136 3179 3178 3179 3198 3317 3113 3263 3183 3183 3104 3161 3114 3325 3182 3231 3162 3272 3199 3131 3262 3179 3210 3202 3255 3168 3113 3270 3128 3145 3167 3274 3177 3244 3101 3159 3167 3173 3100 3271 3193 3214 3089 3056 3122 3138 3097 3112 3089 3266 3113 3180 3110 3167 3139 3219 3135 3015 3160 3120 3131 3092 3063 3129 3008 3117 2993 3168 3156 3051 3075 3114 3030 3098 3123 3094 3107 3117 3123 3152 3120 3093 3128 3137 3087 3099 3128 3127 3005 3074 3081 3047 3061 3085 3000 3152 3079 3046 2978 3036 3060 2989 3125 3015 3131 3116 3046 3087 3103 3073 3093 3039 3118 3062 3001 3042 3048 3102 3051 3097 3014 3103 3080 3103 3130 3019 3045 2977 3107 3047 3204 3048 3057 3033 3068 3046 2971 3072 3058 2961 2993 3088 3077 3055 3027 3021 3032 2988 3043 2929 2983 3000 3027 2913 3011 3087 2951 3124 3092 3018 3019 2984 2941 3044 3002 3023 2991 2930 2868 3038 2969 2806 2997 3017 3015 3015 2979 2982 2958 3008 2924 2981 2973 3038 2983 2909 3010 2968 2974 2873 2965 3009 2932 2972 2970 2994 2857 2872 2849 2879 2910 2971 2881 2896 3007 2944 2969 2974 2904 3025 2951 2886 2937 2859 2873 2985 2908 2810 2829 2870 2848 2860 2869 2998 2784 2901 2873 2862 2884 2919 2838 2975 2903 2873 2909 2889 2854 2983 2956 2979 2864 2886 2890 2887 2877 2816 2865 2851 2859 2868 2903 2927 2931 2838 2891 2799 2830 2826 2771 2860 2840 2912 2881 2862 2767 2918 2905 2800 2819 2809 2901 2851 2836 2883 2755 2916 2750 2831 2782 2836 2867 2849 2849 2790 2778 2818 2788 2869 2786 2810 2777 2784 2867 2938 2815 2869 2874 2849 2870 2848 2771 2779 2892 2826 2816 2759 2936 2806 2813 2814 2806 2834 2806 2776 2805 2740 2805 2751 2826 2753 2855 2718 2785 2742 2857 2737 2813 2769 2750 2846 2823 2705 2722 2804 2765 2752 2824 2843 2719 2703 2876 2758 2767 2753 2667 2888 2871 2803 2877 2788 2865 2792 2752 2780 2774 2708 2787 2724 2806 2804 2740 2887 2778 2761 2809 2800 2735 2670 2863 2716 2771 2780 2698 2783 2811 2860 2736 2821 2772 2746 2830 2859 2796 2841 2802 2808 2760 2751 2698 2733 2733 2761 2775 2736 2807 2685 2827 2757 2841 2784 2817 2778 2839 2833 2716 2695 2762 2660 2761 2771 2675 2723 2773 2752 2783 2829 2730 2908 2824 2783 2743 2801 2792 2799 2774 2734 2844 2792 2831 2750 2834 2801 2931 2742 2640 2790 2772 2734 2769 2783 2828 2827 2849 2728 2832 2761 2760 2730 2751 2857 2752 2619 2871 2689 2752 2822 2755 2775 2716 2605 2706 2750 2822 2732 2706 2756 2718 2688 2752 2764 2628 2709 2787 2702 2686 2636 2724 2763 2717 2694 2808 2685 2698 2653 2672 2690 2615 2584 2580 2616 2623 2576 2583 2546 2592 2687 2736 2549 2723 2636 2693 2585 2668 2631 2674 2570 2603 2592 2637 2560 2682 2642 2735 2533 2545 2515 2617 2462 2474 2460 2554 2530 2483 2597 2548 2621 2486 2499 2482 2499 2610 2401 2495 2451 2437 2481 2524 2438 2531 2409 2498 2461 2455 2489 2454 2413 2442 2410 2431 2342 2343 2367 2402 2349 2378 2435 2358 2560 2303 2375 2366 2388 2356 2418 2315 2402 2361 2386 2382 2442 2310 2468 2375 2342 2358 2312 2416 2336 2384 2386 2215 2350 2262 2299 2376 2300 2290 2254 2342 2288 2332 2253 2243 2308 2266 2264 2306 2197 2242 2220 2299 2268 2225 2264 2227 2197 2283 2244 2275 2300 2276 2267 2238 2267 2196 2153 2277 2182 2273 2263 2158 2241 2194 2186 2314 2300 2206 2260 2098 2194 2199 2188 2255 2216 2164 2201 2128 2208 2298 2157 2275 2155 2150 2099 2080 2194 2055 2049 2179 2141 2139 2175 2180 2244 2137 2102 2208 2210 2155 2167 1967 2013 2190 2114 2046 2177 2087 2182 2068 2207 2158 2143 2093 2066 2115 2119 2180 2148 2076 2179 2078 2185 2124 2078 2080 2005 2082 2098 2199 1970 2111 2143 2033 2122 1987 2079 2009 2079 2029 2035 2185 2099 2107 2080 2071 1992 2142 2131 2150 2004 2082 2073 2096 2049 2041 2077 2175 2039 2052 2050 2023 2028 2012 2125 2076 2058 2064 2091 2090 2035 2009 2015 2045 2162 2101 2088 2158 2082 2099 2152 1951 2015 2061 2087 2025 2032 2124 2003 2064 2050 2044 2000 2073 2082 2083 2028 2076 2079 2092 2043 2051 2074 2095 2057 2122 1979 2065 2043 2056 2022 2065 2063 2059 2055 2035 2024 2073 2097 2094 2119 2039 2122 2170 1972 2017 2136 2063 2024 2024 2075 2067 2052 2058 2041 2067 2068 2021 2115 2032 2067 2023 2039 2016 2031 2018 2024 1999 2122 2001 2070 2083 2081 2111 2084 2041 2113 2086 2035 2100 2009 2128 2070 2118 2086 2106 2031 2009 2058 2108 2115 2037 2101 2078 2052 2093 2033 2111 2045 2128 1972 2004 2090 2013 2030 2036 1955 2021 2084 1980 2044 2042 2051 2000 2053 2074 1979 2042 1977 2069 2058 1945 1977 2052 2067 2075 2025 2042 2032 1984 1989 2056 1920 2053 1983 2013 1960 2012 1974 1996 1924 1955 1902 1951 1956 1966 1945 1995 1948 1957 1999 1904 1952 1956 1919 1953 1957 1833 1869 1869 1923 1927 1968 1952 1975 1927 1912 1928 1871 1924 1884 1923 1861 1889 1852 1892 1840 1874 1910 1838 1839 1814 1947 1887 1882 1903 1836 1863 1881 1866 1879 1763 1892 1903 1830 1834 1795 1795 1864 1941 1830 1813 1844 1825 1819 1779 1823 1876 1810 1843 1842 1766 1880 1743 1826 1761 1754 1769 1834 1811 1849 1744 1747 1748 1750 1788 1778 1869 1722 1701 1789 1785 1825 1781 1711 1736 1818 1818 1741 1815 1771 1752 1699 1728 1740 1765 1760 1839 1746 1721 1769 1843 1751 1840 1841 1763 1852 1987 1883 1969 1911 2026 2048 2111 2037 2195 2183 2312 2295 2438 2584 2724 2848 3008 2880 3034 3109 3211 3150 3229 3092 3118 3129 2952 2967 2678 2652 2554 2549 2607 2486 2427 2370 2312 2262 2213 2196 2134 2183 2110 2073 2111 2021 2006 2000 1892 1894 1800 1947 1827 1755 1782 1757 1760 1735 1711 1705 1634 1695 1672 1666 1620 1647 1700 1673 1594 1682 1659 1594 1581 1518 1632 1673 1677 1660 1652 1593 1604 1573 1613 1595 1557 1640 1600 1596 1557 1638 1664 1597 1567 1620 1636 1593 1673 1624 1558 1670 1620 1655 1666 1557 1646 1606 1669 1641 1613 1614 1672 1604 1698 1670 1671 1703 1693 1775 1844 1760 1906 1920 1923 2002 2126 2252 2323 2468 2655 2629 2864 3153 3214 3466 3446 3647 3894 3967 4101 4099 4350 4092 4130 4113 3911 3848 3615 3531 3392 3256 3089 3073 2928 2983 2911 2862 2871 2889 2891 2888 2957 2808 2651 2727 2553 2470 2425 2332 2100 2159 2022 1979 1895 1876 1827 1825 1796 1728 1780 1675 1736 1774 1782 1752 1739 1768 1786 1895 1818 1706 1854 1837 1761 1767 1774 1705 1755 1640 1649 1602 1545 1586 1615 1533 1506 1563 1519 1454 1460 1436 1538 1409 1528 1471 1474 1519 1466 1511 1448 1402 1387 1468 1477 1434 1355 1380 1465 1423 1430 1443 1468 1500 1464 1410 1350 1439 1369 1484 1415 1473 1433 1497 1418 1451 1408 1413 1481 1376 1454 1388 1443 1496 1500 1398 1362 1491 1475 1449 1513 1409 1477 1412 1499 1516 1436 1301 1336 1382 1463 1414 1454 1370 1456 1357 1440 1415 1437 1457 1358 1402 1439 1369 1390 1427 1394 1443 1383 1354 1361 1401 1401 1404 1341 1391 1401 1376 1328 1382 1369 1446 1442 1296 1416 1435 1355 1416 1387 1366 1385 1410 1327 1452 1322 1380 1354 1409 1260 1367 1394 1328 1393 1315 1342 1410 1324 1324 1331 1356 1346 1333 1357 1387 1281 1329 1316 1338 1328 1380 1365 1342 1375 1337 1277 1278 1378 1323 1293 1333 1284 1372 1317 1366 1335 1313 1372 1332 1325 1281 1325 1293 1302 1418 1314 1315 1298 1231 1312 1327 1302 1345 1275 1380 1367 1327 1345 1312 1347 1274 1323 1405 1303 1275 1312 1306 1307 1344 1363 1294 1243 1348 1293 1396 1356 1425 1335 1328 1308 1297 1247 1417 1330 1357 1326 1332 1296 1345 1353 1377 1328 1302 1291 1282 1329 1335 1257 1354 1346 1387 1323 1353 1347 1328 1317 1346 1310 1274 1306 1376 1295 1331 1369 1342 1289 1339 1310 1340 1336 1433 1415 1349 1320 1377 1324 1273 1295 1333 1359 1330 1373 1351 1337 1295 1267 1358 1390 1359 1319 1338 1387 1368 1318 1330 1367 1276 1284 1420 1329 1344 1375 1288 1384 1394 1314 1346 1353 1396 1360 1324 1331 1368 1309 1338 1401 1363 1351 1447 1336 1428 1361 1347 1346 1390 1309 1374 1319 1385 1390 1376 1374 1315 1357 1323 1346 1306 1373 1432 1413 1341 1453 1472 1432 1409 1448 1355 1473 1349 1456 1374 1398 1366 1445 1496 1556 1497 1434 1449 1500 1498 1492 1509 1534 1506 1599 1613 1597 1570 1604 1611 1584 1653 1741 1712 1776 1787 1905 1937 2005 2025 2142 2264 2432 2468 2800 3020 3196 3515 3939 4294 4726 5345 5573 6243 6817 7566 8121 8753 9312 9914 10607 11013 11389 11371 11516 11544 11261 10905 10436 9788 9251 8815 8409 7686 7300 6991 6367 6101 5641 5485 5070 4884 4707 4585 4418 4051 4079 3804 3688 3559 3529 3387 3315 2991 3015 2929 2942 2625 2695 2475 2494 2442 2455 2401 2421 2410 2292 2189 2199 2308 2244 2271 2243 2375 2377 2298 2447 2439 2501 2488 2442 2547 2435 2381 2368 2391 2315 2281 2210 2094 2038 2030 1923 1903 1846 1840 1722 1670 1556 1535 1487 1578 1505 1439 1417 1404 1419 1394 1440 1382 1317 1340 1399 1371 1369 1357 1389 1383 1387 1362 1333 1279 1347 1298 1250 1295 1324 1292 1331 1307 1245 1239 1330 1343 1341 1331 1266 1307 1293 1305 1277 1276 1339 1220 1287 1248 1285 1223 1241 1289 1282 1226 1264 1308 1239 1313 1251 1263 1254 1245 1271 1233 1317 1271 1256 1274 1208 1232 1272 1170 1278 1222 1226 1311 1242 1199 1185 1219 1249 1171 1194 1222 1191 1267 1196 1215 1199 1217 1238 1206 1253 1211 1187 1229 1236 1238 1161 1240 1229 1182 1186 1176 1160 1242 1245 1182 1253 1197 1244 1206 1237 1216 1214 1228 1195 1231 1196 1158 1194 1217 1150 1156 1261 1194 1221 1138 1195 1258 1241 1195 1150 1183 1257 1160 1301 1220 1137 1192 1161 1160 1224 1252 1218 1217 1203 1230 1110 1208 1128 1201 1144 1157 1165 1225 1311 1214 1200 1195 1183 1266 1173 1228 1193 1190 1210 1153 1199 1167 1216 1208 1207 1133 1201 1193 1227 1217 1265 1243 1142 1188 1242 1164 1145 1166 1189 1136 1266 1236 1281 1269 1217 1170 1175 1169 1216 1154 1171 1204 1258 1197 1247 1250 1232 1166 1264 1203 1119 1269 1252 1205 1280 1297 1248 1181 1284 1236 1214 1326 1298 1271 1248 1250 1254 1289 1178 1281 1272 1192 1303 1212 1140 1243 1221 1277 1161 1186 1223 1184 1208 1190 1221 1213 1194 1207 1223 1146 1149 1206 1161 1211 1170 1173 1144 1194 1223 1113 1193 1188 1185 1160 1184 1231 1171 1260 1246 1165 1216 1181 1173 1142 1256 1211 1243 1186 1173 1245 1166 1207 1187 1153 1178 1152 1159 1194 1203 1185 1165 1162 1173 1161 1183 1147 1126 1209 1138 1122 1129 1101 1118 1144 1088 1126 1130 1069 1126 1144 1097 1152 1135 1149 1117 1174 1091 1186 1139 1099 1127 1125 1155 1080 1140 1073 1080 1133 1102 1135 1138 1088 1140 1070 1108 1130 1092 1139 1128 1130 1084 1095 1159 1146 1122 1213 1141 1043 1203 1098 1145 1165 1129 1197 1081 1134 1086 1091 1106 1069 1074 1158 1123 1121 1115 1015 1176 1106 1116 1151 1078 1125 1132 1120 1095 1130 1137 1124 1136 1109 1061 1084 1107 1107 1158 1027 1053 1154 1070 1134 1104 1092 1108 1099 1117 1107 1093 1074 1082 1095 1097 1065 1136 1069 1042 1072 1099 1090 1114 1094 1089 1143 1057 1088 1147 1167 1106 1062 1072 1119 1148 1083 1096 1061 1078 1027 1054 1069 1111 1087 1097 1165 1128 1007 1099 1064 1121 1044 1053 1067 1103 1090 1204 1094 1082 1085 1081 1040 1097 1079 1109 1077 1080 1080 1118 1045 1083 1031 1115 1151 1067 1092 1142 1055 1118 1091 1073 1064 1079 1078 1072 1070 1103 1083 1042 1131 1113 1089 1050 1049 1071 1052 1081 1074 1172 1101 1055 1088 1002 1064 1079 1044 1130 1072 1031 1112 1098 1053 1148 1048 1056 1130 1084 1044 1087 1133 1117 1083 1089 1107 1097 1095 1100 1027 1097 1107 1164 1034 1078 1061 1165 1096 1053 1062 1072 1079 1058 1092 1121 1100 1087 1067 1064 1114 1127 1071 1104 1023 1086 1107 1037 1056 1057 1043 1026 1065 1081 1060 1112 1130 1037 1068 1041 1052 1058 1106 1078 1056 1110 1103 1122 1069 1133 1065 1052 1060 1104 1025 1073 1112 1120 1035 1018 1099 1058 1104 1053 1072 1081 1079 1052 1080 1113 1117 1052 1021 1080 1083 1105 1102 1075 1073 1137 1030 1119 1085 1047 1026 1043 1106 1041 1063 1030 1055 1058 1057 1081 1037 1071 1066 1032 1065 1047 1066 1109 1023 1045 1046 961 1077 1086 1088 1073 1141 1088 1068 1084 1103 1083 1041 1052 1045 1061 1123 1024 1047 1049 1044 1033 1051 1038 1117 1070 1041 1003 1131 1053 1041 1078 1047 1111 1045 1035 1057 1081 1064 1045 1013 1082 985 1101 1066 1038 1044 1059 1070 1069 996 1106 1088 1043 1037 1158 1026 1068 1071 1113 1029 1012 1021 1058 1053 1057 1097 1056 1050 1122 1068 1147 1046 1070 1012 1037 1036 1075 1126 1034 1016 1114 1060 1090 1150 1024 1050 1028 1058 1025 1066 1049 1039 1043 1041 1111 1089 1060 1125 1083 1077 1061 1109 1012 1024 1039 1078 1074 1035 1018 997 1060 1048 1001 1018 1009 1058 1050 1047 1064 1045 1047 1004 1136 1053 1063 993 1044 1061 1027 1012 1069 1087 1064 1084 1029 1012 991 1073 1077 1077 1040 1146 1071 1021 1115 1021 987 1050 1049 1020 1046 1047 1047 1052 1042 1056 1061 1066 1034 1081 1052 1076 1017 1018 1005 1011 1000 1010 1081 1057 1076 1050 1012 1019 1003 1062 1031 1035 1052 1101 1063 1016 1078 1060 1096 1082 1090 1043 1106 1018 1052 1022 1112 1052 1092 1058 1064 1042 1048 1025 1054 1109 1029 1126 1019 1064 1017 1007 1019 1062 1095 1112 1057 1013 1070 1061 1119 1049 1041 1085 1095 1039 1044 1097 1057 1024 1041 1078 1051 1099 1070 1021 1061 1024 1080 1070 1044 1119 1049 1048 985 1040 1092 1084 1070 1134 1067 977 1006 976 1077 1042 1054 1068 1011 1029 1012 1082 1043 1116 1067 1089 1026 1094 1087 1079 1135 1158 1163 1113 1127 1109 1117 1035 1205 1162 1164 1197 1187 1176 1289 1298 1337 1404 1423 1453 1535 1521 1655 1675 1754 1714 1851 1877 1941 1887 2007 1906 1941 1950 1825 1917 1756 1769 1687 1751 1596 1637 1650 1516 1519 1488 1484 1441 1355 1382 1358 1313 1250 1293 1347 1247 1223 1196 1150 1201 1147 1147 1187 1169 1121 1153 1091 1096 1109 1001 1041 1107 1076 1105 1086 1066 1090 1064 1019 1061 1087 1028 1066 1065 1018 1020 1111 1062 1063 1075 1073 1045 1066 1045 1124 1040 1007 1105 1007 1077 1116 1014 1069 1067 1091 1092 1142 1170 1073 1081 1136 1079 1049 1107 1148 1130 1111 1089 1084 1125 1135 1108 1138 1115 1130 1069 1059 1133 1116 1070 1068 1053 1065 1057 1134 1080 1041 1032 1099 1008 1071 1067 1031 1033 1016 1098 1067 1044 1037 1024 1072 1043 1000 1033 1050 1016 1016 1042 1065 1056 1019 1100 1006 1049 1054 1082 1048 1031 1070 1056 997 1019 997 989 955 1043 1053 1014 1037 1061 952 1000 1004 1070 1015 1038 1005 984 1040 1015 1077 1081 1033 997 1022 1024 1015 1050 1029 1090 1062 984 1014 997 978 1007 1017 1073 1026 1003 1007 1093 1071 1013 1043 1018 1028 970 1070 993 1027 1009 989 1015 1076 1025 1031 988 1048 971 1007 1006 1048 1067 1029 1049 1072 992 1001 1081 956 1059 1081 1040 977 1042 999 1054 1050 1000 1075 1041 1037 1016 1021 1088 995 1022 1064 1045 1019 1036 990 1039 999 1028 1030 1034 1004 1066 1040 1025 1051 1048 1061 1035 1033 1025 936 1075 1009 947 1045 997 1037 1085 1086 1051 1047 1089 1039 1012 1004 1026 991 1003 1052 1054 1051 1033 1028 1034 1011 1069 1052 1024 986 1063 1068 1017 1061 1034 1022 1037 1021 1003 1095 1030 991 1037 1097 1042 1034 1051 1037 1082 1029 998 1065 1050 1059 1046 1082 994 1046 997 1013 1023 1025 1016 1064 1104 1086 1032 1052 1041 1001 1048 1116 1046 1013 1080 1113 1014 1093 1102 1118 1040 1057 1105 1063 1041 1079 1082 1080 1101 1152 1125 1105 1143 1122 1062 1148 1162 1132 1101 1078 1163 1145 1114 1191 1213 1162 1181 1151 1198 1184 1149 1224 1154 1266 1288 1276 1285 1318 1423 1459 1451 1516 1609 1650 1793 1901 2086 2241 2376 2550 2856 3113 3280 3661 3839 4083 4442 4769 4948 5131 5528 5590 5698 5646 5794 5700 5541 5433 5215 5054 4861 4658 4613 4364 4334 4111 4046 3761 3749 3482 3465 3084 2946 2824 2525 2456 2252 2044 2052 2004 1829 1815 1805 1702 1646 1567 1554 1494 1522 1445 1365 1300 1322 1283 1165 1189 1192 1145 1152 1189 1190 1191 1146 1231 1082 1138 1154 1180 1180 1128 1159 1086 1088 1123 1062 1092 1165 1173 1049 1124 1155 1077 1133 1102 1157 1147 1124 1141 1150 1207 1178 1253 1259 1268 1210 1187 1263 1324 1264 1285 1314 1301 1289 1331 1348 1283 1261 1358 1336 1272 1240 1307 1394 1306 1402 1249 1270 1351 1296 1222 1280 1205 1197 1223 1231 1262 1231 1245 1207 1172 1171 1240 1169 1152 1111 1179 1162 1169 1149 1149 1112 1090 1079 1071 1019 1122 1063 1033 1100 1043 1071 1119 1055 1046 966 1080 988 1046 1041 1055 1073 1059 1077 1011 1051 961 1035 984 991 1014 999 1039 959 1043 967 1009 1028 1010 1012 974 979 1047 1002 1032 1016 1011 967 1024 1090 1014 1003 1007 984 945 1045 1002 1002 1025 1038 1009 997 990 1026 994 1051 1047 1048 1051 1009 1074 1041 1027 1027 1070 1028 1066 1036 1086 1129 1109 1029 1149 1205 1198 1179 1165 1290 1325 1359 1380 1440 1396 1480 1394 1448 1535 1554 1522 1496 1440 1511 1434 1483 1540 1482 1383 1431 1394 1348 1359 1348 1313 1373 1358 1302 1251 1202 1168 1209 1172 1177 1229 1131 1151 1189 1057 1072 1087 1155 1020 1101 1050 1030 1056 984 1045 1001 1105 1032 991 973 1057 1013 981 972 972 1004 898 977 985 970 1039 958 1019 1000 978 989 936 953 950 989 989 1001 936 962 967 985 993 1012 942 985 910 963 959 934 1006 899 983 992 875 939 966 921 949 978 955 971 970 951 945 933 949 977 957 963 969 939 982 994 979 940 925 949 912 937 922 995 1004 933 953 878 983 895 1004 977 910 990 935 962 931 877 896 936 947 881 900 886 930 951 959 912 924 960 1006 961 1044 977 892 949 903 968 924 929 988 1031 949 970 963 895 960 1004 941 899 933 930 968 975 932 918 915 922 939 871 942 924 979 966 958 899 995 946 946 1015 892 955 934 901 944 942 919 904 922 945 942 985 896 914 945 925 959 960 942 978 904 920 899 948 950 924 900 978 942 943 948 869 950 885 940 941 944 909 944 986 940 893 927 978 894 943 960 970 947 960 948 959 908 932 1012 947 898 919 923 877 950 948 916 894 998 914 911 932 952 882 899 935 928 960 921 964 913 957 864 998 954 898 903 926 908 932 941 889 978 927 945 932 915 987 922 956 910 954 926 924 941 938 961 891 884 890 981 841 953 923 920 942 983 883 915 886 904 922 921 943 897 874 869 841 965 892 915 913 949 890 943 936 981 927 966 897 923 929 911 924 937 902 971 944 942 970 916 915 976 885 971 930 959 866 884 901 920 914 954 878 911 913 936 866 901 871 915 906 914 876 879 892 970 961 961 823 912 883 879 901 931 943 959 920 933 917 895 927 955 903 925 894 876 899 949 959 909 961 920 889 931 919 910 938 932 904 929 942 907 883 902 958 873 911 847 892 964 955 934 911 967 901 872 935 926 970 894 868 966 875 918 937 885 880 923 948 928 937 898 894 954 896 924 899 916 935 929 940 888 907 929 895 893 903 897 914 959 941 915 888 897 894 886 916 927 918 874 935 906 941 897 910 926 875 935 951 886 912 912 954 943 951 921 874 948 931 930 900 877 911 944 887 886 972 935 860 940 897 888 916 902 929 916 952 925 944 899 876 959 896 902 936 949 897 880 930 924 884 875 910 915 955 890 934 939 1003 923 900 923 871 889 892 917 907 902 924 974 923 891 944 904 890 886 909 886 973 913 884 890 893 953 917 913 960 882 864 948 983 866 945 1010 944 988 941 911 940 976 966 952 988 985 999 977 1022 985 1069 990 1047 1028 1090 1022 1067 998 1052 1039 1037 1007 1009 1081 1003 1050 1001 953 1009 1020 1008 964 972 1053 939 1024 944 965 987 965 1023 943 962 976 1011 952 966 991 1013 1007 951 988 935 894 969 998 970 971 1008 930 948 1051 958 1054 1011 1020 1058 1058 1064 1117 1158 1138 1197 1257 1202 1231 1254 1307 1320 1350 1346 1395 1416 1364 1411 1504 1475 1472 1430 1413 1476 1435 1356 1375 1301 1301 1341 1237 1281 1221 1253 1199 1189 1189 1194 1138 1148 1060 1129 1098 1038 1009 974 1015 1040 974 1008 1044 1007 983 945 974 981 1012 911 953 933 912 942 950 952 954 947 974 904 947 912 865 962 904 935 943 918 947 978 935 919 900 968 889 902 888 904 942 899 931 872 894 889 916 941 922 909 897 873 954 946 892 883 894 923 926 960 961 960 948 927 916 974 912 931 1003 956 944 973 980 1036 967 988 971 976 965 975 986 965 951 1021 1053 991 971 959 967 923 971 948 939 1002 1011 1001 967 929 939 959 974 944 942 931 940 925 906 874 922 888 896 922 920 880 970 928 889 898 886 905 905 886 895 908 942 956 872 886 891 911 946 944 895 840 881 936 908 944 906 907 922 947 889 881 907 930 905 866 891 948 966 910 888 929 940 963 913 901 882 899 893 903 878 905 901 934 924 912 960 838 905 877 880 899 865 917 909 890 941 921 931 995 942 854 950 891 883 874 878 968 948 894 921 925 884 905 897 952 880 960 953 959 951 943 951 987 986 1039 950 986 967 997 1046 1029 1092 1090 1078 1202 1174 1214 1246 1371 1425 1372 1473 1477 1597 1500 1585 1674 1786 1827 1819 1964 1934 2031 1981 2043 1979 1872 1907 1882 1809 1758 1778 1742 1827 1824 1722 1727 1716 1837 1748 1732 1642 1605 1671 1582 1483 1413 1361 1348 1271 1331 1359 1315 1196 1244 1248 1184 1195 1094 1131 1136 1055 1136 1051 984 1060 1059 989 1020 998 980 1003 998 1014 917 948 973 920 901 973 973 955 925 962 956 914 927 937 915 903 941 930 927 968 935 964 928 900 912 898 925 918 918 943 962 929 943 842 902 946 925 935 879 874 924 922 930 895 889 947 884 930 925 949 901 951 854 970 923 1021 908 922 966 970 951 953 1035 957 982 929 914 1018 923 930 914 899 891 945 954 901 935 860 964 921 942 929 997 893 927 891 903 902 863 948 934 894 912 925 939 887 851 976 977 884 946 931 920 908 876 939 867 922 876 919 906 912 934 961 899 897 902 930 926 974 907 984 915 921 966 965 996 960 1033 1048 1052 1037 1054 1076 1076 1115 1095 1103 1117 1173 1117 1138 1163 1083 1165 1118 1164 1130 1198 1123 1158 1092 1129 1146 1134 1068 1097 1051 1056 1094 1130 1064 1152 1063 1076 1040 1117 1027 1012 973 953 982 950 924 931 1018 932 932 916 963 941 982 952 916 983 958 995 887 901 903 946 931 936 933 900 895 874 894 919 899 880 890 875 903 882 918 903 930 890 910 872 896 868 895 847 886 894 932 909 916 852 895 897 908 871 873 929 882 916 927 840 849 932 889 831 899 836 907 887 863 917 872 859 852 890 907 882 855 837 940 907 841 893 861 890 912 868 902 882 859 908 881 889 908 899 813 886 889 897 873 880 894 885 861 859 893 892 892 871 903 912 925 865 883 857 893 859 907 845 879 893 902 870 871 863 865 901 850 895 855 897 877 908 868 957 855 904 849 897 895 863 863 924 892 876 905 850 907 889 856 989 882 882 837 896 837 889 863 847 949 844 898 878 889 879 915 882 930 884 875 850 852 884 883 924 887 837 861 820 830 894 849 853 840 849 867 827 859 851 823 873 851 841 880 872 923 916 874 845 881 890 866 822 867 885 877 831 863 869 795 828 868 888 820 858 864 802 902 870 857 883 845 868 864 817 865 831 913 881 849 893 872 860 824 894 907 858 852 838 865 867 892 856 838 866 828 902 838 848 816 874 868 867 911 876 918 865 895 833 887 858 867 805 884 867 889 809 885 840 811 866 832 852 836 888 812 826 900 907 861 860 868 863 846 887 895 838 867 858 881 845 842 882 888 873 841 915 809 850 865 871 864 887 851 860 857 882 866 875 819 843 889 881 817 866 854 897 859 866 822 928 902 824 840 855 849 870 874 851 893 846 874 818 815 829 828 803 871 839 826 831 853 832 859 878 840 874 860 883 871 878 866 887 795 892 879 918 839 890 849 802 898 851 843 874 833 828 837 907 880 874 867 945 851 900 903 873 849 859 862 828 843 876 839 899 850 882 902 951 859 884 853 886 876 875 843 849 898 839 836 918 872 891 902 871 812 842 914 891 881 833 842 815 850 872 869 878 844 805 829 813 831 831 877 882 854 872 811 907 881 878 918 890 867 883 826 826 794 873 862 893 858 842 869 865 894 826 879 880 901 882 911 913 847 937 840 903 900 890 903 922 1015 988 992 959 975 970 1015 999 1008 949 1066 1025 962 998 964 1039 961 1024 1003 939 971 993 992 926 940 938 951 940 955 976 972 906 968 893 912 869 909 913 937 873 911 911 847 856 888 917 890 936 860 910 908 854 909 883 928 920 824 854 910 926 818 911 815 924 880 847 862 855 871 880 922 867 878 889 884 898 907 880 904 815 882 898 893 837 851 852 892 815 886 885 885 835 803 871 874 865 853 860 888 876 883 842 902 902 848 826 870 836 847 846 872 858 897 900 881 860 836 879 867 838 840 778 884 859 820 830 888 826 799 909 849 857 853 918 871 878 880 850 869 834 860 838 907 800 880 831 863 872 884 885 851 874 832 881 856 879 887 844 818 850 837 853 849 837 829 865 925 853 832 784 854 786 872 883 839 856 830 908 834 871 858 857 837 817 822 795 922 825 842 865 801 883 847 864 834 852 802 899 831 832 878 891 886 891 905 851 860 849 825 843 856 836 870 856 853 836 878 828 862 836 859 925 865 804 867 853 843 844 896 898 832 837 858 830 872 826 903 819 871 854 870 830 868 845 814 797 831 886 878 851 883 885 879 866 864 909 860 866 890 845 889 812 924 864 834 884 911 890 888 837 847 914 877 874 831 921 845 882 915 875 929 910 910 967 949 959 950 966 967 959 942 1013 965 1026 1024 1083 1125 1128 1139 1163 1151 1171 1150 1221 1242 1261 1323 1306 1315 1284 1325 1256 1381 1372 1358 1335 1351 1227 1317 1304 1324 1323 1226 1208 1285 1176 1268 1217 1191 1167 1145 1135 1101 1198 1137 1137 1081 1108 1028 1029 1022 987 1031 920 988 1034 899 934 891 944 896 841 958 878 921 891 916 861 922 881 928 839 935 917 858 938 870 917 872 899 870 895 926 894 886 871 912 938 855 913 937 852 903 878 875 892 913 958 888 972 895 889 935 863 858 872 907 858 886 887 874 913 890 892 910 861 901 913 984 832 872 839 895 844 832 892 900 868 878 856 834 888 865 923 871 914 879 892 871 861 897 880 904 872 846 863 828 842 896 878 875 880 847 951 899 868 856 865 891 930 874 844 906 889 859 899 909 842 848 908 893 906 929 865 904 885 908 871 879 821 873 823 876 828 818 831 829 897 854 839 892 839 827 808 826 848 839 845 883 872 863 916 816 910 848 851 886 875 900 867 825 887 855 856 825 877 776 830 875 827 858 882 827 841 857 849 838 857 836 821 837 807 875 867 842 882 846 826 871 789 809 851 847 842 829 821 835 808 857 818 827 835 816 849 857 823 778 872 896 873 844 842 846 793 857 871 871 815 775 845 847 856 851 827 850 834 850 879 876 819 836 875 813 865 852 882 843 813 847 794 795 884 860 867 829 810 827 819 775 865 872 815 890 848 915 815 868 846 832 833 832 862 816 882 828 820 787 821 913 825 841 798 827 816 836 830 875 811 866 842 866 838 764 797 848 871 791 817 813 883 826 847 758 846 823 875 871 867 858 866 885 858 840 887 861 789 849 808 819 833 832 830 841 833 851 867 825 837 837 884 821 839 826 816 837 839 857 851 848 821 841 798 836 864 892 851 891 849 861 833 831 828 916 860 836 826 887 869 867 833 886 842 798 813 791 783 861 848 845 824 843 874 837 868 841 800 816 861 854 886 888 824 837 843 843 842 813 890 825 831 845 841 857 826 839 812 844 836 866 881 831 871 837 837 874 803 894 909 816 865 826 823 862 838 907 874 838 885 877 822 873 821 889 815 808 833 807 873 919 840 856 825 816 832 875 910 840 821 831 855 816 835 833 787 845 789 867 832 817 912 836 849 836 859 855 870 821 851 880 850 834 844 841 872 771 815 842 882 830 824 822 773 867 895 827 833 798 834 834 833 872 809 799 819 816 841 816 802 830 868 869 850 846 894 816 876 841 864 878 843 865 879 819 798 856 829 786 844 837 817 807 808 841 880 851 817 863 852 819 829 865 824 883 860 857 862 884 843 849 879 839 801 853 858 844 850 858 845 856 818 839 865 844 810 814 861 900 808 878 850 849 820 835 867 880 945 839 860 815 793 836 826 880 879 859 814 860 853 859 900 853 879 879 848 845 858 875 853 909 826 808 888 835 856 844 859 883 805 873 806 874 858 800 882 823 892 874 851 919 891 816 885 856 867 878 919 865 845 843 901 923 905 915 879 967 931 900 938 883 853 987 942 912 952 897 936 928 904 926 960 948 975 941 937 952 938 927 932 990 970 943 928 999 934 931 880 948 965 955 904 956 918 919 900 968 930 934 906 896 899 907 900 886 891 916 858 919 902 917 936 945 881 967 928 967 902 936 884 940 935 918 996 926 921 959 964 948 988 951 968 977 1055 1021 992 979 934 1011 931 971 890 973 923 938 1004 969 980 948 917 949 913 958 898 921 930 981 896 990 900 924 895 921 891 874 887 929 862 875 800 885 828 921 884 854 830 921 862 893 820 817 840 921 889 879 884 872 824 862 872 880 839 868 774 883 841 836 879 855 835 823 869 855 822 846 872 810 861 837 826 866 859 836 812 828 856 883 871 846 841 892 849 849 796 851 848 864 890 812 859 875 830 892 858 893 851 870 831 827 802 927 879 858 828 868 853 878 806 841 882 826 913 835 877 879 865 902 915 806 849 892 833 858 899 851 862 871 867 914 853 840 898 829 828 894 848 864 920 902 881 869 910 865 948 933 873 924 888 876 920 881 906 880 910 893 864 901 855 912 928 879 893 898 866 876 907 909 874 940 893 887 915 902 894 907 892 914 839 928 914 905 969 964 918 987 945 971 993 955 911 1006 963 976 1000 1012 1073 1102 1080 1098 1113 1059 1131 1170 1172 1227 1228 1295 1289 1315 1309 1367 1374 1452 1416 1439 1493 1482 1542 1550 1592 1661 1744 1583 1686 1635 1768 1697 1650 1640 1589 1634 1536 1593 1547 1467 1421 1475 1390 1422 1392 1421 1415 1408 1385 1423 1354 1291 1340 1373 1257 1287 1294 1221 1223 1183 1195 1141 1112 1047 1133 1102 1046 1069 1040 965 1028 1034 1003 949 941 942 954 970 911 887 966 959 909 952 868 903 937 921 875 903 952 896 834 909 909 870 826 928 927 916 878 857 917 889 883 930 861 888 913 897 819 862 879 867 880 801 825 873 840 854 872 892 911 868 882 858 900 868 825 920 877 889 897 858 875 820 880 840 872 909 876 887 894 880 908 852 895 834 886 844 881 850 871 821 853 811 918 869 878 859 895 794 852 882 844 922 875 865 868 838 907 953 879 873 896 932 913 979 864 900 906 895 917 935 990 933 931 942 975 986 1016 975 1010 950 950 970 966 985 1019 1059 1068 1027 1001 958 992 1085 1082 986 965 1001 988 987 1005 1052 946 991 944 984 917 995 985 973 935 950 923 976 981 943 928 873 925 933 857 878 957 908 927 900 858 940 885 943 882 878 869 843 886 883 895 879 846 880 863 908 897 863 831 929 874 873 784 880 821 865 859 916 838 884 867 767 861 864 839 830 896 804 842 793 853 862 813 852 836 836 832 814 861 856 819 867 839 843 817 804 871 878 856 872 841 839 858 863 799 849 861 885 821 859 822 847 822 842 818 866 834 835 826 894 789 863 798 856 779 826 843 835 859 856 828 790 829 830 812 793 838 853 799 845 856 797 849 826 795 888 852 863 847 851 862 847 831 791 830 798 835 850 847 863 807 830 804 807 833 825 835 843 845 786 847 809 838 846 849 863 806 860 874 788 900 888 827 860 841 806 835 836 800 867 864 877 846 808 877 844 888 853 841 829 875 876 796 804 855 869 851 842 873 849 869 837 874 909 880 830 833 820 825 852 858 844 833 795 834 815 828 798 821 879 829 815 836 847 899 823 788 801 847 819 837 905 891 757 814 800 813 838 859 862 812 835 837 839 813 848 794 811 909 841 924 810 876 851 849 844 838 804 828 794 803 750 854 823 848 830 828 832 821 787 811 870 820 813 858 800 954 853 913 849 826 869 830 864 891 863 827 858 841 819 832 826 826 866 816 820 859 792 841 783 863 870 841 867 811 797 799 832 822 783 844 828 783 823 878 854 818 843 817 793 808 878 861 825 875 876 899 808 814 815 828 822 848 824 811 823 822 846 848 826 824 840 853 843 819 819 834 776 795 824 882 826 875 878 833 866 870 866 830 799 847 856 844 878 834 841 831 824 857 853 801 843 829 858 830 846 860 864 817 846 788 848 833 860 828 817 799 894 864 877 802 845 851 897 837 857 879 840 804 878 815 835 820 803 852 843 843 797 841 814 850 868 852 816 869 847 865 821 940 901 913 820 891 876 873 863 810 863 855 893 906 914 879 928 910 860 918 907 878 913 845 930 882 874 879 921 889 881 917 920 938 900 894 886 922 914 945 853 924 893 872 851 918 893 923 893 883 895 885 886 882 889 916 907 870 899 884 865 909 856 905 920 872 910 921 861 866 904 817 887 894 837 862 868 863 833 914 844 839 856 824 854 879 848 813 891 865 924 848 868 884 842 826 850 837 800 816 878 904 846 836 851 857 815 840 767 886 886 834 816 817 842 892 826 864 883 826 847 831 824 800 868 860 854 801 772 860 811 911 872 848 883 810 868 846 838 847 869 824 798 859 886 836 814 833 836 869 833 914 811 816 837 812 845 797 827 810 864 856 815 774 862 819 824 839 877 829 861 848 843 843 814 810 790 822 822 891 831 788 878 798 840 827 849 823 807 796 854 808 861 861 771 846 854 905 863 862 809 901 813 834 832 822 827 819 828 849 830 861 888 906 831 827 837 854 853 866 839 878 783 833 829 877 839 826 853 827 838 848 838 880 850 839 897 812 834 825 819 808 902 886 851 849 855 856 815 852 844 859 882 886 883 876 886 854 840 902 890 846 877 828 855 825 869 860 922 833 835 836 896 861 859 958 888 862 894 817 917 907 959 906 863 917 915 913 965 997 1013 966 951 1081 1014 1040 1052 1115 1040 1090 1152 1072 1138 1148 1217 1167 1162 1155 1203 1286 1215 1213 1358 1325 1258 1276 1231 1349 1298 1318 1301 1294 1319 1300 1228 1313 1263 1257 1290 1185 1164 1170 1211 1208 1273 1168 1154 1131 1205 1097 1145 1200 1100 1158 1148 1097 1101 1129 1084 1074 1061 1096 1021 1034 979 998 890 972 1000 943 967 949 924 944 967 889 941 964 917 914 948 946 843 934 875 962 973 918 893 868 909 887 918 865 891 941 868 864 927 878 893 893 849 930 861 866 857 856 839 870 874 906 906 839 892 888 858 928 856 807 894 857 917 865 845 941 868 877 881 811 914 888 859 859 846 842 830 846 813 908 839 868 880 886 875 829 882 871 837 824 829 874 837 899 874 841 841 827 850 904 840 860 892 816 818 850 842 840 833 898 825 872 834 825 892 866 871 843 793 891 880 840 876 828 863 910 883 884 893 877 856 884 902 858 829 825 878 855 865 939 907 870 864 867 861 814 891 918 876 838 848 889 862 833 906 895 813 864 905 822 869 852 867 890 899 907 889 873 914 841 834 890 877 856 829 897 885 805 880 896 896 850 809 846 808 874 835 859 894 896 840 831 846 863 860 856 897 844 787 883 824 830 861 866 845 859 816 830 865 821 852 806 865 831 805 829 884 916 855 846 802 810 835 872 803 840 802 833 841 817 818 803 772 854 772 827 827 837 870 852 854 816 877 818 808 891 876 812 871 849 852 844 839 817 882 851 831 839 783 837 841 790 860 823 860 886 799 852 774 838 820 890 831 828 875 847 865 817 870 831 840 830 857 848 877 837 856 778 854 847 833 872 818 842 819 888 806 830 877 832 836 868 837 842 818 824 780 852 800 862 838 786 827 875 813 847 850 851 833 862 840 808 819 768 791 770 894 814 857 770 864 796 817 869 807 856 833 832 798 850 792 857 846 863 868 785 779 841 825 788 808 841 840 841 833 857 837 798 793 845 831 832 810 804 819 845 830 872 834 877 839 782 821 775 824 805 818 811 838 829 854 837 757 852 879 829 855 784 832 811 851 835 781 866 857 848 843 848 819 827 867 796 757 809 815 824 857 832 826 812 821 819 832 828 831 786 802 797 840 776 857 817 844 855 834 829 921 833 778 841 804 896 853 869 869 791 827 816 818 854 798 826 817 821 868 858 782 781 800 838 868 816 809 841 826 867 834 818 819 847 778 905 822 772 841 821 856 797 844 871 799 819 803 830 827 838 785 862 847 848 835 835 781 809 801 837 788 789 815 887 832 811 865 794 798 849 826 810 826 849 844 824 827 844 845 881 778 798 827 802 798 791 832 822 811 847 804 816 832 815 787 829 843 858 858 902 860 827 847 849 883 872 810 801 849 823 816 800 870 821 867 834 845 830 823 834 808 842 854 834 848 837 860 888 875 865 826 832 837 904 883 852 873 791 880 874 882 869 801 902 886 832 898 897 870 913 852 892 919 903 920 839 918 905 904 878 888 898 917 898 918 949 963 853 985 946 916 898 953 936 915 972 965 962 915 979 947 920 928 897 902 879 939 919 886 894 916 898 883 901 908 913 944 903 881 885 934 927 921 957 963 951 959 933 882 931 953 934 965 897 904 911 876 909 955 902 908 894 996 910 945 864 823 926 918 925 924 931 935 882 879 879 858 939 904 872 901 954 907 879 955 857 938 883 890 869 815 899 849 894 864 890 888 845 860 840 860 903 885</counts>
			</dataPoints>
		</scan>
	</xrdMeasurement>
</xrdMeasurements>
