<?xml version="1.0"?>
<xrdMeasurements xmlns="http://www.xrdml.com/XRDMeasurement/2.3" xmlns:xsi="http://www.w3.org/2001/XMLSchema-instance" xsi:schemaLocation="http://www.xrdml.com/XRDMeasurement/2.3 http://www.xrdml.com/XRDMeasurement/2.3/XRDMeasurement.xsd" status="Completed" recordIdentifier="{8BF73E4C-0AF4-406B-8919-8D30CA40F5DD}">
	<comment>
		<entry/>
	</comment>
	<sample type="To be analyzed">
		<id>GPSS_Li1p6Co0p8Zr0p2Cl4_110125_690658b7e3432ed06b655f35</id>
		<name></name>
		<preparedBy></preparedBy>
	</sample>
	<xrdMeasurement measurementType="Scan" status="Completed" sampleMode="Reflection">
		<usedWavelength intended="K-Alpha 1">
			<kAlpha1 unit="Angstrom">1.5405980</kAlpha1>
			<kAlpha2 unit="Angstrom">1.5444260</kAlpha2>
			<kBeta unit="Angstrom">1.3922500</kBeta>
			<ratioKAlpha2KAlpha1>0.5000</ratioKAlpha2KAlpha1>
		</usedWavelength>
		<incidentBeamPath>
			<radius unit="mm">145.00</radius>
			<xRayTube id="1010048" name="Empyrean Cu LFF HR (9430 033 7310x)">
				<tension unit="kV">40.0</tension>
				<current unit="mA">15.0</current>
				<anodeMaterial>Cu</anodeMaterial>
				<focus type="Line">
					<length unit="mm">12.0</length>
					<width unit="mm">0.4</width>
					<takeOffAngle unit="deg">6.0</takeOffAngle>
				</focus>
			</xRayTube>
			<sollerSlit id="21010002" name="Soller slits 0.04 rad.">
				<opening unit="rad">0.0400</opening>
			</sollerSlit>
			<mask id="22031000" name="Fixed mask 13 mm">
				<width unit="mm">9.00</width>
			</mask>
			<divergenceSlit id="22120001" name="Divergence slit 1°" xsi:type="fixedDivergenceSlitType">
				<distanceToSample unit="mm">50.00</distanceToSample>
				<height unit="mm">1.52</height>
			</divergenceSlit>
		</incidentBeamPath>
		<sampleMovement xsi:type="spinningSampleMovementType">
			<spinnerRevolutionTime unit="seconds">1.0</spinnerRevolutionTime>
		</sampleMovement>
		<diffractedBeamPath>
			<radius unit="mm">145.00</radius>
			<antiScatterSlit id="22090040" name="AS slit 9 mm (PIXcel)" xsi:type="fixedAntiScatterSlitType">
				<height unit="mm">9.00</height>
			</antiScatterSlit>
			<sollerSlit id="21020003" name="Large Soller slits 0.04 rad.">
				<opening unit="rad">0.0400</opening>
			</sollerSlit>
			<filter id="20030001" name="Large beta-filter Nickel">
				<material>Ni</material>
				<thickness unit="mm">0.020</thickness>
			</filter>
			<detector id="7010019" name="PIXcel1D-Medipix3 detector" xsi:type="rtmsDetectorType">
				<phd unit="keV">
					<lowerLevel>4.02</lowerLevel>
					<upperLevel>11.27</upperLevel>
				</phd>
				<mode>Scanning</mode>
				<activeLength unit="deg">5.542</activeLength>
			</detector>
		</diffractedBeamPath>
		<scan appendNumber="0" mode="Continuous" scanAxis="Gonio" status="Completed">
			<header>
				<startTimeStamp>2025-11-03T13:44:35-08:00</startTimeStamp>
				<endTimeStamp>2025-11-03T13:52:43-08:00</endTimeStamp>
				<author>
					<name>AutomatedUser</name>
				</author>
				<source>
					<applicationSoftware version="1.7b (136)">PANalytical Aeris Instrument Suite</applicationSoftware>
					<instrumentControlSoftware version="3.2.00000000 20240306">AERIS</instrumentControlSoftware>
					<instrumentID>950485</instrumentID>
				</source>
			</header>
			<dataPoints>
				<positions axis="2Theta" unit="deg">
					<startPosition>10.00943322</startPosition>
					<endPosition>99.99442286</endPosition>
				</positions>
				<positions axis="Omega" unit="deg">
					<startPosition>5.00471661</startPosition>
					<endPosition>49.99721143</endPosition>
				</positions>
				<commonCountingTime unit="seconds">12.495</commonCountingTime>
				<counts unit="counts">3790 3772 3864 3780 3924 3802 3923 3825 3849 3865 3914 3814 3900 3948 3799 3881 3940 3852 3850 3825 3904 3824 3964 3989 3917 3886 3955 3963 3876 3861 3955 3919 3893 3864 3865 3977 3916 3949 3942 3894 3890 3978 3912 3961 4016 4041 4018 3939 3939 4092 4083 3937 4055 3967 3968 4049 4019 4096 4041 4119 3988 4102 3999 4048 4099 4100 4092 4178 4022 4004 4050 4145 4123 4069 4039 4180 4055 4196 4077 4265 4259 4114 4264 4283 4166 4176 4168 4151 4064 4226 4259 4286 4240 4175 4182 4225 4219 4224 4276 4216 4164 4217 4077 4321 4195 4285 4295 4304 4237 4250 4108 4200 4194 4333 4194 4235 4143 4140 4324 4274 4283 4207 4161 4240 4188 4290 4152 4284 4293 4327 4314 4264 4227 4378 4280 4254 4273 4323 4245 4306 4301 4360 4233 4251 4366 4246 4286 4361 4276 4351 4219 4359 4319 4295 4327 4273 4300 4292 4259 4259 4332 4331 4325 4408 4351 4451 4275 4352 4340 4272 4350 4332 4240 4326 4400 4339 4422 4464 4316 4422 4248 4370 4325 4382 4307 4366 4365 4380 4306 4428 4497 4463 4374 4316 4367 4272 4305 4386 4366 4345 4388 4258 4392 4125 4396 4375 4372 4277 4332 4247 4307 4315 4449 4477 4326 4249 4407 4311 4430 4407 4382 4317 4438 4424 4301 4411 4341 4283 4389 4412 4481 4306 4393 4272 4439 4459 4404 4424 4381 4420 4374 4439 4433 4455 4298 4302 4393 4324 4307 4460 4523 4330 4475 4235 4290 4535 4429 4354 4273 4489 4528 4470 4421 4368 4352 4419 4416 4344 4389 4515 4384 4546 4452 4498 4398 4346 4445 4451 4450 4391 4498 4483 4514 4462 4420 4455 4324 4456 4403 4442 4365 4453 4435 4445 4465 4518 4518 4540 4381 4553 4523 4549 4525 4400 4588 4498 4533 4530 4685 4547 4560 4569 4644 4551 4412 4604 4542 4580 4562 4728 4720 4597 4765 4557 4537 4544 4668 4602 4573 4617 4633 4701 4571 4693 4777 4548 4716 4668 4629 4656 4731 4709 4589 4724 4772 4576 4686 4705 4601 4599 4808 4734 4687 4735 4713 4887 4942 4937 4758 4774 4931 4754 4760 4802 4776 4828 4860 4749 4983 4771 4889 4899 4956 4769 4938 4951 4888 4825 4803 4892 4870 4946 4937 4815 5041 4902 4983 4919 4891 4982 5054 4952 5006 4950 4935 4980 5102 4960 5073 5004 4983 4953 4925 4951 4932 4940 5076 4829 5134 5091 5040 4943 5097 5053 5077 5079 5077 5020 5081 4998 5130 5104 5099 5154 5010 5201 5285 5130 5125 5248 5146 5236 5166 5193 5345 5344 5289 5236 5313 5412 5265 5305 5346 5451 5508 5511 5622 5687 5673 5701 5808 5809 5991 5902 5858 5896 5857 5927 5911 6027 6026 5934 5825 5873 5974 5862 6068 6039 5957 6139 5992 6146 6215 6222 6266 6325 6247 6286 6390 6596 6535 6526 6713 6628 6613 6640 6616 6646 6593 6671 6699 6619 6475 6542 6317 6355 6394 6300 6331 6227 6197 6115 6314 6308 6100 6123 6051 5811 5929 5633 5717 5567 5514 5461 5430 5259 5350 5117 5139 5122 5183 5067 5089 4978 5100 4932 5012 4874 4816 4889 4851 4974 4922 4889 4808 4951 4825 4875 4810 4845 4900 4850 4843 4861 4826 4836 4830 4827 4799 4855 4786 4789 4806 4912 4854 4809 4887 4785 4837 4935 4873 4852 4849 4818 4833 4767 4691 4902 4808 4798 4928 4830 4750 4839 4688 4901 4798 4765 4792 4771 4947 4708 4794 4740 4763 4688 4704 4714 4756 4627 4789 4696 4858 4723 4673 4662 4844 4720 4787 4727 4840 4665 4654 4641 4555 4637 4492 4585 4566 4542 4638 4719 4697 4640 4640 4583 4573 4628 4678 4771 4674 4679 4541 4601 4757 4607 4608 4595 4684 4696 4667 4707 4671 4744 4788 4603 4701 4657 4677 4805 4620 4549 4753 4718 4690 4885 4665 4732 4712 4700 4666 4678 4806 4781 4741 4808 4797 4684 4714 4749 4692 4848 4724 4920 4888 4916 4888 4866 4805 4851 4779 4908 4823 4702 4796 4699 4916 4873 4855 4842 4817 4752 4739 4778 4772 4788 4772 4715 4607 4673 4626 4695 4580 4703 4615 4721 4701 4646 4612 4532 4617 4565 4575 4725 4476 4692 4638 4556 4660 4559 4672 4669 4460 4575 4593 4625 4658 4542 4635 4740 4670 4530 4652 4565 4637 4612 4660 4506 4591 4734 4557 4663 4534 4630 4617 4547 4588 4537 4534 4495 4527 4507 4534 4579 4639 4511 4490 4497 4675 4593 4703 4617 4500 4670 4644 4606 4724 4560 4529 4617 4567 4653 4607 4578 4581 4614 4432 4651 4621 4640 4568 4566 4588 4649 4522 4576 4545 4573 4669 4678 4541 4595 4541 4516 4544 4564 4601 4571 4701 4541 4685 4626 4630 4558 4520 4524 4544 4551 4565 4575 4560 4512 4523 4584 4502 4547 4502 4554 4467 4504 4556 4468 4580 4548 4650 4407 4497 4683 4697 4612 4592 4495 4490 4522 4541 4502 4616 4554 4486 4502 4576 4571 4622 4535 4555 4504 4592 4714 4593 4548 4535 4515 4492 4619 4632 4599 4718 4558 4395 4560 4544 4437 4593 4526 4661 4469 4617 4695 4489 4506 4489 4520 4469 4516 4564 4528 4464 4550 4553 4421 4583 4550 4533 4558 4449 4431 4568 4494 4454 4510 4586 4509 4529 4576 4612 4599 4531 4612 4532 4705 4480 4530 4544 4517 4478 4544 4482 4336 4512 4466 4585 4451 4471 4514 4542 4542 4399 4470 4496 4580 4520 4461 4469 4431 4546 4465 4509 4478 4496 4537 4429 4485 4530 4404 4532 4544 4440 4552 4445 4572 4486 4495 4520 4478 4566 4561 4429 4580 4478 4594 4309 4417 4436 4411 4342 4679 4539 4548 4497 4444 4400 4419 4417 4561 4462 4456 4440 4351 4503 4394 4386 4541 4523 4474 4407 4536 4495 4503 4459 4559 4457 4458 4501 4523 4407 4407 4432 4361 4523 4427 4386 4394 4588 4500 4519 4452 4427 4411 4410 4411 4630 4576 4592 4434 4401 4424 4603 4505 4479 4586 4488 4466 4502 4426 4493 4400 4508 4491 4562 4436 4461 4484 4576 4433 4514 4547 4491 4506 4520 4547 4426 4594 4678 4535 4516 4584 4474 4587 4576 4429 4376 4476 4467 4550 4412 4490 4653 4507 4559 4540 4566 4431 4503 4491 4532 4422 4417 4471 4459 4499 4557 4662 4547 4562 4575 4469 4508 4674 4484 4430 4515 4462 4462 4476 4452 4450 4604 4580 4630 4527 4565 4398 4628 4571 4450 4631 4490 4519 4501 4458 4500 4460 4533 4653 4573 4623 4541 4544 4616 4563 4533 4556 4621 4524 4524 4520 4493 4608 4557 4512 4525 4499 4452 4426 4504 4447 4632 4347 4583 4389 4389 4476 4589 4422 4581 4509 4536 4420 4422 4564 4517 4534 4440 4463 4539 4522 4550 4491 4523 4442 4362 4404 4465 4466 4401 4616 4462 4531 4477 4328 4425 4443 4424 4471 4425 4460 4338 4397 4392 4449 4450 4509 4474 4477 4400 4410 4293 4389 4244 4402 4525 4372 4501 4517 4385 4451 4407 4311 4371 4562 4359 4341 4404 4370 4244 4287 4386 4312 4422 4224 4335 4221 4277 4386 4405 4279 4240 4356 4229 4320 4322 4256 4353 4290 4216 4406 4229 4185 4331 4220 4294 4349 4161 4280 4257 4315 4367 4211 4262 4300 4225 4213 4221 4277 4210 4199 4165 4224 4371 4189 4331 4241 4222 4276 4170 4235 4100 4164 4152 4076 4295 4191 4259 4101 4059 4125 4147 4141 4085 4174 4292 4092 4122 4097 4189 4134 4204 4091 4168 4095 4156 4023 4247 4072 4019 4107 4058 4084 4210 4061 4039 4074 4131 4054 4076 4006 4007 4051 3989 4151 4089 4136 4143 4161 4086 3956 4026 4076 4059 3941 3973 4090 3998 4069 4031 3941 3986 4079 3898 4086 4071 4131 4133 4073 4049 4010 4012 4054 3969 4029 4066 3996 4129 4060 4028 4052 3902 3925 4147 3990 4031 4059 4034 3935 4063 4056 3961 4003 3906 4005 3992 4060 3983 4051 4119 4115 4176 3937 4058 4183 4089 4088 4193 4043 4091 3998 4048 4108 4203 4250 4117 4178 4188 4137 4102 4114 4049 4155 4059 4048 4012 4251 4180 4138 4157 4144 4068 4134 4095 4088 3974 4098 4159 4009 4174 4069 4118 4077 3949 4009 4158 4013 4011 4071 4039 4037 3983 3946 4165 3991 4014 3988 4057 4040 3969 4015 3906 3951 4035 4062 3967 4089 3933 3935 3959 3910 3904 4023 3911 4016 3956 3916 3995 3920 4035 3976 4087 3868 3995 3959 4079 3967 3951 4029 4060 3974 4017 4036 3989 4026 4111 3920 4083 3994 3976 4012 3947 3995 4088 4092 4174 4044 3978 4026 3998 3980 4058 3806 3944 4022 3909 3990 4084 3937 4088 4149 4061 4034 4019 4017 4011 4097 3934 4044 4030 4029 4050 4043 3981 4044 4042 4136 4075 3960 3954 4055 4100 4107 3963 4010 3974 4005 4083 3963 4069 3919 4107 4096 3958 3963 3971 3938 4088 4141 3933 4001 4054 3940 4020 4070 3933 4037 4030 3974 4072 4030 3991 4068 4061 3994 4043 4040 4048 3997 4038 3845 4002 4014 3976 4024 4011 4012 4024 3935 3932 3999 3917 4122 3967 3906 3908 3906 4035 3944 3991 3982 3928 3846 3954 4000 3963 3959 3944 3981 3834 3895 4031 3881 3942 3853 3935 4033 3951 3941 3843 3981 3946 3934 3910 3762 3951 3841 3867 3864 3959 3990 3857 3990 3767 3810 3838 3792 3972 3919 3901 3844 3959 3903 3874 3912 3765 3907 3848 3863 3845 3934 3768 3965 3800 4044 3857 3748 3875 3848 3898 3793 3788 3876 3783 3845 3837 3791 3926 3899 3803 3727 3782 3777 3711 3856 3861 3731 3899 3832 3868 3798 3797 3811 3832 3726 3841 3782 3707 3762 3781 3743 3840 3822 3825 3776 3797 3871 3850 3879 3816 3762 3708 3826 3835 3742 3742 3696 3698 3783 3691 3818 3682 3759 3627 3795 3703 3729 3765 3625 3804 3757 3741 3756 3731 3673 3747 3812 3769 3754 3643 3641 3678 3893 3822 3655 3749 3695 3680 3767 3698 3674 3742 3659 3686 3836 3721 3677 3746 3638 3651 3690 3818 3655 3711 3704 3715 3629 3784 3679 3646 3676 3735 3730 3701 3713 3568 3629 3719 3719 3633 3710 3628 3651 3565 3729 3621 3701 3673 3648 3687 3637 3673 3677 3608 3697 3804 3701 3657 3654 3743 3727 3759 3748 3686 3657 3734 3718 3804 3839 3851 3849 3713 3858 3755 3878 3996 3848 3812 3922 3873 3786 3884 3865 3982 3895 3791 3856 3816 3958 3920 3962 3748 3871 3987 3877 3939 4011 3920 3909 3944 3971 3943 3875 3916 3920 3950 3897 3882 3832 4022 3842 4027 3823 3774 3782 3898 3831 3819 3848 3769 3869 3728 3935 3724 3764 3824 3753 3942 3790 3827 3778 3843 3712 3788 3852 3802 3813 3836 3803 3736 3814 3856 3788 3882 3770 3731 3837 3727 3653 3752 3645 3818 3859 3782 3788 3748 3651 3731 3656 3743 3671 3784 3606 3747 3665 3721 3581 3754 3713 3701 3703 3754 3750 3843 3888 3821 3800 3792 3927 3871 3956 4077 3966 4164 4023 4229 4287 4447 4303 4548 4551 4494 4838 4760 4778 4859 4782 4987 4811 4800 4655 4666 4626 4735 4550 4647 4665 4378 4566 4526 4388 4413 4422 4363 4328 4278 4412 4326 4199 4232 4162 4130 4104 4195 4094 4017 4079 3958 3930 3935 3868 3970 3820 3850 3777 3736 3767 3778 3853 3677 3623 3728 3694 3705 3642 3636 3636 3611 3673 3587 3628 3651 3663 3546 3632 3607 3583 3734 3720 3589 3570 3621 3658 3534 3633 3586 3570 3708 3605 3515 3460 3393 3515 3547 3512 3542 3624 3580 3594 3538 3478 3559 3521 3484 3556 3575 3545 3458 3465 3477 3474 3422 3445 3397 3574 3448 3515 3473 3505 3573 3502 3468 3650 3504 3608 3587 3511 3460 3598 3432 3599 3461 3466 3498 3449 3488 3538 3458 3485 3486 3496 3585 3523 3521 3552 3508 3570 3446 3441 3522 3548 3565 3488 3473 3417 3444 3420 3465 3396 3413 3612 3385 3508 3379 3526 3471 3507 3439 3633 3466 3403 3439 3356 3448 3416 3505 3452 3459 3469 3458 3474 3485 3492 3526 3588 3317 3521 3478 3525 3456 3406 3481 3501 3588 3452 3503 3481 3474 3400 3463 3522 3644 3496 3609 3493 3565 3480 3495 3513 3524 3435 3588 3408 3553 3528 3510 3518 3521 3561 3423 3590 3611 3561 3533 3531 3483 3555 3508 3483 3457 3522 3511 3511 3454 3533 3432 3512 3575 3577 3550 3560 3478 3469 3513 3534 3587 3572 3641 3509 3582 3551 3470 3558 3574 3515 3486 3566 3641 3660 3588 3479 3616 3611 3559 3633 3593 3679 3498 3557 3661 3545 3553 3595 3540 3578 3569 3594 3517 3600 3501 3591 3629 3594 3683 3634 3601 3605 3621 3533 3649 3663 3614 3596 3584 3584 3469 3629 3615 3501 3561 3649 3549 3548 3578 3616 3537 3522 3607 3526 3587 3665 3473 3545 3597 3555 3523 3451 3548 3565 3657 3545 3565 3585 3599 3403 3548 3491 3614 3572 3543 3514 3596 3592 3583 3523 3554 3504 3585 3589 3502 3484 3544 3514 3499 3578 3468 3470 3543 3622 3482 3514 3572 3431 3591 3571 3557 3515 3485 3536 3492 3587 3565 3486 3578 3603 3573 3596 3645 3530 3392 3544 3508 3503 3436 3605 3502 3533 3562 3490 3626 3413 3468 3603 3433 3484 3536 3547 3474 3573 3478 3504 3548 3444 3506 3555 3569 3440 3384 3445 3483 3572 3436 3407 3509 3591 3545 3586 3394 3520 3518 3651 3558 3495 3614 3468 3659 3592 3571 3587 3614 3592 3708 3528 3667 3650 3687 3705 3659 3790 3746 3775 3768 3829 3845 4123 3944 4128 4310 4445 4483 4767 4557 5156 5210 5277 5472 5818 5775 5892 6071 6334 6582 6736 6752 6762 6894 7034 7025 7114 7077 6857 6767 6906 6704 6544 6477 6375 6176 6097 5970 5768 5805 5670 5530 5640 5467 5542 5551 5520 5331 5147 5191 5171 5027 4984 4960 4920 4823 4833 4687 4751 4590 4433 4522 4391 4300 4202 4131 4074 3970 4043 4002 3908 3891 3883 3862 3958 3805 3818 3779 3759 3898 3850 3740 3807 3766 3675 3758 3854 3763 3854 3599 3925 3768 3771 3800 3769 3806 3826 3750 3909 3825 3772 3804 3777 3779 3748 3813 3800 3788 3797 3782 3782 3768 3630 3566 3681 3612 3712 3597 3633 3543 3567 3542 3593 3618 3641 3577 3589 3517 3506 3431 3533 3476 3617 3560 3545 3472 3594 3528 3410 3354 3463 3495 3515 3507 3497 3511 3421 3501 3520 3610 3526 3495 3454 3396 3559 3525 3355 3433 3379 3412 3403 3432 3444 3388 3398 3404 3430 3442 3532 3435 3419 3307 3479 3411 3464 3436 3394 3403 3452 3485 3378 3432 3283 3363 3304 3528 3511 3436 3434 3481 3428 3419 3379 3436 3359 3311 3433 3428 3393 3397 3424 3402 3354 3449 3328 3434 3405 3357 3480 3463 3379 3419 3418 3393 3386 3294 3308 3344 3314 3403 3329 3388 3366 3391 3277 3294 3434 3411 3331 3406 3389 3399 3432 3423 3354 3381 3340 3355 3364 3401 3418 3350 3246 3412 3242 3345 3303 3319 3398 3289 3295 3388 3326 3290 3355 3428 3460 3378 3444 3384 3304 3357 3335 3371 3319 3338 3368 3293 3284 3308 3431 3307 3378 3358 3437 3305 3377 3301 3371 3343 3324 3441 3220 3332 3337 3322 3362 3300 3331 3473 3435 3384 3270 3369 3373 3428 3340 3338 3437 3263 3386 3304 3268 3453 3287 3422 3385 3333 3378 3373 3358 3381 3391 3369 3289 3388 3365 3303 3474 3286 3382 3327 3357 3387 3353 3438 3416 3415 3448 3435 3417 3393 3360 3390 3327 3357 3359 3456 3426 3389 3411 3330 3402 3361 3339 3367 3342 3504 3361 3264 3405 3347 3335 3338 3274 3361 3345 3386 3289 3376 3382 3316 3386 3281 3399 3315 3160 3340 3265 3309 3334 3299 3234 3308 3333 3269 3334 3313 3301 3310 3344 3325 3240 3239 3337 3325 3256 3349 3301 3314 3307 3322 3367 3409 3324 3366 3282 3360 3381 3327 3269 3209 3300 3408 3276 3379 3282 3401 3240 3393 3220 3361 3356 3374 3309 3426 3347 3300 3246 3263 3307 3388 3363 3313 3333 3334 3372 3168 3232 3395 3386 3333 3333 3337 3441 3385 3232 3370 3283 3348 3313 3265 3304 3297 3364 3286 3301 3336 3277 3419 3311 3343 3351 3262 3304 3274 3311 3249 3216 3339 3217 3278 3247 3235 3290 3415 3295 3245 3281 3292 3219 3295 3208 3249 3250 3185 3321 3243 3266 3149 3239 3226 3190 3122 3154 3215 3193 3299 3238 3206 3257 3285 3259 3285 3204 3205 3288 3180 3267 3238 3231 3144 3276 3245 3177 3375 3280 3131 3212 3102 3174 3152 3173 3225 3256 3299 3192 3198 3212 3215 3207 3277 3161 3169 3158 3239 3110 3330 3240 3256 3202 3244 3384 3251 3207 3215 3265 3215 3229 3271 3092 3287 3155 3169 3094 3285 3159 3087 3136 3202 3200 3220 3221 3251 3136 3271 3274 3141 3234 3199 3326 3194 3280 3286 3155 3283 3259 3236 3215 3041 3238 3138 3212 3225 3186 3234 3232 3193 3158 3155 3202 3172 3108 3108 3234 3294 3230 3264 3182 3274 3175 3261 3145 3188 3140 3155 3218 3216 3258 3197 3289 3148 3186 3167 3237 3158 3130 3146 3205 3207 3175 3188 3354 3211 3152 3176 3150 3107 3233 3164 3209 3148 3164 3023 3173 3158 3150 3241 3297 3243 3152 3162 3192 3149 3286 3208 3250 3223 3186 3166 3130 3213 3107 3231 3147 3260 3175 3140 3097 3262 3207 3140 3127 3160 3224 3151 3226 3208 3176 3215 3319 3256 3085 3267 3206 3250 3203 3160 3149 3161 3090 3243 3053 3138 3197 3131 3256 3225 3184 3167 3201 3162 3191 3207 3116 3104 3285 3164 3185 3174 3128 3268 3190 3173 3223 3166 3116 3144 3227 3210 3181 3177 3280 3160 3191 3202 3178 3150 3159 3134 3131 3057 3180 3123 3170 3196 3069 3229 3230 3210 3185 3044 3089 3192 3177 3146 3198 3077 3143 3306 3202 3172 3221 3166 3265 3192 3211 3164 3206 3171 3251 3148 3179 3190 3177 3194 3268 3138 3165 3143 3180 3150 3301 3115 3187 3066 3164 3259 3101 3187 3136 3198 3164 3269 3170 3092 3202 3202 3188 3170 3112 3194 3239 3118 3215 3188 3269 3266 3191 3246 3150 3297 3321 3346 3237 3223 3183 3202 3226 3236 3284 3192 3323 3316 3158 3201 3077 3338 3286 3265 3184 3170 3096 3036 3152 3202 3158 3272 3089 3200 3149 3104 3256 3200 3230 3062 3216 3169 3145 3161 3190 3112 3115 3183 3083 3176 3113 3156 3102 3123 3194 3148 3107 3170 3078 3263 3110 3068 3265 3160 3141 3025 3214 3148 3154 3208 3138 3054 3154 3148 3131 3176 3072 3134 3233 3194 3100 3280 3128 3295 3198 3217 3135 3113 3191 3080 3195 3200 3214 3151 3227 3216 3156 3160 3315 3222 3215 3150 3094 3213 3036 3154 3129 3089 3262 3192 3193 3166 3067 3203 3036 3182 3224 3189 3067 3143 3135 3107 3222 3272 3200 3162 3188 3209 3093 3222 3056 3196 3132 3069 3140 3231 3166 3021 3249 3180 3191 3194 3170 3070 3030 3124 3056 3203 3060 3202 3163 3151 3104 3196 3015 3223 3070 3205 3221 3131 3156 3148 3158 3213 3138 3116 3169 3144 3127 3039 3157 3081 3185 3189 3119 3143 3151 3184 3162 3169 3210 3210 3126 3090 3172 3176 3246 3116 3096 3110 3197 3087 3123 3157 3173 3138 3129 3136 3135 3103 3092 3214 3069 3193 3142 3144 3166 3183 3210 3059 3151 3290 3241 3125 3095 3093 3183 3194 3107 3128 3123 3092 3221 3116 3152 3235 3158 3080 3187 3105 3112 3159 3181 3111 3195 3149 3250 3172 3290 3194 3027 3192 3245 3185 3111 3208 3234 3205 3240 3315 3278 3289 3344 3356 3335 3384 3465 3321 3326 3337 3439 3270 3369 3314 3498 3361 3418 3367 3396 3351 3332 3272 3307 3210 3335 3302 3362 3355 3351 3371 3323 3285 3193 3372 3294 3281 3302 3240 3338 3218 3231 3293 3303 3127 3287 3135 3256 3284 3295 3211 3209 3193 3271 3186 3248 3116 3187 3173 3186 3141 2993 3198 3129 3204 3106 3185 3074 3222 3157 3127 3137 3175 3192 3205 3156 3137 3228 3159 3228 3062 3208 3262 3165 3136 3151 3211 3234 3111 3128 3256 3071 3183 3222 3100 3194 3128 3195 3261 3209 3304 3251 3230 3171 3161 3243 3264 3222 3158 3214 3225 3166 3154 3231 3257 3274 3182 3176 3165 3108 3188 3161 3058 3237 3106 3233 3165 3225 3108 3204 3184 3240 3208 3142 3015 3183 3148 3158 3124 3152 3150 3165 3096 3122 3143 3090 3174 3214 3136 3072 3194 3145 3112 3173 3145 3176 3193 3107 3179 3023 3138 3251 3187 3107 3030 3172 3083 3064 3090 3175 3117 3082 3136 3125 3135 3117 3127 3115 3075 3195 3157 3059 3070 3169 3149 3142 3240 3124 3227 3151 3204 3206 3114 3148 3186 3066 3067 3178 3074 3104 3021 3148 3120 3236 3156 3182 3104 3137 3207 3086 3085 3127 3091 3069 3086 3163 3215 3121 3170 3126 3244 3060 3036 3145 3164 3082 3134 3161 3096 3141 3078 3171 3105 3127 3145 3195 3228 2961 3138 3131 3081 3138 3116 3204 3184 3172 3217 3124 3127 3081 3081 3167 3132 3154 3140 3095 3088 3173 3079 3044 3173 3249 3145 3257 3168 3240 3131 3176 3103 3167 3094 3131 3169 3155 3233 3179 3136 3081 3025 2964 3139 3187 3167 3093 3194 3207 3161 3140 3167 3104 3209 3057 3053 3160 3147 3093 3283 3131 3141 3197 3137 3033 3197 3007 3151 3157 3227 3062 3276 3088 3223 3140 3042 3042 3067 3083 3148 3210 3218 3153 3176 3093 3092 3149 3150 3128 3169 3096 3150 3094 3090 3212 3033 3146 3135 3120 3170 3143 3104 3125 3221 3111 3098 3166 3257 3190 3174 3223 3137 3049 3191 3101 3059 3175 3122 3079 3049 3089 3182 3173 3088 3226 3202 3105 3079 3153 3252 3149 3184 3054 3306 3229 3223 3187 3208 3011 3326 3166 3166 3190 3227 3303 3158 3276 3195 3318 3317 3330 3432 3514 3551 3530 3501 3602 3651 3702 3773 3867 3782 3921 4015 3995 4133 4226 4282 4331 4326 4372 4221 4305 4414 4267 4359 4283 4288 4344 4391 4351 4358 4329 4332 4344 4306 4234 4222 4068 4158 4009 4098 3992 3938 3944 3948 3840 3724 3738 3726 3744 3678 3596 3539 3573 3538 3580 3534 3553 3374 3357 3490 3498 3386 3444 3437 3341 3291 3329 3382 3416 3326 3397 3335 3532 3387 3405 3408 3343 3265 3307 3395 3427 3331 3336 3252 3295 3354 3288 3204 3258 3272 3293 3332 3383 3337 3228 3163 3312 3288 3237 3277 3138 3251 3329 3295 3262 3279 3249 3320 3200 3193 3311 3290 3175 3312 3360 3476 3412 3570 3603 3619 3673 3532 3652 3749 3710 3853 3732 3846 3727 3787 3745 3724 3769 3747 3727 3673 3683 3607 3673 3622 3687 3638 3603 3525 3443 3515 3486 3486 3402 3402 3400 3246 3383 3326 3194 3280 3220 3290 3338 3200 3290 3192 3122 3179 3223 3161 3287 3114 3105 3192 3129 3185 3016 3163 3211 3246 3124 3048 3123 3130 3180 3135 3033 3183 3158 3099 3193 3121 3045 3051 3155 3261 3121 3181 3080 3069 3091 3129 3091 3102 3187 3012 3077 3074 3079 3105 3043 3140 3215 3115 3097 3104 3161 3196 3070 3042 3066 3051 3023 3102 3138 3029 3082 3162 3192 3047 3062 3153 3054 3069 3106 3084 3050 3026 3205 3141 3135 3049 3152 3280 3102 3201 3120 3166 3216 3241 3264 3125 3276 3173 3271 3191 3266 3169 3265 3264 3171 3269 3207 3217 3150 3267 3198 3142 3269 3174 3180 3166 3256 3129 3055 3174 3122 3229 3199 3309 3167 3113 3074 3232 3142 3061 3159 3100 3190 3087 3110 3157 3122 3203 3200 3097 3107 3065 3145 3062 3200 3064 3179 3142 3106 3119 3105 3141 3215 3103 3124 3259 3167 3170 3075 3029 3135 3089 3156 3019 3052 3036 3150 3125 3198 3167 3043 3109 3066 3176 3121 3144 3169 3113 3110 3026 3193 3160 3113 3165 3213 3065 3023 3082 3147 3152 3128 3041 3118 3116 3196 3159 3098 3093 3211 3190 3215 3232 3210 3299 3297 3233 3213 3366 3205 3224 3222 3299 3281 3329 3338 3274 3291 3299 3309 3276 3255 3132 3169 3323 3191 3175 3166 3209 3220 3212 3248 3267 3211 3212 3041 3200 3197 3248 3130 3086 3136 3107 3109 3077 2972 3106 3118 3054 3094 3174 3079 3049 3056 3096 3067 3170 3048 3141 3040 2995 3054 3029 3092 3086 3081 3117 3104 3018 3069 3008 2988 3117 3052 3070 2993 2975 2994 3053 3135 3096 3096 3134 3024 2961 3018 2993 3020 2952 3082 3088 3029 3041 3090 2976 2986 2947 3096 3059 3121 2964 2950 2988 3023 3131 2984 3045 3028 3071 3059 3036 3098 3033 3097 2987 3048 3129 3070 3075 3065 3024 3053 2977 3031 3151 3034 3028 3063 3055 3056 3106 3108 3134 3016 2991 3018 3058 3172 2977 3103 3044 3170 2979 2942 2996 3073 3028 3012 3076 2991 2894 3074 3046 3038 3092 2955 3121 3063 2977 3021 3053 2936 3046 3058 2971 2978 3134 3011 2926 3046 3075 3021 3047 2976 3124 2987 3031 3039 2978 3034 3039 2931 3075 2970 3003 3023 3011 2909 3000 3015 3042 3036 3134 3018 3038 3115 2998 3099 3070 2970 2973 2949 2979 3033 3029 2998 3084 2979 3015 2971 3019 2960 2924 2911 2983 3047 3007 3030 3125 3045 3016 3018 3029 3022 3068 3169 3018 2971 3051 2982 3079 3004 3006 3078 2991 3009 3119 3018 3073 3110 3113 3109 3067 2999 3018 3017 3018 3095 3068 3001 3081 3050 2988 3047 3088 3090 3130 3108 3033 3088 3037 2974 2875 3030 3042 3038 3088 3005 3048 3027 3065 3071 3038 3032 3089 3099 3041 3003 3092 3167 3068 3009 3121 2963 3091 2992 3028 3050 3007 3062 3194 3033 2998 2998 3014 3022 2963 3002 3083 3020 2964 3184 3081 2992 2990 3063 3043 3000 3102 3029 3078 3079 2980 2967 3014 3036 3093 2995 3096 3065 2980 3068 2923 3009 3025 2960 2974 3059 3050 3144 3018 3030 3041 2921 2931 2958 3098 2964 3053 2942 3038 3028 3004 2937 3079 3063 3068 2981 2990 2974 3018 3056 3097 2993 3057 2960 3036 3051 2922 2928 3035 2956 3052 3021 3008 3051 2952 3092 2932 2942 2941 3016 3013 3004 3080 3014 3056 3054 3007 3046 3047 3060 3073 3005 3045 2988 2919 3004 2916 2960 3017 3041 3099 3088 2965 2959 3053 3076 2924 2961 3109 2967 2991 3040 3031 3000 2963 3067 2960 3083 3061 3112 3100 3005 2953 2987 3043 3043 3095 3018 3001 3054 2917 3053 3035 3009 2996 2952 3093 3035 3059 3046 3009 3010 3016 2910 2998 2938 3052 2989 2967 2977 3064 2996 3147 2904 3080 3091 2976 2963 3048 3011 3097 2982 2966 2970 3040 3038 2978 3046 2983 3035 2890 3004 3071 2938 3015 3130 3066 3041 3081 3099 3075 3172 3067 3038 2966 3067 3123 3071 3080 3051 3093 3065 3037 2992 3136 3091 3006 3111 3068 3130 3122 3032 2990 3034 3091 3051 2978 3020 3000 3088 2997 3111 3069 3037 3033 3083 3038 3075 3137 3021 3030 3091 3015 3107 3127 3153 3212 3201 3129 3208 3171 3242 3326 3254 3299 3300 3194 3284 3265 3391 3267 3389 3273 3418 3386 3222 3300 3244 3269 3391 3316 3356 3306 3260 3197 3283 3335 3288 3212 3304 3242 3139 3230 3191 3213 3199 3200 3260 3151 3103 3102 3211 3070 3289 3173 3113 3213 3115 3138 3127 3095 3180 3029 3034 3104 3123 3030 3117 3130 3098 3027 3113 3054 3107 3178 3061 3094 3190 3112 3161 3101 2998 3169 3060 3096 3122 3122 3101 3185 3042 2982 3116 3018 3055 3026 3081 3063 3084 2974 3207 2995 3070 3018 3075 3102 3011 2970 2984 3020 3021 3013 3072 3005 3078 3090 3042 3141 3025 3014 3034 2971 3056 2995 3004 2997 2883 3048 3073 2993 3104 3012 3093 2964 3018 2964 3096 3055 3000 3081 3067 2935 3007 3020 3020 2997 3006 2942 3015 2954 3092 2966 2911 3032 2968 3011 3072 3029 2921 3004 3025 3016 2965 3022 2992 2991 3168 3016 3046 3005 2992 2960 3008 3006 3014 3124 3067 2948 3050 2919 3011 3136 3087 3011 3073 3137 3043 3072 2970 3011 2980 2998 2942 3116 2954 2955 3040 3015 3027 3007 3097 3095 2976 3008 3059 3060 3010 2974 3074 3010 3024 2958 3008 2869 2866 3097 3057 2936 2935 2978 3117 3018 3052 2939 2992 3047 2939 3045 2910 3038 3084 3115 3036 3035 3058 2993 3069 3041 2987 3039 3034 2984 2984 3075 3123 3068 3023 3123 3072 2907 2965 2952 3061 2935 2986 3069 2922 3009 2974 3017 2965 3009 3021 2969 2947 2924 3040 2944 3063 3121 3028 2978 3061 3021 2983 3042 3051 3108 3027 3126 3040 3059 3122 3193 3146 3087 3275 3066 3140 3086 3198 3054 3026 3102 3177 3309 3227 3312 3222 3331 3368 3294 3139 3316 3169 3340 3201 3279 3260 3209 3236 3182 3297 3230 3255 3219 3143 3131 3220 3148 3172 3140 3090 3123 3155 3080 3056 3142 3182 3230 3118 3048 3122 3021 3117 3126 3104 3104 3177 3109 3179 3113 3171 3086 3114 3025 3081 3132 3188 3150 3136 3103 3082 3114 3046 3021 3013 3008 2979 3141 3153 3036 3052 3091 3200 3023 3083 3057 3000 3048 3011 3069 3090 3017 3062 3016 3059 3035 3055 2977 3011 3087 2948 2973 2973 2932 3021 2961 2989 2889 2986 2967 3078 2976 2988 2987 3121 3049 2988 3033 2994 3101 3015 3022 2954 2969 3041 3047 2966 2998 3004 3063 3082 3014 2965 3038 3023 3053 3085 3120 3040 3040 3033 3011 3024 3087 3084 3106 3029 3104 3135 3086 3006 3049 3038 3048 3127 3098 3111 3055 3083 3003 3142 3119 3177 3087 3052 3020 3135 2992 3079 3085 3086 3116 3011 2984 3109 3101 3014 3011 2964 3143 3139 3080 3017 3137 3133 3077 3005 3043 3005 3078 3061 3000 3011 3005 2921 2971 2995 2942 3034 2901 3023 2936 2964 3140 3102 3100 3017 3007 3033 3035 3039 3047 3010 3114 3158 3061 3164 3086 3086 3059 3080 3021 2966 3139 3026 3009 3087 3167 3165 3057 2949 3016 3033 3031 3178 3131 3088 3116 3004 3111 2942 2921 3060 3006 3033 2917 2929 3002 3102 3031 3034 2961 3135 3021 3135 3084 3025 3097 3004 2966 2957 2966 3097 2972 3078 2982 2952 3021 2986 2921 2978 2969 2974 2998 3072 3063 2975 2989 2866 2956 2945 2970 3055 2971 2931 2948 2955 3087 2979 3110 3030 2996 3012 2992 2960 3030 3110 2992 3093 3082 3083 2935 2972 3032 2941 2947 3150 2981 3034 2992 2965 2981 3059 2968 2878 3033 3003 3000 2948 3003 2987 2849 2941 2947 3008 2964 2963 2889 2928 3030 2960 3039 3062 2966 2970 2983 2910 3021 3060 2988 3009 3007 2934 3089 2950 2979 2991 2949 2955 2866 3029 2928 3058 2944 2982 3086 2978 2902 3076 2976 3111 2918 2914 3017 3006 2923 2972 2912 2892 2964 3016 2929 2974 2992 2981 3040 2983 2966 2858 2988 2947 3061 2966 3006 2917 3013 2997 2918 2930 3000 2883 2991 2989 3069 2989 3073 2897 2984 2879 2899 2995 3018 2955 3029 2989 2972 3065 2989 3062 3029 2968 2979 2940 2955 2983 2969 2980 2959 2818 2940 2953 3036 2944 2963 2955 3032 2940 2941 2969 3056 2999 2926 2939 2998 2999 3075 2964 2925 2802 2905 2862 3035 2991 2869 2995 2848 2927 2938 2945 2936 3009 2883 2882 3002 2993 3022 2952 2967 2971 3011 3004 2900 2988 3038 3015 2908 2966 2997 2975 2957 2911 2956 2952 3090 2977 3010 2862 3022 3003 2924 2999 2886 3015 2894 2904 2885 3004 2988 3006 2936 2886 2949 2965 3029 2903 2942 2944 2993 2938 2929 3011 3001 2902 3032 3102 2976 2942 2914 3019 2947 2980 2927 2995 2917 3056 2977 3036 2945 2949 2881 3006 2885 3059 2917 2947 3030 2931 3026 2882 3047 3109 3067 2925 2998 2961 3077 2970 2998 2968 2963 2934 3001 2876 2924 2942 2964 3026 2923 2966 2930 2880 2900 3020 2881 2988 2924 3082 3028 3003 2995 3009 2882 2979 2989 2960 2930 3100 2916 2941 3004 2917 2989 2920 2947 3043 2974 2858 3028 3027 3044 3014 3004 2932 3023 2862 2990 2974 2965 2937 2931 2935 2948 2901 2881 3027 2972 3037 2979 2984 2992 2970 2952 2912 2965 2947 3042 2936 2950 2977 3021 2960 2946 2948 2917 2945 3023 2908 2888 2950 2909 2993 2964 3023 2974 2871 2952 3000 3028 2960 3026 2877 2915 2994 2873 2992 2979 2958 3005 2998 2916 2981 2892 3000 3005 3035 2953 3007 2976 2886 2984 2919 2861 2947 2867 2980 2970 2834 3013 2861 3017 2946 2965 3002 2912 2996 2932 3002 2969 2924 2912 3005 2860 2996 2989 3008 3054 2955 2936 2900 2859 2919 2943 2925 2908 2879 2929 2831 2888 2983 2902 2921 2997 2951 2927 2997 2965 2911 2882 2887 2887 2931 2839 2929 2923 2754 2938 2963 2897 2964 2944 2964 2896 2971 2918 2956 2920 3093 3055 2946 2948 2989 2937 2986 2894 2985 2915 2971 2879 3069 2842 2986 2855 3036 2951 2849 3029 3029 2963 2926 3070 2941 2888 3047 3023 2960 3002 2987 3002 2948 2933 2906 2959 2986 2924 2906 3048 3006 2963 3029 2963 2858 2933 3069 2863 3023 3082 3063 2956 2949 3001 2853 3081 2993 2904 2972 2921 2985 3002 3053 2946 2971 2889 2903 2980 2979 3007 2966 3019 2869 2926 2972 2951 2901 2981 2825 2965 2980 3037 2940 2866 2968 2897 2936 3054 2886 2899 2987 2954 2926 2904 2859 2993 2933 2926 3046 2962 3019 2940 2929 2947 2981 2913 2831 2912 2959 2958 2785 3002 2991 2945 2948 2946 2991 3039 2958 2917 3014 2918 2878 2872 2988 2946 3029 2843 3033 2960 2852 2875 2879 2918 3056 2920 2838 2866 2942 2972 2922 2830 2948 2911 3053 3009 2971 2937 3005 2849 2936 2929 2899 3132 2983 2845 2953 2866 3020 2942 3012 2988 2919 2932 2923 2911 2982 2992 2865 3055 2926 2964 2970 2879 2905 2933 2899 2906 2957 3072 2958 2974 3011 2855 3029 2979 2951 2945 2914 3022 2996 2982 2987 2969 2942 2899 2909 2894 2960 2890 2912 2916 2910 2980 2896 2983 2889 2905 3025 2968 2893 2918 2938 2937 2871 2862 2916 2993 3092 2873 2854 2923 3045 2982 3001 2997 3007 2903 3026 2954 2967 3012 2991 2914 3022 2918 3057 2883 2929 2941 2952 2804 2947 2879 2944 2906 2962 2971 2958 3027 2857 3068 2955 2895 2930 2912 3061 2954 2897 2974 2856 2862 2928 2977 3021 2895 2975 2947 2877 2958 2951 3000 2969 3083 2936 3002 2946 2879 2927 2935 2965 3023 2916 2935 2984 3046 2921 2971 2880 2859 3017 2984 2917 2878 2918 2923 3013 3051 2987 2946 2961 3002 3009 2975 3008 3017 2912 3054 3112 3064 3021 3012 2956 3063 3059 2997 2926 3082 3099 3210 3075 3092 3041 3242 3083 3150 3107 3079 3083 3093 3042 3212 3107 3149 3121 2929 3165 3107 3111 2975 3006 3077 3088 2942 3022 3040 2914 3097 3121 3077 3025 2957 2949 3060 2909 2972 2910 2949 3054 2940 3048 3023 2942 2997 3030 3023 2904 2946 3010 2931 2920 2937 3003 2976 2989 3046 2903 2965 3051 2976 3095 2997 2976 2953 3053 2938 3014 2957 3052 2956 3003 2905 3060 3004 2954 2979 2930 3023 3011 3025 3136 2932 2954 2889 2989 2853 2955 2910 2939 2964 3031 2937 3029 2938 2945 2997 3010 2962 2781 2893 3032 2887 3024 2906 3025 2980 3003 3011 2965 3043 2917 2842 2914 2992 2870 2950 2910 3009 3022 2783 3006 2924 2984 2938 2991 2967 3001 2908 2956 2945 2910 2823 3062 2828 3014 2992 3005 2933 2952 2960 2893 3014 2887 2955 2927 2884 3101 3029 2946 2923 2925 2979 2968 2875 2971 2891 2889 2957 2889 2986 2911 3013 2881 2876 2835 2966 2955 2893 2854 2946 2947 2968 2952 2960 3001 3045 2969 2903 2912 2880 2974 2967 3005 2965 3028 2945 2965 3027 2951 2977 2876 2881 2993 2876 2953 2946 2932 3004 2899 3041 2944 2917 2915 2872 2891 2986 2897 3008 2911 3005 2925 2865 2951 2896 2924 3010 2881 2845 3000 2952 2950 3067 2974 2996 2921 2939 3019 2908 2938 3007 3027 2981 2919 2930 3025 2932 3014 2948 2960 2937 2908 2858 2971 2880 2890 2909 2962 2976 2947 2919 3023 2990 3067 2919 2894 2896 2983 3001 2898 2925 2921 2908 2989 2821 2960 2921 3046 2936 3022 2978 2986 2957 2934 3010 3016 2820 3013 2862 2994 3048 2965 2911 2928 2943 2978 2890 2907 2962 2874 2885 2961 2957 2921 2933 2972 2975 2951 2870 2831 2885 3057 2940 2895 2916 2850 2913 2867 2971 3006 2974 2929 2910 2881 2986 2792 3013 2971 2958 2926 2866 2871 2915 2938 2862 2924 2902 3021 2962 2880 2908 3002 2983 2922 2938 2931 2926 2944 2874 2904 2982 2955 2911 3008 2903 2892 2930 2911 2799 3003 2914 2943 2900 2875 2933 2876 2952 2854 2906 2861 2962 2966 2888 2978 2878 2943 2981 2950 2963 2878 2857 2928 2940 2837 2984 3048 2932 2969 2981 2928 2919 2920 2870 2907 2999 2890 2869 2994 2864 2937 3092 2984 3004 2936 3071 2843 2858 2865 3002 2936 2908 2923 2997 2902 2784 2888 2939 3021 3059 2962 2933 2982 2918 2938 2995 2915 2878 2915 2892 2840 2889 2826 2960 2873 3017 2991 2920 2937 2978 2959 3030 2884 3011 2857 2919 2975 2930 2923 2946 2911 3069 2934 2911 2926 2894 3024 2852 2956 3050 2858 2865 2907 2880 2937 2902 2919 2923 3027 3022 2893 2942 2909 2900 2850 3056 2948 3016 3025 2943 2887 2970 2880 2934 2966 2972 2929 2921 2900 2905 2943 3021 2970 2895 2908 2812 2970 2940 2957 3007 2871 2969 2939 2957 2932 2878 2949 3022 2970 3022 2975 3008 3020 2866 2896 3089 2973 3030 2946 2891 3003 2933 2912 3060 2989 2894 2959 2996 3012 2907 2941 2912 2849 2967 3008 2979 2864 3004 2950 3044 2888 2877 2921 2944 2941 2948 2948 3008 2891 2961 2910 2881 2981 2986 2964 3011 2898 2898 2919 2945 2851 3010 3003 2976 3009 3007 2952 2866 2904 2987 2879 2921 2963 2938 2924 2929 2912 2817 2933 2935 2979 2959 3006 2891 2945 3046 2938 2994 2901 3023 2835 2974 2997 2831 2948 2857 2890 2932 2930 2908 2992 2889 2888 2976 2966 2976 3004 2855 2992 2960 2855 3019 3008 2956 2960 2884 2931 2917 2919 3009 2913 2937 3018 3022 2977 2902 3018 2810 2933 2861 2985 2843 2978 2937 2894 2897 2862 2867 2971 2958 2896 2888 2937 2983 2990 2958 2964 2915 2937 2896 2937 2871 2956 2961 2884 2857 2942 2938 2920 2937 2977 2924 2936 2930 3019 2926 2912 2936 2923 2943 2905 2988 2978 2983 2916 2943 2972 2933 3001 2929 2927 2977 2907 2946 3004 3004 3019 3044 2945 3014 2939 2977 2904 2945 2903 3008 2930 2954 2976 2885 2873 2954 2962 2895 2955 3015 2992 2948 2991 2996 3001 2931 3022 2958 3094 2911 2947 2963 2934 2964 2943 2896 2974 3025 3006 3104 3015 2940 3031 3018 2945 2935 3014 3056 3136 3023 3025 3073 3008 3044 3083 3068 2945 3179 3090 3004 3054 3001 3019 3022 2992 3072 3064 2919 3070 2974 2945 3064 3024 3011 3004 3020 3025 3090 2974 2930 2975 2950 3085 3026 2964 2960 2951 2939 3013 3030 2914 2979 2985 2998 3114 3029 3031 2921 3075 3019 3045 3016 2989 2939 2980 2942 2977 2972 2928 2930 2947 3040 3024 2923 3056 2984 2959 2933 3021 2914 2926 2939 2963 2935 2929 2904 3010 3005 3012 3000 2993 2929 3017 2946 2997 2885 3021 2912 2920 3042 2973 2972 2995 2945 2951 2947 2984 2858 2922 2928 2909 3021 3066 2869 2872 2943 2934 2848 3035 2877 3025 3005 2948 2978 3006 2959 2919 2871 2947 2937 2937 2950 2880 3011 2951 2906 2933 2966 2959 2975 2924 2955 2960 2915 2961 2974 2934 2970 2993 2947 2914 2982 3032 3041 2897 2932 2913 2939 2965 2833 2959 3040 2968 2947 3014 2908 3073 2901 2934 2887 2963 2926 2988 2968 2887 2923 2929 2976 3029 2929 2955 2946 2964 2929 2986 2994 2904 2887 2962 3039 2956 2950 3006 2991 3000 2972 3033 2923 2953 2920 2914 2958 3017 2916 3054 2911 2920 2907 2984 3051 2945 2944 2901 2932 2952 2947 2994 2949 2979 2992 3020 2905 2994 2935 3031 2968 2983 2951 3002 2915 3103 3022 3013 2999 3121 2947 2973 3038 3131 3046 3135 3024 3130 3111 3129 3145 3011 2994 3154 3145 3143 3099 3058 3187 3184 3090 3141 3141 3122 3177 3231 3243 3204 3155 3196 3193 3200 3245 3296 3115 3135 3118 3171 3110 3050 3111 3108 3123 3126 3209 3143 3142 3060 3200 3102 3201 3199 3104 3128 3305 3094 3113 3021 3166 3147 3120 3145 3149 3074 3082 3019 3093 3045 3074 3078 3028 3017 3098 3022 3121 3002 3000 3117 3010 2946 3089 3030 3128 2911 3030 2992 3023 2920 3005 3069 3054 3071 3044 2948 2961 2992 3029 3036 3107 3041 3043 3042 3038 2960 3031 2995 2909 2996 3009 2962 3037 2951 2965 2990 2939 3068 2985 3016 3091 3014 2874 3004 3087 2990 3005 3087 3089 2913 3126 3057 2974 3001 2993 3011 2962 3065 3017 2992 3077 2965 2996 3038 2989 3079 2980 2934 2894 2934 3133 3044 3039 3102 2993 3024 2981 3068 2914 2878 2952 2872 3017 3018 2967 3010 2951 2989 2930 2928 2917 2952 3034 2916 2922 2939 2880 2974 2960 3015 2937 3048 2937 3009 2982 2997 2969 2995 2944 2973 2993 3013 3044 3048 2944 2945 2990 3012 3027 2961 3070 2975 3080 2955 3123 2987 3063 2958 2945 3084 3025 3006 2978 3033 2994 2958 3050 2937 2931 2978 3032 2996 2966 3025 2977 3096 3045 3074 2991 3027 3070 3104 3039 3088 3083 2950 3035 3055 3016 3071 2990 3029 3038 2976 3095 3077 3008 3019 3153 3022 3029 3049 3185 3099 3005 3129 2997 3094 3022 3089 3137 3030 3070 2940 2931 2993 2992 3095 3041 3000 3061 2954 3051 3113 2985 3007 3019 3016 3085 2900 2969 2994 2939 3058 2980 3022 3045 2959 3053 3006 2933 3029 2902 2918 2886 3002 3043 3088 2962 3061 2942 2994 2953 2964 3017 3016 2929 2986 2980 2926 2926 2965 2964 2979 2993 2989 2946 2936 2922 2975 3056 2916 2995 2854 2991 2898 2936 2955 2949 2924 2971 2970 3051 2918 2852 2951 3015 2964 2956 2971 2978 2920 2945 2953 2871 3033 2976 2891 2904 2953 2965 2926 3068 2907 2891 2916 3029 2920 2880 2950 2979 2945 2941 2907 3002 2936 2964 3025 3028 2896 2842 2928 2889 2909 2822 2932 2930 2858 2960 2949 2940 2878 2937 2972 2962 2939 2921 2977 2957 2955 2914 2933 2900 2948 2915 2976 2900 3037 2915 2988 2848 2782 2961 2955 2957 2895 2991 2883 2878 2940 2810 3025 2993 2967 2899 3041 2897 3091 3021 2927 3024 3007 2940 2957 3002 2852 2896 2967 2864 2932 2786 2945 2912 2860 2852 2980 3029 2975 2947 2954 2892 2887 3003 2943 2966 2882 2978 2899 2997 2986 2973 2890 2866 2890 3001 2944 3005 2993 3041 3000 3062 2948 2920 2900 2896 2923 3036 2936 2966 2906 2849 2940 3077 2923 2956 3001 2918 2870 2914 2896 2962 2908 3037 2906 2914 2932 3060 2946 2936 2919 2799 3003 2856 2998 2922 3008 2991 2934 2883 2925 3033 2940 3009 2919 2909 2944 2813 2996 2953 2814 2861 2917 2968 2936 2959 2950 2960 2867 2818 2864 2927 3019 3009 2861 2855 2952 2987 2877 2956 2996 3008 2887 2964 2872 2928 2906 2955 2935 2824 2979 3021 2849 3030 2903 2926 2877 2983 2960 2927 2980 2880 2938 2871 2955 2970 2934 3015 2900 2910 2898 2980 3048 2921 2936 2958 3002 3013 2888 2936 2890 2908 2901 2842 2991 2932 2897 2990 2840 2872 2912 2887 2921 2947 2830 3029 2965 2864 2921 2950 2943 2927 2894 2951 2885 2989 2932 2912 2920 2877 3009 3002 2844 3076 2912 2905 2887 2894 2934 3077 3020 2951 3009 2894 2921 2833 2952 2951 2872 2920 2967 2932 2902 2901 2840 2895 2968 2921 2917 2952 2840 2949 3064 2944 2920 2950 2886 2962 2914 2954 2927 2904 2950 2928 2943 2935 2908 2936 2848 2966 2925 2887 2963 3011 2929 2871 2976 2944 3030 2954 2982 2942 2912 2950 2829 2945 2916 2918 2943 2978 2924 2887 2884 2958 3003 2909 2928 2924 2844 2896 3010 2927 2907 2872 2862 2991 2921 3093 2936 2924 2859 3062 3069 3009 2903 2976 2846 3012 2996 2820 2918 2879 2910 2854 2882 2904 3015 2889 2939 2869 2880 2900 2908 2893 2987 2981 3009 2870 2945 2884 2861 2967 2872 2961 2945 3000 2911 2952 2934 2955 2908 2973 2964 2838 2895 2947 2954 2886 2978 2928 2978 2886 2868 2986 2957 2856 2913 2960 2912 2939 2922 2978 2890 2948 2945 2859 2950 2907 2851 2968 2883 2944 2885 2855 2776 2982 3004 2886 2940 2881 2937 2968 2975 2842 2907 2823 2899 2843 2890 2918 2892 2979 2869 2910 2888 2903 2961 2934 2899 2938 2935 2807 2915 2995 2917 3037 2924 2892 2973 2901 2992 3001 2950 2949 2963 2949 2958 2936 3027 2980 2938 2908 2879 2962 2943 3006 2908 3029 2946 2962 2884 2989 2921 2955 2980 3033 2913 2986 2904 2898 2943 2909 2917 2949 2911 2851 2963 2855 2940 2865 2911 2947 2779 2837 2991 2876 2845 2869 2907 2948 2851 2981 2932 2948 2934 2872 2938 2935 3071 2891 2900 2895 2854 2927 3023 2842 2919 2959 2935 2944 2914 2864 2933 2847 2932 2897 3043 2881 2968 2961 3030 2995 2961 2889 2953 2969 3008 2965 3079 2851 2920 2889 2904 2961 2972 3011 2777 3003 2916 2954 2818 2921 2840 2911 2913 2895 2985 2958 2988 2967 2960 2950 2824 2909 2941 2851 2989 2965 2897 2945 2973 2961 2894 2952 2956 2931 2886 2922 2965 2927 2856 2941 2939 2932 3016 2964 2970 3032 2938 2943 2916 2980 2928 2904 2970 2960 2979 3021 2950 2929 2991 2945 2974 3018 2973 2987 2982 2967 3030 2997 3024 2899 3062 2994 3050 2989 3059 3126 3095 3117 3102 2984 3019 3110 3072 3056 3132 3054 3115 3148 3134 3130 3159 3123 3059 3024 3083 3069 3118 3047 3161 3066 3067 3023 2993 3183 3111 3075 3061 2967 3083 3083 3107 2902 3111 3100 2925 3119 3017 3097 3099 2987 3111 3120 3132 2970 3096 2936 3014 2907 3057 2935 3036 3083 3077 3078 3032 3043 3046 3000 2967 3066 3027 3065 3004 2981 3007 2951 3051 2931 2987 2971 2938 3018 2927 2878 3021 2891 2892 2989 2840 2988 2948 2946 3042 2906 2998 2946 3039 2932 3083 3007 2920 3000 2966 2997 2919 2976 2995 3101 3025 2961 3042 2901 3094 2992 2931 3094 2982 2982 2939 2913 2970 2980 2888 2985 2923 2946 2999 2976 2980 2999 2935 3013 2885 2957 2926 2894 2799 2971 2817 2993 2934 2972 2995 3009 2950 2956 2982 2913 2945 2955 2934 3015 2975 3027 2864 3014 2987 2938 2890 2909 3026 2931 3024 2999 2932 2858 2989 2928 2952 2878 2844 3000 2819 2907 2863 2877 2976 2924 2975 2863 2916 2864 2992 2970 2897 2875 2859 2911 3026 2944 2936 2970 2918 2858 2878 2915 2950 2963 2907 2943 2991 2927 2910 3002 2950 2913 2988 2934 2954 2960 2974 2904 3027 3038 2869 2951 2922 2931 2848 2915 2899 2859 2970 2928 2980 2924 2893 2911 2948 2821 2955 2949 2924 2938 2949 2855 2925 2852 2946 3036 2958 2966 2913 2906 2958 2886 2926 2929 2980 2933 2874 2978 3022 3026 2867 3027 2956 2965 3057 2993 2877 2969 2881 2989 2876 2912 2941 3066 2998 2932 3023 2913 3041 3015 2943 2917 3028 2955 2980 2979 2861 2907 2966 2885 3044 2917 2902 2775 3061 3017 3010 2962 2999 2921 2950 2998 2949 3025 2989 3002 2939 3046 3034 2894 2995 2937 2991 2950 3007 2978 2984 3007 3018 2962 2967 2822 2918 3052 2935 2931 2916 2983 2916 2866 2983 2992 2975 2863 2942 2938 2941 2833 3040 2880 2808 2998 2864 2862 2952 2982 2947 2918 2866 2881 2926 2891 2988 2896 2928 2968 2884 2973 2900 2961 2999 2967 2890 2950 2952 2994 2884 2928 2904 2986 2972 2900 2990 2919 2892 2902 2845 2957 2888 2910 2980 2910 2875 2960 2879 2936 2892 2952 2860 2915 2847 2960 2858 2928 3034 2884 2982 2965 2898 3040 2966 2919 2940 2914 2930 2970 2959 2905 2857 2943 2977 2947 2947 2937 2972 2904 2988 2951 2911 2885 2927 2938 2931 2934 2888 2969 2927 2927 2997 2909 2880 2955 2868 2883 2947 2910 2921 2981 2948 2933 2909 2886 2802 2974 2892 2923 2957 2958 2907 2954 2984 3048 2902 2921 2994 2948 2908 2847 2970 2959 2941 2986 2970 2987 2960 2840 2971 2926 2967 2869 2970 2945 2916 2917 2978 2964 2899 2953 2929 2952 2913 2881 2880 2953 3012 2944 2973 2951 2932 2987 2938 2981 2887 3056 2946 2963 2906 2874 2887 2875 3044 2937 2961 2955 2984 2939 2963 2950 2949 2953 2862 2902 2938 2910 2962 2980 2911 2934 2998</counts>
			</dataPoints>
		</scan>
	</xrdMeasurement>
</xrdMeasurements>
