<?xml version="1.0"?>
<xrdMeasurements xmlns="http://www.xrdml.com/XRDMeasurement/2.3" xmlns:xsi="http://www.w3.org/2001/XMLSchema-instance" xsi:schemaLocation="http://www.xrdml.com/XRDMeasurement/2.3 http://www.xrdml.com/XRDMeasurement/2.3/XRDMeasurement.xsd" status="Completed" recordIdentifier="{B2009326-54F2-4A2F-A584-58BB5264A38C}">
	<comment>
		<entry/>
	</comment>
	<sample type="To be analyzed">
		<id>GPSS_Li1p8Bi0p2Ca0p2Mg0p6Cl4_102025_68f72594028f64128e25d0d2</id>
		<name></name>
		<preparedBy></preparedBy>
	</sample>
	<xrdMeasurement measurementType="Scan" status="Completed" sampleMode="Reflection">
		<usedWavelength intended="K-Alpha 1">
			<kAlpha1 unit="Angstrom">1.5405980</kAlpha1>
			<kAlpha2 unit="Angstrom">1.5444260</kAlpha2>
			<kBeta unit="Angstrom">1.3922500</kBeta>
			<ratioKAlpha2KAlpha1>0.5000</ratioKAlpha2KAlpha1>
		</usedWavelength>
		<incidentBeamPath>
			<radius unit="mm">145.00</radius>
			<xRayTube id="1010048" name="Empyrean Cu LFF HR (9430 033 7310x)">
				<tension unit="kV">40.0</tension>
				<current unit="mA">15.0</current>
				<anodeMaterial>Cu</anodeMaterial>
				<focus type="Line">
					<length unit="mm">12.0</length>
					<width unit="mm">0.4</width>
					<takeOffAngle unit="deg">6.0</takeOffAngle>
				</focus>
			</xRayTube>
			<sollerSlit id="21010002" name="Soller slits 0.04 rad.">
				<opening unit="rad">0.0400</opening>
			</sollerSlit>
			<mask id="22031000" name="Fixed mask 13 mm">
				<width unit="mm">9.00</width>
			</mask>
			<divergenceSlit id="22120001" name="Divergence slit 1°" xsi:type="fixedDivergenceSlitType">
				<distanceToSample unit="mm">50.00</distanceToSample>
				<height unit="mm">1.52</height>
			</divergenceSlit>
		</incidentBeamPath>
		<sampleMovement xsi:type="spinningSampleMovementType">
			<spinnerRevolutionTime unit="seconds">1.0</spinnerRevolutionTime>
		</sampleMovement>
		<diffractedBeamPath>
			<radius unit="mm">145.00</radius>
			<antiScatterSlit id="22090040" name="AS slit 9 mm (PIXcel)" xsi:type="fixedAntiScatterSlitType">
				<height unit="mm">9.00</height>
			</antiScatterSlit>
			<sollerSlit id="21020003" name="Large Soller slits 0.04 rad.">
				<opening unit="rad">0.0400</opening>
			</sollerSlit>
			<filter id="20030001" name="Large beta-filter Nickel">
				<material>Ni</material>
				<thickness unit="mm">0.020</thickness>
			</filter>
			<detector id="7010019" name="PIXcel1D-Medipix3 detector" xsi:type="rtmsDetectorType">
				<phd unit="keV">
					<lowerLevel>4.02</lowerLevel>
					<upperLevel>11.27</upperLevel>
				</phd>
				<mode>Scanning</mode>
				<activeLength unit="deg">5.542</activeLength>
			</detector>
		</diffractedBeamPath>
		<scan appendNumber="0" mode="Continuous" scanAxis="Gonio" status="Completed">
			<header>
				<startTimeStamp>2025-10-27T16:04:17-07:00</startTimeStamp>
				<endTimeStamp>2025-10-27T16:12:24-07:00</endTimeStamp>
				<author>
					<name>AutomatedUser</name>
				</author>
				<source>
					<applicationSoftware version="1.7b (136)">PANalytical Aeris Instrument Suite</applicationSoftware>
					<instrumentControlSoftware version="3.2.00000000 20240306">AERIS</instrumentControlSoftware>
					<instrumentID>950485</instrumentID>
				</source>
			</header>
			<dataPoints>
				<positions axis="2Theta" unit="deg">
					<startPosition>10.00943322</startPosition>
					<endPosition>99.99442286</endPosition>
				</positions>
				<positions axis="Omega" unit="deg">
					<startPosition>5.00471661</startPosition>
					<endPosition>49.99721143</endPosition>
				</positions>
				<commonCountingTime unit="seconds">12.495</commonCountingTime>
				<counts unit="counts">2895 2908 2896 2787 2870 2798 2844 2929 2928 2765 2744 2832 2753 2845 2878 2851 2861 2853 2724 2803 2907 2835 2886 2869 2828 2882 2846 2743 2799 2841 2831 2960 2774 2838 2805 2819 2919 2778 2852 2816 2914 2880 2927 2959 2932 2952 2897 2861 2870 2876 2893 2824 2861 2862 2847 2862 2921 2796 2913 2821 2878 2896 2915 2853 2847 2869 2923 3009 2906 2884 2843 2856 2943 2800 3003 2841 2921 2863 2900 2899 2963 3010 2823 2939 2974 2935 2932 2956 2850 2839 2957 2883 2912 2975 2980 2977 2878 2933 2871 2952 2949 3013 2936 2997 2998 2902 2985 2990 2949 2982 2866 2972 2958 3066 2937 2964 2907 2986 2910 2952 2930 2912 3073 2954 3063 2900 2919 2923 2982 2866 2942 2984 2867 2864 2981 3114 3049 2939 2980 3017 3073 2998 2926 3049 3023 2946 2925 2928 2949 3126 2963 3097 2937 2971 3037 2937 2899 2921 3018 3045 2947 2944 3055 3040 3073 2964 3038 3000 2859 2945 3000 2985 2935 3023 2999 3013 2999 3023 2924 2965 2962 2922 2912 2895 2950 2870 2998 2997 2918 2984 2926 2958 2842 2899 3013 2901 2939 2968 2853 2903 2884 2797 3045 2934 2777 2914 2876 2944 2924 2886 2943 2908 2861 2944 2900 2879 2880 2933 2890 2863 2937 2852 2915 2943 2984 2885 2934 2771 2874 2863 2905 2852 2951 2910 2882 2892 2895 2986 2827 2978 2878 2917 2860 2944 2942 2973 2878 2927 2815 2810 2873 2940 2817 2851 2856 2956 2921 2836 2931 2911 2879 3005 2844 2821 2844 2713 2855 2846 2870 2887 2872 2912 2776 2944 2959 2942 2981 3028 2898 2917 2899 2906 2993 2846 2899 2907 2878 2901 2921 2979 3033 2815 2996 2972 3036 3004 2917 2841 2885 3017 2938 2941 2958 3109 2941 2989 2931 2980 2987 3027 2984 2972 2975 2944 3039 2896 3014 3012 3026 3027 2987 3120 3082 3119 3071 3039 2978 3127 3087 2960 2957 3079 2977 3112 3135 3157 3062 3122 3237 3123 3040 3185 3180 3201 3154 3244 3285 3118 3208 3151 3193 3245 3238 3229 3256 3241 3162 3103 3202 3177 3307 3168 3257 3288 3305 3296 3244 3237 3278 3345 3261 3334 3422 3265 3324 3237 3497 3338 3355 3369 3298 3358 3380 3417 3406 3443 3218 3351 3372 3400 3356 3326 3405 3413 3468 3386 3425 3369 3420 3453 3389 3468 3454 3483 3470 3581 3452 3506 3469 3578 3509 3572 3458 3740 3628 3728 3753 3782 3762 3771 3862 3793 3877 3913 3840 3828 3752 3847 3843 3926 4015 3885 3887 3979 3922 3897 3885 3844 3913 3905 3877 3836 3840 3814 3665 3790 3740 3643 3614 3706 3569 3603 3541 3554 3611 3597 3511 3634 3524 3517 3532 3423 3526 3488 3513 3583 3462 3506 3600 3627 3596 3577 3537 3677 3634 3666 3662 3569 3727 3534 3659 3653 3778 3672 3750 3639 3635 3686 3650 3845 3623 3618 3608 3657 3673 3641 3631 3481 3699 3578 3573 3478 3684 3558 3626 3555 3504 3536 3491 3467 3407 3375 3461 3250 3258 3209 3252 3138 3264 3162 3098 3121 3135 3047 2985 3064 3028 2940 3028 3150 3058 2954 3068 2993 3099 2961 3073 2978 2947 2988 2944 2940 2993 2935 2924 3028 2968 2981 2960 3007 2969 2993 2865 3044 2983 2998 2926 2994 2912 2974 3037 2898 2900 2858 2852 2886 2876 2871 2853 2892 2886 2939 2907 2896 2872 2854 2797 2819 2762 2789 2845 2862 2892 2796 2763 2782 2730 2817 2802 2864 2777 2806 2717 2759 2781 2812 2760 2900 2800 2751 2886 2751 2698 2731 2855 2707 2780 2786 2842 2787 2754 2795 2725 2794 2773 2686 2760 2740 2713 2783 2731 2747 2695 2810 2782 2801 2784 2712 2734 2815 2771 2760 2734 2736 2675 2654 2745 2769 2789 2646 2729 2842 2629 2747 2703 2778 2633 2649 2840 2747 2852 2699 2666 2714 2751 2712 2671 2698 2710 2667 2724 2716 2746 2669 2687 2653 2633 2742 2758 2675 2692 2723 2590 2655 2598 2670 2661 2665 2650 2631 2644 2619 2635 2646 2575 2530 2564 2642 2650 2685 2671 2625 2533 2617 2597 2603 2637 2531 2665 2597 2602 2597 2606 2648 2599 2578 2609 2606 2557 2550 2583 2529 2540 2653 2467 2548 2611 2527 2605 2637 2563 2596 2579 2582 2691 2710 2570 2533 2618 2644 2640 2642 2563 2620 2649 2625 2587 2626 2543 2580 2502 2570 2538 2595 2613 2584 2540 2438 2586 2641 2570 2593 2531 2551 2581 2549 2599 2617 2470 2621 2539 2603 2493 2605 2539 2630 2561 2578 2463 2493 2604 2638 2604 2614 2542 2549 2613 2585 2585 2524 2567 2504 2546 2473 2602 2494 2498 2489 2495 2484 2428 2519 2507 2519 2483 2594 2472 2518 2537 2516 2566 2516 2515 2474 2569 2376 2486 2583 2460 2528 2510 2453 2461 2532 2521 2504 2458 2510 2377 2376 2358 2520 2460 2559 2386 2434 2364 2415 2503 2490 2489 2517 2402 2500 2482 2406 2491 2421 2387 2492 2454 2499 2365 2403 2461 2470 2432 2504 2467 2504 2474 2362 2324 2425 2422 2432 2433 2346 2497 2373 2476 2417 2385 2468 2393 2389 2401 2392 2393 2460 2403 2460 2420 2456 2512 2504 2456 2487 2422 2381 2566 2594 2436 2502 2549 2601 2613 2682 2550 2673 2638 2598 2664 2614 2560 2566 2613 2673 2646 2555 2592 2599 2627 2612 2566 2618 2521 2554 2540 2594 2577 2529 2465 2467 2474 2398 2421 2332 2430 2415 2413 2437 2356 2400 2372 2359 2355 2482 2287 2388 2376 2354 2346 2356 2296 2314 2355 2336 2259 2319 2364 2353 2296 2357 2351 2355 2340 2405 2362 2254 2343 2355 2373 2303 2286 2332 2359 2363 2397 2412 2306 2378 2305 2465 2325 2430 2365 2382 2335 2414 2415 2338 2379 2472 2488 2380 2400 2310 2316 2274 2297 2400 2270 2237 2366 2350 2277 2301 2270 2387 2308 2316 2274 2205 2275 2264 2253 2257 2282 2284 2237 2253 2227 2280 2297 2244 2303 2261 2295 2208 2237 2197 2275 2275 2188 2236 2309 2252 2280 2215 2262 2237 2276 2240 2253 2305 2291 2275 2271 2288 2289 2373 2296 2302 2305 2291 2301 2246 2326 2268 2313 2344 2218 2246 2385 2297 2320 2298 2297 2338 2308 2335 2284 2230 2192 2301 2337 2256 2390 2291 2327 2381 2183 2422 2241 2266 2303 2305 2236 2235 2243 2298 2282 2234 2352 2303 2383 2331 2258 2208 2322 2419 2292 2243 2270 2246 2270 2283 2287 2300 2289 2206 2250 2371 2240 2250 2254 2309 2227 2265 2266 2268 2236 2267 2293 2220 2276 2214 2277 2201 2259 2223 2177 2135 2212 2264 2184 2260 2217 2200 2162 2286 2233 2284 2257 2192 2219 2217 2193 2213 2069 2210 2214 2295 2230 2261 2160 2168 2185 2160 2132 2122 2121 2147 2126 2108 2185 2089 2076 2159 2099 2122 2201 2074 2116 2088 2081 2025 2114 2100 2038 2102 2012 2018 2108 2005 2052 1996 2134 2038 2097 2099 2092 2077 1989 2023 2068 2034 1942 2023 2021 2004 2000 2064 2003 2160 2012 1923 1943 2001 2016 1983 1961 2016 1836 1989 1913 1856 1947 1880 2012 1975 1889 1954 1870 1920 1915 1969 1841 1996 1834 1944 1911 1841 1896 1870 1825 1892 1974 1849 1819 1862 1810 1867 1780 1825 1828 1830 1787 1792 1911 1821 1795 1807 1808 1813 1743 1790 1891 1793 1832 1718 1842 1851 1734 1774 1763 1759 1746 1671 1711 1844 1749 1723 1749 1664 1745 1681 1743 1761 1771 1724 1675 1724 1701 1671 1674 1683 1592 1679 1688 1691 1691 1762 1693 1660 1699 1664 1700 1658 1629 1653 1660 1708 1740 1605 1681 1657 1634 1680 1621 1628 1702 1656 1667 1643 1655 1647 1679 1652 1652 1702 1719 1642 1584 1718 1645 1668 1636 1616 1611 1631 1657 1528 1583 1721 1616 1689 1640 1633 1628 1656 1658 1597 1659 1533 1577 1643 1576 1565 1570 1656 1603 1561 1518 1633 1535 1610 1559 1493 1599 1582 1545 1627 1549 1669 1611 1640 1580 1576 1593 1564 1557 1545 1583 1598 1530 1613 1568 1644 1572 1635 1541 1552 1605 1556 1557 1577 1563 1596 1646 1594 1638 1563 1604 1546 1565 1575 1615 1561 1655 1557 1558 1544 1671 1564 1631 1613 1594 1620 1570 1560 1632 1559 1613 1522 1559 1655 1583 1568 1616 1589 1547 1596 1625 1620 1607 1626 1616 1566 1574 1557 1555 1617 1593 1620 1550 1653 1562 1593 1608 1558 1645 1572 1566 1666 1599 1648 1572 1632 1600 1630 1636 1576 1660 1568 1617 1622 1608 1658 1611 1588 1647 1554 1601 1589 1664 1645 1577 1591 1622 1674 1654 1637 1631 1612 1622 1576 1621 1595 1715 1566 1555 1610 1582 1586 1598 1575 1550 1496 1664 1574 1611 1565 1606 1557 1625 1556 1629 1601 1538 1577 1573 1576 1545 1604 1652 1542 1523 1657 1565 1580 1500 1546 1538 1535 1493 1569 1603 1543 1572 1544 1600 1561 1591 1608 1543 1462 1618 1551 1522 1490 1618 1560 1528 1563 1455 1555 1533 1570 1548 1500 1518 1495 1516 1439 1511 1530 1519 1522 1530 1528 1505 1528 1507 1501 1443 1487 1550 1500 1473 1489 1543 1479 1494 1503 1451 1504 1450 1478 1532 1489 1460 1467 1486 1399 1399 1474 1405 1459 1519 1484 1467 1507 1445 1480 1406 1419 1450 1421 1403 1428 1395 1421 1476 1428 1450 1434 1481 1483 1444 1400 1438 1443 1370 1355 1408 1417 1381 1347 1385 1413 1448 1472 1451 1393 1404 1429 1395 1383 1400 1369 1331 1386 1331 1340 1414 1379 1371 1408 1368 1336 1305 1289 1269 1319 1308 1292 1391 1407 1332 1273 1385 1267 1296 1293 1295 1271 1292 1265 1262 1289 1241 1235 1305 1271 1270 1288 1225 1288 1257 1193 1223 1248 1202 1282 1196 1248 1188 1165 1242 1247 1210 1276 1227 1282 1299 1265 1249 1183 1223 1253 1299 1202 1236 1221 1206 1203 1256 1284 1239 1266 1248 1296 1307 1270 1336 1342 1387 1304 1333 1292 1283 1311 1360 1290 1333 1336 1356 1358 1343 1335 1402 1333 1336 1363 1316 1291 1265 1328 1371 1323 1216 1265 1257 1256 1255 1294 1203 1215 1213 1181 1245 1264 1230 1168 1182 1196 1221 1200 1118 1173 1164 1164 1147 1235 1182 1106 1120 1129 1139 1141 1174 1094 1160 1137 1137 1134 1180 1162 1172 1181 1131 1120 1184 1180 1142 1128 1163 1173 1207 1177 1225 1216 1253 1246 1300 1299 1345 1397 1376 1431 1390 1424 1467 1491 1528 1467 1548 1498 1590 1538 1612 1590 1590 1621 1629 1684 1727 1694 1717 1811 1786 1889 1929 2066 2119 2188 2448 2531 2742 2858 3184 3334 3454 3536 3551 3760 3824 3867 3931 3987 4106 4241 4272 4349 4470 4376 4516 4455 4346 4444 4396 4441 4369 4167 4081 3991 3925 3842 3698 3560 3533 3313 3249 3115 3072 3030 2825 2962 2878 2884 2810 2829 2870 2936 2917 2957 2743 2908 2926 2747 2861 2763 2833 2743 2625 2734 2717 2629 2694 2772 2721 2564 2570 2437 2368 2397 2370 2239 2299 2152 2107 2031 2020 2040 1919 1824 1753 1714 1683 1628 1562 1494 1448 1449 1434 1342 1310 1266 1294 1352 1241 1202 1276 1141 1119 1116 1098 1087 1086 1085 1065 1071 952 971 980 949 991 967 971 997 993 980 992 983 981 932 951 1056 992 977 957 979 1013 962 1014 994 997 977 969 974 968 948 923 918 963 930 967 935 964 970 952 969 1014 984 955 980 1023 1042 994 1017 992 1049 968 1056 988 1062 1027 1022 1062 1051 1103 1038 1057 1020 1026 1023 939 1014 1022 1024 984 975 946 985 988 953 986 914 994 919 918 980 1011 951 951 907 896 927 886 922 926 808 912 910 811 965 906 870 870 858 929 921 853 906 861 878 915 886 894 902 873 846 859 870 832 873 835 913 883 831 917 887 879 870 828 830 856 860 880 869 810 832 842 842 842 817 846 831 763 832 828 849 815 834 846 815 873 826 841 831 798 820 832 753 867 772 842 831 791 902 810 763 767 821 819 810 797 816 759 821 815 869 808 802 821 780 751 821 841 829 872 859 798 833 762 752 778 821 799 850 769 756 808 802 798 824 805 820 732 812 790 805 809 832 720 754 787 780 845 781 783 785 804 812 794 783 850 818 759 771 761 770 746 767 795 755 784 837 797 798 792 788 823 795 855 854 834 849 793 813 881 826 801 786 837 816 815 796 802 812 796 790 805 860 761 852 887 808 807 839 896 841 885 888 848 884 884 863 863 878 839 908 867 886 853 855 884 844 889 834 873 858 855 846 865 842 808 858 828 950 860 812 849 855 926 858 915 877 891 838 857 863 863 868 853 840 856 903 883 955 896 941 904 915 963 969 987 983 995 1077 1116 1083 1075 1186 1206 1238 1339 1431 1621 1786 1904 2225 2392 2582 2756 2966 2966 2993 3124 3206 3421 3361 3613 3547 3509 3465 3660 3564 3627 3647 3590 3428 3625 3505 3469 3395 3468 3330 3353 3107 3043 2951 2761 2583 2562 2514 2437 2232 2205 2096 2057 2046 1979 1891 1907 1767 1717 1797 1851 1793 1835 1812 1923 1791 1888 1894 1913 1878 1885 1845 1923 1898 1896 1848 1793 1922 1839 1884 1712 1779 1788 1730 1670 1649 1589 1585 1581 1470 1421 1410 1286 1340 1241 1195 1128 1155 1054 1077 1061 1017 935 915 908 937 968 866 921 865 900 799 805 815 794 824 830 824 807 813 791 728 812 775 774 788 784 755 806 758 780 757 772 771 838 792 816 763 751 751 762 740 793 737 782 725 770 771 782 754 708 743 739 745 786 787 694 756 720 725 774 770 765 793 766 889 746 822 793 814 792 790 786 740 783 764 775 767 802 847 848 825 847 828 823 855 903 886 850 884 854 948 897 884 906 964 898 936 925 956 939 887 934 916 967 899 965 954 953 927 929 893 885 883 922 952 883 890 866 883 848 846 782 803 798 829 835 805 822 799 809 752 767 736 777 732 723 738 707 729 749 729 708 743 724 747 724 665 667 734 684 680 709 749 689 698 720 740 705 687 705 687 680 711 734 624 746 648 713 661 694 662 690 692 683 677 704 689 682 656 678 680 691 707 661 686 680 644 674 647 735 688 654 713 691 648 683 681 694 677 679 618 635 624 714 673 727 651 700 672 710 662 673 695 697 662 654 673 675 707 676 731 651 699 667 673 702 678 660 678 698 648 662 673 680 716 632 669 671 664 670 651 650 653 660 660 701 648 653 641 655 637 659 681 624 676 671 686 640 631 658 679 688 717 738 715 710 701 716 749 736 730 729 777 749 741 761 740 749 758 737 761 713 762 698 721 709 683 697 705 685 744 753 675 702 745 750 651 715 720 698 723 722 656 702 688 682 690 746 713 736 747 772 837 816 807 801 804 811 819 837 809 848 928 800 782 813 812 865 789 839 773 776 778 819 794 787 691 667 760 709 729 674 732 676 651 676 708 670 735 659 695 662 664 689 694 670 633 630 638 610 639 685 605 640 634 625 638 600 586 612 599 636 636 598 585 612 624 618 618 597 599 593 551 563 578 630 579 598 568 611 594 607 612 610 618 580 574 620 614 585 586 626 630 567 554 633 611 631 621 632 624 582 573 591 606 608 596 600 610 599 589 611 586 604 625 636 629 629 553 592 612 629 566 614 556 663 605 590 598 573 579 616 545 603 589 587 577 629 633 601 634 646 578 640 608 698 639 662 624 682 670 636 665 743 661 749 727 719 680 727 682 697 655 715 650 723 674 635 616 674 615 604 590 626 633 576 619 607 560 604 543 567 596 598 602 568 557 591 590 581 547 526 577 595 530 571 589 591 565 575 573 590 591 575 571 531 556 604 580 580 553 552 585 613 539 570 516 576 578 562 551 524 535 590 548 561 563 553 539 535 500 581 537 568 532 528 526 511 520 527 497 534 543 590 595 562 555 548 483 561 603 575 559 559 590 519 544 478 526 562 553 542 545 537 539 553 550 566 560 551 564 523 509 526 563 533 564 507 591 542 544 546 567 562 569 597 591 580 516 550 553 568 558 558 555 588 530 619 594 595 524 533 591 544 570 573 578 589 564 554 530 544 523 510 576 544 505 516 564 534 526 534 552 545 594 538 544 564 600 568 569 574 588 576 601 610 618 619 607 591 616 598 632 635 603 638 653 676 646 636 654 646 646 663 656 674 633 651 621 686 660 632 609 616 616 590 598 615 591 622 609 621 600 635 599 604 572 600 557 587 572 596 527 593 607 608 568 536 609 557 556 539 543 584 532 616 531 578 577 547 537 573 555 586 548 538 584 562 537 591 573 540 573 612 589 622 588 631 576 627 580 562 544 578 531 565 569 515 540 541 505 567 515 521 504 562 547 584 538 536 586 564 554 562 579 587 549 590 597 603 596 657 705 662 759 756 698 712 691 637 585 604 660 646 610 680 613 616 612 634 595 593 559 523 551 538 549 506 481 529 533 529 516 538 502 507 522 526 555 516 525 500 550 516 499 504 546 511 486 509 533 545 514 510 563 437 512 497 490 504 496 536 531 540 465 525 507 482 536 502 545 548 565 529 563 578 607 590 610 584 643 620 589 595 614 615 633 608 597 599 630 605 620 651 598 582 595 618 591 600 578 578 553 592 535 592 602 529 565 546 589 597 513 557 513 513 547 505 549 461 540 513 471 494 486 493 560 525 464 499 511 518 503 508 546 572 550 542 533 553 539 559 590 566 646 617 677 646 667 647 726 714 678 663 697 695 740 720 719 721 705 775 682 665 655 734 704 650 706 675 677 658 598 667 660 613 607 587 640 558 635 610 578 563 562 548 540 592 557 546 527 539 500 526 544 526 548 521 538 489 473 530 462 472 487 500 511 471 450 524 520 516 507 488 470 507 527 494 544 481 516 524 523 502 445 528 462 486 486 498 492 490 487 510 514 479 520 484 479 483 461 471 502 480 497 486 484 482 442 508 478 466 491 433 482 504 481 467 481 467 469 492 457 504 483 493 482 471 527 500 476 474 453 470 429 454 477 441 481 457 502 467 447 501 478 431 459 467 464 454 487 489 497 457 451 438 473 489 491 449 448 487 438 509 423 467 511 483 404 454 487 487 470 486 468 460 486 434 484 478 482 479 500 487 413 487 486 513 491 504 515 437 467 528 493 444 483 445 464 438 461 453 486 483 469 497 518 496 485 509 524 500 505 489 451 494 502 486 462 511 455 520 505 473 532 542 515 530 503 569 523 480 538 489 569 492 452 571 500 562 553 547 519 586 557 572 569 555 574 585 538 595 556 510 589 556 615 524 537 588 572 526 567 525 620 555 531 584 522 484 526 508 520 493 527 492 537 525 519 509 450 493 537 540 516 458 493 464 539 495 505 478 483 515 512 497 577 497 456 460 490 509 512 483 508 498 470 489 503 488 476 496 494 473 473 517 472 484 493 492 494 482 446 503 450 510 475 473 468 497 479 479 465 487 499 454 483 439 460 481 465 477 504 465 450 482 539 527 524 520 486 535 488 545 539 533 542 529 534 518 575 521 566 512 551 553 544 539 535 571 548 539 551 571 542 559 557 556 576 584 613 577 583 632 654 622 652 710 731 766 898 928 1115 1135 1306 1304 1418 1480 1638 1682 1713 1792 1828 1836 1986 1995 2030 2181 2154 2163 2079 2228 2105 2119 2071 2024 1900 1895 1921 1855 1803 1762 1725 1667 1588 1503 1495 1387 1333 1316 1264 1199 1141 1181 1026 1061 989 889 875 896 827 801 824 784 751 697 706 756 773 748 709 684 701 737 724 689 749 712 820 832 884 981 979 1088 1139 1235 1315 1395 1413 1439 1493 1524 1481 1492 1445 1463 1423 1506 1423 1443 1355 1351 1345 1324 1239 1236 1102 1132 1074 1027 926 885 891 878 842 773 746 715 683 650 676 568 648 574 542 571 563 546 541 533 473 490 536 462 457 489 474 470 465 490 472 492 495 433 478 435 447 457 476 462 443 449 481 410 435 482 465 462 464 423 496 444 435 444 448 476 505 450 457 424 430 453 494 458 483 497 481 470 485 467 483 451 452 444 409 470 461 440 473 452 441 462 473 485 436 468 440 441 460 501 420 447 446 446 404 423 422 432 435 449 439 442 445 438 418 424 406 447 480 418 464 407 465 440 393 446 421 433 413 436 468 445 506 489 487 473 468 522 467 476 466 518 523 514 507 488 522 521 529 528 555 554 572 566 547 583 553 526 587 527 546 605 597 555 541 526 572 559 566 545 564 536 474 527 528 550 538 511 581 502 571 477 485 543 523 531 528 507 494 473 482 474 482 481 456 472 471 462 467 497 494 457 465 466 474 476 458 514 499 494 506 451 477 518 504 528 516 515 487 512 510 514 553 557 519 502 527 564 507 514 529 555 529 490 518 469 526 526 476 490 447 465 441 501 484 472 480 459 431 434 456 430 447 433 484 443 394 407 426 423 443 417 415 416 406 380 449 400 399 407 429 424 426 369 403 384 379 398 400 409 384 403 405 436 439 437 359 381 375 384 393 364 411 368 416 415 415 435 407 360 409 378 392 399 374 364 412 407 409 413 402 375 415 402 424 385 407 400 392 369 378 401 381 390 393 378 412 393 353 377 397 379 360 397 381 408 367 376 415 397 391 406 412 398 403 387 393 407 384 371 404 418 403 391 415 392 396 395 367 416 398 396 405 380 392 393 436 421 433 407 362 396 366 360 410 359 323 375 375 409 386 387 421 427 405 418 417 430 439 429 433 391 383 428 417 420 398 366 466 393 381 411 401 442 434 424 447 415 466 432 453 462 445 441 441 441 443 459 468 457 439 471 466 416 410 442 426 471 393 423 409 435 404 413 432 426 372 433 391 433 448 449 421 438 429 442 426 433 442 419 439 425 448 416 440 479 393 431 435 394 429 417 414 401 424 396 430 422 386 411 384 404 372 412 409 382 396 417 407 379 374 409 376 344 382 385 381 401 340 394 393 384 351 376 381 373 397 417 366 359 407 404 390 369 381 401 350 385 355 366 363 346 395 365 393 377 386 391 395 392 340 361 399 306 372 371 361 373 356 379 383 363 366 379 376 395 393 335 359 376 383 383 395 370 361 326 340 367 361 371 380 367 344 384 352 355 330 362 373 393 377 375 354 347 351 356 364 365 378 410 336 383 387 384 361 351 382 387 369 404 387 391 394 376 377 398 366 411 453 403 386 408 385 426 438 416 380 408 405 396 386 429 389 395 444 413 427 440 422 387 393 398 354 389 451 382 385 412 393 402 384 382 368 410 343 420 367 370 394 388 394 380 383 342 370 359 368 343 367 355 390 367 341 356 371 348 345 358 346 361 366 379 377 385 363 347 379 345 342 350 362 368 329 374 329 391 341 328 358 357 372 377 366 372 368 362 352 377 417 359 368 340 331 377 351 371 393 349 364 363 340 362 350 350 401 396 375 378 413 366 375 360 378 382 384 361 380 396 397 396 357 370 395 380 415 440 375 409 407 392 393 407 387 377 416 430 405 382 376 403 362 381 389 361 332 446 360 415 394 364 395 385 371 368 348 397 406 381 355 352 390 352 359 372 417 415 369 401 372 450 417 412 454 449 475 534 530 545 586 550 608 636 723 636 676 692 691 709 722 722 722 741 751 774 764 777 810 825 753 754 708 697 721 741 700 704 689 688 654 630 621 601 594 636 612 596 550 551 473 493 505 475 508 519 497 513 458 448 419 401 430 425 431 420 401 405 422 411 398 414 384 430 444 404 398 386 413 366 390 391 428 421 457 436 370 441 433 436 496 443 465 462 506 442 471 497 503 477 572 522 478 473 566 528 513 538 545 530 557 558 568 545 500 502 539 513 542 515 513 521 498 489 449 513 462 478 454 416 428 449 427 428 426 402 406 391 439 423 457 385 420 374 374 368 380 370 367 366 374 364 371 378 342 358 372 346 349 321 360 383 325 355 330 308 363 330 377 332 348 387 321 359 314 375 299 319 348 345 319 314 338 320 343 349 333 345 368 310 351 321 312 341 361 349 341 361 347 374 345 338 371 367 381 371 360 360 370 383 379 350 368 376 329 328 371 384 385 384 369 374 351 358 383 329 364 376 333 363 354 374 377 388 343 394 353 328 346 422 361 394 363 361 384 372 329 350 381 357 362 379 366 386 343 377 377 368 358 354 378 354 363 353 372 424 367 391 403 399 383 451 405 461 449 508 545 558 551 568 550 612 594 659 625 649 708 684 733 692 711 728 777 705 731 676 711 672 650 647 701 670 626 655 640 637 650 646 600 564 573 567 569 492 513 491 501 490 466 428 418 497 424 468 456 432 465 436 397 419 405 402 429 414 391 398 391 382 388 396 379 374 381 370 394 405 401 360 399 360 395 378 390 373 371 395 398 418 359 365 395 354 419 447 429 461 421 415 415 432 486 433 428 465 447 456 467 461 480 479 470 448 466 428 433 473 453 426 435 411 454 443 420 454 412 408 412 400 415 414 401 394 384 375 369 419 349 392 376 345 355 392 341 370 333 357 320 360 338 372 315 351 356 373 337 360 330 342 302 354 351 370 369 326 324 349 369 312 310 340 325 341 325 351 327 345 339 359 307 344 332 339 370 334 310 313 317 327 309 331 327 306 343 323 314 300 314 346 362 338 368 334 329 317 366 361 336 409 388 365 346 381 404 392 361 355 369 359 381 397 376 377 338 372 364 375 358 382 403 413 389 406 364 394 390 324 379 361 365 345 336 377 341 333 341 359 322 351 298 336 349 336 355 343 352 360 333 386 333 330 347 333 369 309 312 344 305 324 293 315 347 332 354 370 340 341 356 308 313 305 324 310 325 320 334 318 357 277 367 322 334 351 330 302 318 278 348 314 300 287 321 299 317 358 309 318 334 287 297 361 311 289 312 302 316 335 312 316 335 332 339 286 323 285 318 328 285 292 305 313 315 305 333 302 347 324 293 333 275 284 321 311 344 312 313 306 319 316 331 318 279 321 294 335 280 326 343 329 321 351 315 324 345 295 324 333 315 328 344 324 314 330 284 314 293 343 302 338 353 341 312 313 340 302 328 337 331 331 309 324 338 343 325 317 322 321 343 281 352 325 315 318 329 343 323 295 342 324 330 322 310 310 343 353 297 310 261 305 295 299 319 284 291 322 316 321 281 323 294 309 302 310 290 285 324 315 321 313 301 302 262 305 276 311 284 317 306 278 280 279 283 313 316 282 300 288 326 284 308 299 313 321 294 314 297 306 349 302 314 289 302 314 315 300 325 278 289 270 317 305 267 287 292 312 287 312 293 299 279 345 292 299 295 301 294 288 276 279 297 278 294 291 321 300 299 279 319 313 294 308 334 283 321 305 335 248 294 284 323 328 324 300 296 306 292 309 276 278 309 289 291 308 291 272 279 293 278 279 298 305 296 307 314 283 332 290 305 277 290 310 271 294 281 279 322 321 300 270 324 301 289 279 292 285 267 297 317 323 274 281 302 315 281 258 294 322 302 264 272 260 300 272 291 279 268 277 299 305 309 303 283 289 310 308 276 331 245 335 290 302 267 292 307 312 281 295 284 304 298 319 292 310 277 327 298 312 289 271 250 305 313 305 321 286 306 324 307 276 278 320 328 284 279 287 313 310 286 279 301 280 314 311 312 314 269 308 304 303 256 278 274 295 321 267 312 278 284 290 278 279 275 282 303 285 281 315 290 284 306 293 292 267 301 274 295 312 297 287 289 312 298 318 269 288 295 298 288 337 290 285 288 300 289 301 319 292 258 295 328 284 298 303 290 287 356 321 317 269 349 314 326 328 317 343 311 328 311 302 383 292 325 306 362 292 361 292 316 302 337 306 332 337 327 310 270 288 295 333 293 307 327 342 307 331 306 292 318 320 342 327 259 289 307 299 311 296 280 295 291 282 276 302 303 304 283 279 256 261 304 293 280 307 289 298 287 301 308 268 279 287 288 307 307 271 294 275 268 258 294 287 246 310 267 297 277 280 274 307 272 278 297 281 288 314 296 283 300 299 272 299 305 294 267 288 292 313 300 304 300 284 304 292 309 328 288 273 316 275 258 317 302 283 302 288 297 320 302 283 305 310 285 322 258 331 302 321 250 319 293 284 298 331 291 276 272 321 281 249 295 295 281 320 322 298 290 294 268 281 261 277 304 290 302 316 280 305 296 269 325 271 293 311 300 311 284 286 290 278 247 285 291 300 309 315 257 323 281 300 309 280 291 284 296 291 327 273 300 303 279 289 330 279 282 309 278 317 272 307 288 309 284 284 270 294 265 274 309 266 296 320 283 288 304 300 289 289 276 298 261 272 289 288 267 276 232 310 302 300 288 304 277 298 288 291 279 272 301 261 291 294 296 326 288 292 290 279 277 289 279 302 283 258 281 292 292 300 265 285 314 292 294 259 280 300 279 274 319 288 297 290 312 315 286 303 308 316 302 330 315 348 318 329 369 342 322 345 346 373 350 368 349 404 396 395 349 354 371 354 390 372 387 400 360 382 387 419 357 392 390 355 377 359 348 395 356 361 375 327 351 354 331 360 365 331 317 324 321 353 337 318 344 359 345 324 331 301 335 343 320 351 348 327 309 308 310 307 304 324 304 330 291 323 321 342 304 323 309 342 330 309 339 326 312 329 313 309 309 285 322 299 297 306 322 294 273 327 317 305 323 322 304 286 292 281 283 303 283 292 320 299 327 304 261 322 311 289 308 325 279 321 307 298 322 300 298 306 303 344 332 321 295 320 306 327 323 330 332 315 325 363 348 314 316 324 330 330 289 325 328 313 340 341 297 308 339 294 306 316 318 292 301 329 268 295 276 319 288 312 283 315 266 308 281 305 284 275 274 295 310 297 261 295 311 321 289 298 277 296 309 296 324 281 290 313 291 278 276 287 275 292 279 295 298 287 271 302 275 279 302 287 283 276 322 321 301 304 289 305 301 305 263 290 289 259 286 282 296 317 281 287 297 301 297 274 290 281 289 298 270 331 291 257 263 288 282 261 313 300 306 282 286 281 279 274 278 278 263 305 275 316 295 308 294 276 287 285 275 299 278 289 286 244 302 304 268 277 272 259 311 272 296 293 278 291 298 284 280 245 307 287 267 294 282 275 241 294 270 286 290 260 273 241 294 312 267 276 249 278 298 295 279 308 259 317 282 263 293 287 284 268 311 284 278 289 272 275 270 293 272 283 271 272 296 305 299 292 292 280 280 292 277 271 331 277 290 306 313 294 314 278 316 276 296 283 295 291 282 285 295 278 287 311 322 281 298 288 290 277 296 297 337 313 284 324 307 292 300 269 299 289 315 331 338 291 287 275 337 298 298 262 296 325 283 320 323 305 261 299 294 323 289 294 287 291 302 326 274 286 334 323 323 309 286 324 288 288 300 294 287 335 297 308 293 316 274 296 301 282 276 321 314 308 293 278 273 297 301 301 291 318 293 302 299 251 285 314 266 283 311 314 297 282 325 280 277 298 290 296 310 290 285 299 305 306 302 324 281 304 315 291 303 296 296 293 293 301 300 298 241 306 248 272 293 314 274 305 266 276 285 278 305 315 331 287 315 304 283 265 323 310 296 273 295 319 275 310 277 322 250 314 278 305 326 309 314 291 276 295 316 320 281 282 297 294 289 317 298 319 307 305 275 283 271 266 290 277 277 281 291 276 309 284 310 288 292 298 270 299 272 346 293 304 284 286 302 303 301 324 294 295 290 285 296 296 330 298 271 302 335 300 283 305 313 283 321 268 318 289 318 292 339 294 326 325 284 331 300 319 304 288 259 303 278 282 263 319 292 280 290 339 344 284 294 322 302 298 291 305 296 290 322 300 317 270 309 323 288 278 321 315 313 313 318 319 290 282 294 323 283 293 303 326 320 292 341 301 325 279 314 320 329 309 325 302 316 319 294 323 331 323 269 294 272 320 350 316 351 293 363 326 327 340 331 290 327 334 315 317 349 319 334 326 332 352 316 328 359 341 368 312 348 298 309 332 307 341 302 341 308 325 317 331 321 293 329 332 308 343 309 311 318 329 329 338 349 353 313 314 335 304 349 322 361 334 313 338 327 397 351 348 346 338 358 394 351 383 396 386 369 381 396 412 388 404 389 383 407 395 405 388 362 386 383 347 340 375 398 365 356 378 368 359 360 359 355 361 369 363 354 334 362 337 357 355 325 362 326 352 298 346 325 303 310 296 310 336 371 321 317 324 302 320 346 334 322 278 323 300 299 304 304 307 275 298 295 301 283 307 320 312 346 329 287 303 303 304 328 281 296 273 318 304 322 324 276 323 317 300 296 325 329 292 294 301 263 306 319 311 278 348 318 359 301 317 362 311 296 332 326 332 324 309 347 324 324 338 317 326 317 379 333 333 329 362 348 345 341 336 396 401 380 380 410 339 352 326 361 354 347 345 315 350 355 349 331 365 290 351 346 363 365 344 340 340 359 351 297 322 306 328 347 314 322 333 309 348 284 307 342 321 344 333 291 354 286 327 314 294 310 332 331 323 329 291 311 315 310 310 322 321 300 290 277 298 308 340 300 289 323 354 326 296 324 318 308 341 299 307 316 351 353 336 357 340 381 380 348 395 430 396 403 452 418 405 409 428 461 450 446 424 462 480 493 424 482 450 486 470 460 505 446 463 494 482 474 461 468 443 448 478 480 435 489 467 454 461 487 467 425 406 430 388 391 412 372 440 407 403 363 390 383 343 359 333 374 353 330 398 352 349 343 325 357 330 357 327 378 368 348 353 326 376 307 350 332 328 302 351 313 297 287 305 304 318 292 326 293 350 309 344 281 296 297 297 327 324 303 285 286 295 324 316 280 270 282 313 312 292 361 291 339 297 310 322 296 317 323 334 310 304 352 338 323 322 290 342 334 326 339 340 328 357 337 328 345 332 373 326 368 324 364 365 370 347 331 360 335 359 383 336 361 371 378 332 330 356 373 350 377 347 365 362 344 324 373 322 332 351 347 323 349 316 366 337 319 367 302 344 304 355 341 340 355 355 328 330 339 309 347 360 332 337 341 313 304 309 308 324 310 312 324 287 307 327 289 312 317 306 301 334 318 313 320 294 324 273 289 326 293 295 332 289 299 299 268 239 282 278 296 302 321 302 293 303 286 282 273 312 288 261 283 266 300 288 273 288 282 269 317 297 285 243 269 278 297 267 290 284 324 273 260 295 274 333 270 313 310 282 249 303 302 284 300 344 266 273 270 314 278 242 298 245 285 284 286 288 282 267 272 278 266 309 272 293 298 283 303 280 296 286 287 270 322 296 282 246 281 317 276 296 264 299 307 318 274 272 311 280 284 287 294 305 320 303 282 269 279 257 265 288 290 298 280 302 244 283 260 270 305 286 266 273 294 268 292 306 266 305 286 267 303 279 299 270 273 244 262 278 293 270 264 294 288 260 300 297 280 305 244 247 278 289 285 280 292 274 309 266 292 273 262 291 258 281 261 319 263 287 285 280 262 303 256 315 307 288 296 274 296 325 283 303 279 327 276 285 258 316 318 274 286 284 276 304 301 290 269 245 304 276 291 303 316 306 263 279 278 270 336 273 289 281 294 305 269 321 310 291 297 301 270 285 295 278 299 290 281 285 279 281 268 283 299 338 270 307 309 283 290 285 287 298 266 299 258 243 294 290 279 266 273 291 246 296 302 289 267 271 274 273 283 296 267 296 276 263 260 281 247 284 281 280 282 295 332 238 291 280 249 272 288 271 266 309 287 297 270 300 275 249 245 317 321 295 326 268 299 294 282 281 245 273 279 284 278 286 281 264 270 265 276 276 276 260 291 282 306 288 276 304 299 296 270 275 259 308 296 299 291 293 231 316 284 277 274 299 249 280 246 287 268 275 276 267 278 307 249 280 290 292 289 256 264 308 297 300 262 304 292 286 287 319 274 302 251 269 273 321 317 300 284 293 318 260 288 296 322 304 305 276 264 289 301 272 275 259 262 269 260 261 289 261 271 267 280 291 274 249 304 294 290 302 292 282 286 271 283 250 259 303 288 265 265 256 291 301 283 280 239 283 262 292 266 282 297 287 246 266 283 325 281 270 283 269 290 271 286 296 333 288 300 267 285 277 269 296 268 266 261 297 289 275 300 297 288 282 274 310 301 298 231 291 229 285 271 269 285 276 278 295 292 256 281 235 259 272 258 287 272 303 259 266 286 290 243 269 272 236 244 293 262 266 221 266 263 284 256 240 266 276 294 245 281 248 298 298 284 288 272 259 277 242 282 247 264 264 304 266 277 241 283 233 257 243 282 270 269 278 240 263 247 265 291 265 281 268 282 246 257 268 266 265 262 247 285 257 225 261 250 266 235 279 284 276 281 292 273 284 272 269 281 313 284 274 292 248 285 274 301 280 281 279 297 268 251 309 266 309 308 263 274 266 280 267 257 247 280 236 244 262 246 285 276 271 283 280 271 260 267 262 292 271 262 263 264 284 259 287 299 259 278 280 278 247 265 273 263 267 246 261 245 287 284 298 273 289 287 263 286 285 289 262 227 275 240 261 276 284 305 278 265 295 274 267 262 279 308 257 284 271 283 245 300 244 263 273 268 273 271 266 239 274 294 290 262 244 281 264 280 283 289 286 268 259 314 296 314 269 296 286 250 267 284 279 284 271 303 326 308 339 298 312 300 327 305 313 307 327 370 328 337 336 333 349 371 370 373 352 426 368 404 386 374 383 406 383 411 381 386 406 375 444 362 345 379 365 388 354 351 329 367 364 336 366 333 387 369 342 345 354 358 354 362 365 376 340 326 368 338 320 331 321 336 300 321 294 356 297 268 317 297 301 277 298 273 335 301 264 283 284 266 283 284 249 296 297 285 293 291 291 298 289 261 306 289 280 282 259 280 258 262 276 280 264 300 264 258 275 243 265 305 266 270 237 273 302 277 263 263 280 271 278 283 279 227 280 274 243 298 261 265 264 283 268 241 319 279 275 260 290 244 269 231 294 276 244 305 279 270 287 274 263 288 298 271 268 305 313 282 275 287 281 288 304 249 311 259 292 302 289 298 301 304 291 327 315 298 330 313 323 291 303 291 312 297 302 308 305 341 307 332 330 307 301 304 330 308 323 317 319 312 313 293 302 280 298 281 315 290 290 305 309 302 317 305 280 315 273 274 221 268 310 292 292 285 273 295 318 286 284 296 272 246 274 263 238 282 225 243 286 269 264 256 314 245 260 271 257 268 272 268 272 251 261 247 268 308 271 278 299 282 239 239 239 276 232 276 245 285 248 265 275 285 240 280 244 248 250 247 214 280 271 238 260 247 256 259 236 259 225 241 281 298 266 248 281 256 245 272 261 228 269 239 229 262 228 274 270 262 286 220 295 238 288 246 246 266 241 278 286 259 264 274 276 265 266 265 257 278 256 276 273 268 265 264 249 246 241 224 238 247 275 256 282 271 274 282 282 248 250 288 300 291 272 247 285 261 264 243 278 250 279 268 262 292 285 257 265 282 256 304 277 291 266 265 296 245 228 285 240 242 222 274 245 267 280 256 270 257 243 290 296 271 303 277 272 283 250 245 261 245 257 241 258 260 265 233 236 290 274 247 279 222 264 268 266 242 280 245 263 244 270 273 242 221 256 266 260 289 238 272 261 275 266 266 232 258 268 240 223 271 267 261 234 278 262 274 268 256 268 271 267 259 257 276 268 237 247 242 268 241 240 275 265 233 277 268 261 265 243 257 225 272 274 270 304 265 249 248 260 262 272 273 281 250 272 277 264 259 245 223 257 223 241 246 284 260 263 245 265 271 248 246 241 272 257 257 277 279 284 263 267 238 256 260 275 280 265 263 287 266 273 271 247 264 269 287 236 249 259 278 267 249 244 257 262 272 288 243 273 235 231 233 246 247 256 284 248 249 289 269 285 247 257 257 247 226 246 241 274 258 260 257 217 257 222 270 250 240 247 236 260 269 233 248 280 248 263 265 265 230 272 263 231 273 267 262 271 268 272 249 236 261 228 280 248 235 298 241 271 291 242 233 281 264 306 292 272 245 293 292 272 281 246 281 259 268 319 258 277 272 265 279 246 299 246 272 247 224 240 267 246 241 274 265 248 240 265 274 297 258 260 285 288 269 297 276 295 292 288 300 245 277 308 302 271 296 316 289 306 298 308 314 314 306 264 289 297 303 298 259 299 248 292 262 288 312 295 271 310 294 278 272 310 302 282 326 268 281 300 295 282 298 317 293 289 316 284 300 294 268 327 322</counts>
			</dataPoints>
		</scan>
	</xrdMeasurement>
</xrdMeasurements>
