<?xml version="1.0"?>
<xrdMeasurements xmlns="http://www.xrdml.com/XRDMeasurement/2.3" xmlns:xsi="http://www.w3.org/2001/XMLSchema-instance" xsi:schemaLocation="http://www.xrdml.com/XRDMeasurement/2.3 http://www.xrdml.com/XRDMeasurement/2.3/XRDMeasurement.xsd" status="Completed" recordIdentifier="{0B5EB82D-D7F5-48CA-969F-C0F42B4D5D0C}">
	<comment>
		<entry/>
	</comment>
	<sample type="To be analyzed">
		<id>GPSS_Li1p5Mg0p6In0p3Zr0p1Cl4_121325_693cb366f4d05ae3d69752b1</id>
		<name></name>
		<preparedBy></preparedBy>
	</sample>
	<xrdMeasurement measurementType="Scan" status="Completed" sampleMode="Reflection">
		<usedWavelength intended="K-Alpha 1">
			<kAlpha1 unit="Angstrom">1.5405980</kAlpha1>
			<kAlpha2 unit="Angstrom">1.5444260</kAlpha2>
			<kBeta unit="Angstrom">1.3922500</kBeta>
			<ratioKAlpha2KAlpha1>0.5000</ratioKAlpha2KAlpha1>
		</usedWavelength>
		<incidentBeamPath>
			<radius unit="mm">145.00</radius>
			<xRayTube id="1010048" name="Empyrean Cu LFF HR (9430 033 7310x)">
				<tension unit="kV">40.0</tension>
				<current unit="mA">15.0</current>
				<anodeMaterial>Cu</anodeMaterial>
				<focus type="Line">
					<length unit="mm">12.0</length>
					<width unit="mm">0.4</width>
					<takeOffAngle unit="deg">6.0</takeOffAngle>
				</focus>
			</xRayTube>
			<sollerSlit id="21010002" name="Soller slits 0.04 rad.">
				<opening unit="rad">0.0400</opening>
			</sollerSlit>
			<mask id="22031000" name="Fixed mask 13 mm">
				<width unit="mm">9.00</width>
			</mask>
			<divergenceSlit id="22120001" name="Divergence slit 1°" xsi:type="fixedDivergenceSlitType">
				<distanceToSample unit="mm">50.00</distanceToSample>
				<height unit="mm">1.52</height>
			</divergenceSlit>
		</incidentBeamPath>
		<sampleMovement xsi:type="spinningSampleMovementType">
			<spinnerRevolutionTime unit="seconds">1.0</spinnerRevolutionTime>
		</sampleMovement>
		<diffractedBeamPath>
			<radius unit="mm">145.00</radius>
			<antiScatterSlit id="22090040" name="AS slit 9 mm (PIXcel)" xsi:type="fixedAntiScatterSlitType">
				<height unit="mm">9.00</height>
			</antiScatterSlit>
			<sollerSlit id="21020003" name="Large Soller slits 0.04 rad.">
				<opening unit="rad">0.0400</opening>
			</sollerSlit>
			<filter id="20030001" name="Large beta-filter Nickel">
				<material>Ni</material>
				<thickness unit="mm">0.020</thickness>
			</filter>
			<detector id="7010019" name="PIXcel1D-Medipix3 detector" xsi:type="rtmsDetectorType">
				<phd unit="keV">
					<lowerLevel>4.02</lowerLevel>
					<upperLevel>11.27</upperLevel>
				</phd>
				<mode>Scanning</mode>
				<activeLength unit="deg">5.542</activeLength>
			</detector>
		</diffractedBeamPath>
		<scan appendNumber="0" mode="Continuous" scanAxis="Gonio" status="Completed">
			<header>
				<startTimeStamp>2025-12-22T11:06:27-08:00</startTimeStamp>
				<endTimeStamp>2025-12-22T11:14:34-08:00</endTimeStamp>
				<author>
					<name>AutomatedUser</name>
				</author>
				<source>
					<applicationSoftware version="1.7b (136)">PANalytical Aeris Instrument Suite</applicationSoftware>
					<instrumentControlSoftware version="3.2.00000000 20240306">AERIS</instrumentControlSoftware>
					<instrumentID>950485</instrumentID>
				</source>
			</header>
			<dataPoints>
				<positions axis="2Theta" unit="deg">
					<startPosition>10.00943322</startPosition>
					<endPosition>99.99442286</endPosition>
				</positions>
				<positions axis="Omega" unit="deg">
					<startPosition>5.00471661</startPosition>
					<endPosition>49.99721143</endPosition>
				</positions>
				<commonCountingTime unit="seconds">12.495</commonCountingTime>
				<counts unit="counts">2626 2512 2494 2479 2523 2504 2572 2514 2529 2539 2581 2621 2526 2600 2488 2556 2532 2604 2418 2556 2489 2439 2583 2582 2491 2625 2465 2504 2519 2464 2485 2441 2514 2619 2556 2570 2481 2468 2619 2478 2541 2509 2517 2448 2511 2551 2566 2430 2606 2572 2529 2574 2432 2516 2529 2489 2550 2525 2508 2477 2511 2590 2608 2566 2530 2511 2436 2492 2451 2525 2559 2491 2548 2506 2456 2588 2482 2457 2438 2549 2541 2525 2440 2558 2485 2443 2569 2407 2569 2409 2533 2594 2510 2583 2630 2597 2500 2508 2513 2471 2462 2525 2441 2545 2603 2444 2546 2621 2473 2487 2452 2559 2530 2473 2514 2516 2540 2472 2505 2508 2586 2553 2510 2548 2576 2562 2512 2517 2534 2498 2562 2552 2561 2489 2473 2483 2509 2515 2517 2471 2543 2517 2437 2496 2512 2522 2532 2518 2444 2583 2546 2549 2520 2436 2527 2496 2557 2582 2556 2565 2458 2588 2550 2516 2525 2497 2526 2520 2590 2413 2572 2584 2542 2466 2506 2518 2578 2554 2514 2470 2492 2495 2512 2448 2460 2465 2529 2511 2484 2444 2515 2514 2462 2504 2495 2486 2496 2479 2484 2432 2528 2480 2565 2450 2358 2458 2455 2497 2564 2546 2541 2461 2536 2441 2505 2369 2502 2501 2504 2519 2520 2460 2396 2431 2381 2443 2383 2415 2477 2355 2360 2448 2462 2421 2450 2491 2406 2428 2315 2358 2412 2520 2460 2425 2366 2385 2351 2400 2364 2402 2383 2422 2426 2440 2397 2356 2456 2405 2416 2403 2350 2393 2356 2410 2405 2393 2479 2291 2408 2383 2328 2366 2473 2373 2436 2496 2354 2361 2342 2335 2448 2431 2394 2318 2483 2368 2394 2392 2335 2384 2299 2470 2439 2463 2374 2406 2414 2264 2278 2350 2359 2388 2430 2327 2409 2419 2467 2382 2414 2400 2431 2396 2441 2353 2553 2436 2418 2435 2459 2462 2377 2343 2366 2444 2345 2444 2420 2431 2461 2456 2397 2438 2509 2439 2349 2467 2490 2506 2437 2471 2422 2502 2528 2424 2547 2504 2473 2453 2608 2500 2442 2495 2485 2507 2581 2618 2509 2540 2583 2599 2475 2553 2624 2530 2553 2458 2627 2630 2643 2559 2529 2582 2622 2602 2622 2648 2629 2655 2688 2546 2649 2650 2556 2671 2612 2617 2678 2700 2547 2685 2580 2667 2665 2558 2680 2713 2684 2760 2631 2651 2593 2732 2673 2762 2754 2768 2692 2718 2733 2716 2835 2716 2753 2765 2821 2809 2878 2727 2871 2814 2812 2933 2850 2978 2871 2919 2965 2972 2912 2940 2958 3006 3165 3100 3102 3125 3041 3139 3200 3216 3221 3252 3229 3247 3272 3272 3322 3287 3268 3263 3372 3334 3298 3317 3435 3304 3352 3387 3493 3256 3369 3280 3387 3231 3474 3361 3414 3392 3350 3470 3487 3424 3550 3452 3458 3522 3541 3467 3510 3574 3595 3520 3605 3740 3682 3693 3679 3859 3663 3737 3704 3753 3829 3755 3740 3692 3727 3794 3746 3801 3724 3545 3526 3540 3423 3300 3272 3182 3198 3159 3081 3020 3053 3039 2926 2951 2895 2821 2869 3047 2980 2900 2921 2911 2899 2850 2885 2901 2874 2910 2878 2955 2812 2814 2812 2904 2969 2776 2780 2847 2772 2815 2867 2924 2832 2749 2795 2784 2807 2772 2695 2792 2805 2818 2758 2698 2753 2636 2738 2579 2657 2694 2670 2654 2632 2615 2669 2702 2637 2675 2709 2493 2663 2665 2585 2656 2534 2550 2611 2622 2547 2644 2638 2504 2562 2538 2451 2527 2514 2530 2590 2622 2571 2469 2474 2499 2481 2578 2470 2547 2458 2570 2588 2459 2460 2464 2506 2561 2499 2574 2501 2607 2417 2484 2509 2517 2500 2411 2427 2420 2396 2457 2495 2466 2435 2397 2543 2476 2534 2475 2419 2499 2518 2384 2484 2472 2397 2441 2479 2462 2491 2436 2391 2428 2398 2469 2443 2447 2359 2367 2459 2501 2452 2502 2436 2403 2412 2478 2457 2405 2328 2477 2354 2459 2523 2416 2481 2424 2413 2487 2517 2484 2368 2501 2427 2352 2400 2462 2493 2393 2444 2366 2455 2405 2441 2419 2417 2337 2438 2420 2387 2319 2399 2495 2387 2384 2448 2399 2427 2428 2352 2436 2373 2368 2421 2430 2489 2467 2289 2434 2457 2377 2412 2399 2392 2377 2319 2441 2393 2455 2354 2352 2322 2331 2324 2225 2414 2257 2406 2267 2342 2309 2279 2334 2336 2324 2305 2337 2387 2265 2287 2386 2320 2201 2338 2355 2357 2255 2312 2253 2331 2360 2264 2230 2209 2367 2293 2236 2275 2349 2203 2283 2277 2354 2285 2285 2293 2306 2327 2343 2205 2244 2350 2281 2314 2271 2293 2176 2258 2220 2358 2198 2336 2271 2279 2304 2210 2287 2184 2304 2302 2268 2231 2265 2292 2274 2278 2266 2290 2271 2175 2284 2284 2346 2255 2241 2183 2219 2261 2268 2303 2276 2288 2285 2231 2322 2270 2240 2224 2247 2224 2252 2169 2243 2242 2268 2302 2255 2320 2271 2270 2114 2179 2290 2219 2270 2236 2272 2136 2171 2158 2231 2118 2295 2185 2221 2204 2177 2294 2225 2196 2197 2130 2165 2227 2158 2137 2178 2177 2204 2204 2138 2167 2292 2232 2196 2230 2088 2143 2148 2135 2185 2091 2213 2190 2227 2208 2098 2073 2165 2133 2185 2187 2111 2165 2221 2201 2180 2160 2165 2195 2210 2065 2227 2125 2167 2143 2203 2181 2163 2166 2087 2211 2193 2128 2146 2156 2130 2102 2154 2076 2231 2106 2192 2149 2098 2080 2060 2142 2178 2080 2208 2070 2167 2139 2238 2157 2071 2088 2034 2187 2091 2049 2058 2178 2036 2099 2114 2095 2138 2123 2047 2219 2159 2119 2116 2036 2160 2135 2081 2080 2015 2052 2031 2069 2123 1950 2105 2168 2110 2153 2056 2078 2017 1991 2042 2009 2126 2129 2067 2065 2072 2069 2080 2096 2061 2074 2060 2065 2044 2082 2124 2055 2100 1964 2032 2051 2101 2045 2061 2132 2089 1998 1995 2060 2136 2061 1958 1959 2049 2072 1951 2150 2119 2138 2022 2104 2099 1981 2023 1988 2036 2070 1993 1976 2041 2046 2043 2035 2076 1981 1944 2007 2100 2038 2038 2036 2004 2011 2113 2033 2042 2083 2034 1984 2024 2010 1973 2075 2036 1973 2093 2063 1999 2119 2029 2066 1942 2101 2073 1966 2002 1940 2036 2053 2067 2035 2021 2077 2086 2079 1989 2065 2005 2101 2039 2011 2033 2021 2114 2084 2112 1999 2075 1979 1993 2010 2059 2013 2065 2030 2056 2074 2085 2069 2049 2012 2061 2074 2075 2089 2001 2060 2060 2007 2019 1911 2044 1989 2057 2010 2090 2074 2049 2033 2095 1991 2006 2035 2025 2006 1969 2029 2030 2080 2011 2076 2046 2093 1994 1994 2097 2035 2067 2044 1951 2009 2031 1989 2065 2012 1932 2002 1999 2063 1988 2067 2021 2000 1994 1908 1985 1983 2042 1991 2066 2130 2079 2080 1926 1985 2083 1954 2047 1991 2080 1997 1956 2018 1980 1995 1978 2065 1906 1989 1984 1921 2029 1906 1976 1982 1961 1950 2003 2020 1984 1978 1893 1891 1856 1926 1967 1902 1979 1985 1948 1873 1889 1876 1929 1956 1918 1946 1936 1860 1828 1855 1805 1949 1904 1866 1873 1995 1877 1916 1863 1900 1853 1931 1748 1907 1835 1868 1776 1887 1860 1881 1879 1836 1818 1789 1788 1790 1866 1813 1915 1837 1804 1800 1842 1796 1742 1790 1748 1834 1788 1735 1763 1784 1755 1877 1781 1819 1670 1745 1694 1783 1700 1681 1684 1764 1726 1764 1747 1711 1714 1759 1659 1773 1746 1669 1744 1630 1741 1674 1763 1730 1723 1651 1754 1699 1662 1705 1641 1664 1704 1686 1598 1671 1672 1636 1714 1635 1658 1736 1723 1695 1684 1580 1687 1628 1570 1613 1683 1637 1665 1623 1649 1636 1636 1621 1593 1677 1596 1632 1601 1609 1573 1570 1668 1614 1608 1635 1635 1620 1640 1598 1607 1620 1629 1635 1595 1669 1702 1585 1655 1702 1581 1643 1577 1604 1654 1689 1613 1688 1567 1650 1617 1615 1640 1593 1655 1575 1667 1531 1601 1656 1684 1586 1570 1556 1579 1563 1630 1597 1660 1633 1624 1602 1578 1592 1610 1580 1602 1630 1584 1682 1566 1681 1623 1602 1649 1627 1644 1623 1540 1600 1535 1573 1565 1618 1625 1610 1514 1558 1584 1556 1478 1575 1525 1477 1444 1534 1452 1528 1454 1594 1579 1499 1533 1526 1491 1580 1547 1528 1474 1500 1435 1536 1516 1532 1599 1537 1560 1502 1547 1490 1514 1576 1522 1502 1506 1512 1562 1514 1571 1596 1415 1515 1507 1448 1506 1438 1454 1509 1518 1458 1546 1431 1494 1487 1479 1408 1485 1463 1480 1463 1461 1473 1474 1496 1474 1400 1474 1486 1533 1507 1485 1547 1450 1462 1476 1477 1507 1485 1494 1555 1556 1515 1507 1433 1484 1569 1476 1577 1570 1525 1421 1510 1536 1518 1509 1546 1494 1526 1487 1483 1550 1546 1573 1516 1539 1487 1480 1601 1534 1550 1502 1500 1508 1553 1524 1477 1512 1507 1530 1474 1498 1520 1500 1468 1490 1575 1543 1502 1523 1552 1543 1478 1455 1487 1547 1513 1437 1464 1434 1536 1461 1440 1490 1537 1435 1487 1482 1480 1537 1576 1603 1413 1442 1479 1470 1464 1548 1463 1418 1511 1528 1507 1519 1423 1488 1483 1518 1469 1535 1533 1395 1471 1428 1421 1458 1378 1413 1501 1533 1454 1420 1470 1472 1481 1483 1452 1408 1455 1562 1478 1494 1449 1438 1428 1441 1429 1477 1490 1494 1402 1440 1437 1453 1487 1436 1341 1430 1463 1331 1331 1382 1418 1361 1411 1393 1379 1432 1354 1422 1453 1392 1373 1391 1387 1432 1329 1346 1392 1402 1467 1375 1402 1360 1365 1483 1300 1353 1351 1373 1381 1394 1315 1327 1309 1348 1257 1302 1310 1333 1273 1267 1262 1311 1297 1326 1318 1388 1358 1278 1387 1332 1253 1199 1264 1299 1284 1328 1308 1354 1310 1294 1322 1276 1266 1279 1275 1297 1288 1217 1252 1222 1310 1238 1258 1254 1228 1258 1273 1242 1281 1287 1216 1277 1241 1275 1246 1238 1327 1255 1264 1222 1322 1267 1275 1307 1367 1349 1349 1309 1299 1270 1273 1359 1268 1373 1306 1340 1338 1355 1370 1450 1416 1431 1438 1376 1393 1430 1416 1486 1386 1482 1452 1507 1418 1458 1495 1453 1490 1479 1427 1531 1545 1520 1518 1548 1562 1592 1594 1533 1588 1637 1605 1704 1623 1645 1670 1634 1663 1644 1686 1607 1794 1752 1673 1679 1748 1667 1668 1784 1631 1644 1543 1609 1544 1533 1380 1541 1433 1427 1488 1378 1400 1327 1349 1278 1338 1300 1323 1226 1328 1309 1290 1194 1248 1292 1289 1263 1209 1225 1237 1198 1307 1216 1258 1217 1211 1253 1284 1346 1298 1356 1359 1371 1441 1462 1435 1568 1530 1652 1612 1690 1744 1729 1793 1888 1933 2040 1949 2044 2042 2059 2204 2195 2291 2352 2459 2407 2572 2529 2640 2706 2779 2845 3066 3023 3053 3068 3149 3228 3208 3420 3400 3525 3560 3788 3730 3947 4060 4099 4057 4174 4340 4465 4606 4739 4846 4859 4991 5141 5174 5247 5400 5495 5707 5766 5934 5931 6094 6114 6223 6181 6244 6383 6339 6338 5968 5939 5693 5401 5061 4800 4461 4076 3894 3597 3321 3192 2946 2743 2570 2438 2367 2235 2111 2030 1985 1971 1818 1760 1807 1673 1635 1667 1670 1682 1614 1488 1591 1510 1460 1512 1445 1386 1426 1379 1378 1342 1328 1364 1259 1366 1279 1316 1307 1306 1296 1295 1226 1252 1233 1268 1280 1215 1257 1215 1254 1168 1170 1184 1239 1146 1137 1154 1116 1208 1070 1124 1153 1183 1161 1093 1107 1169 1129 1067 1137 1142 1094 1136 1108 1072 1097 1019 1063 1005 1099 1099 1118 1093 1050 1073 1044 1064 1038 980 1015 1078 1053 1029 1054 1034 1035 1107 1070 1066 1070 1015 1046 1032 1056 1034 1001 1020 1048 992 1012 987 1002 1016 959 1028 961 1024 994 995 1030 1004 972 991 959 980 920 1029 1009 935 983 1015 981 1030 913 1003 934 950 975 968 929 961 927 989 937 936 963 866 966 934 920 930 921 978 984 913 973 921 953 987 951 968 907 984 919 910 939 936 933 915 956 911 955 950 891 910 992 927 932 973 905 917 928 932 908 914 923 873 942 894 880 902 971 969 917 913 939 948 881 932 937 941 957 876 903 905 952 894 946 886 946 889 943 934 893 993 873 856 924 869 884 899 857 881 929 911 875 835 882 934 908 890 866 836 959 903 894 858 906 912 860 931 887 873 883 876 876 855 895 889 907 868 851 859 873 869 902 864 910 874 910 820 874 891 859 897 902 924 850 892 887 889 844 898 872 880 895 894 850 872 867 864 889 868 840 876 905 904 920 931 918 882 874 913 932 879 905 931 878 853 900 895 887 944 942 943 900 919 903 881 917 890 904 870 878 882 905 947 931 899 926 944 924 985 932 955 955 889 925 931 922 966 986 915 951 979 947 958 957 976 980 950 933 968 1002 1012 1031 978 1054 1100 1149 1135 1148 1187 1212 1274 1330 1324 1384 1418 1510 1542 1615 1607 1804 1721 1795 1898 1936 1974 2028 2109 2122 2155 2340 2410 2460 2525 2681 2698 2929 2934 3087 3064 3179 3289 3407 3365 3541 3588 3711 3875 3929 3846 4014 4098 4306 4537 4479 4607 4791 4858 5037 5162 5290 5680 5645 6055 6016 6281 6428 6560 6744 6870 7155 7026 7079 7059 7298 7253 7430 7173 7357 7239 7024 6819 6431 6236 5657 5304 4968 4687 4435 4250 3918 3564 3345 3118 2877 2670 2490 2418 2214 2155 2032 2057 1865 1779 1718 1750 1655 1595 1539 1497 1508 1425 1396 1381 1327 1277 1236 1251 1255 1182 1202 1096 1190 1142 1167 1148 1111 997 1011 1032 1049 1042 1036 980 963 934 1002 945 968 939 976 999 978 962 943 909 960 905 922 931 915 907 913 914 861 898 920 889 947 901 877 940 839 883 916 908 900 873 897 904 893 851 836 853 862 901 806 890 859 914 844 874 926 836 861 866 853 851 832 866 830 852 828 842 929 907 884 885 877 876 849 908 871 852 856 826 860 873 856 880 882 879 867 891 878 858 852 860 862 853 872 917 855 886 842 912 868 846 859 858 898 842 926 884 916 845 872 846 816 916 838 855 902 842 813 809 836 825 824 860 818 831 832 790 835 795 827 824 815 819 846 807 823 865 769 852 786 826 762 780 787 759 827 792 782 767 775 812 852 775 792 775 808 779 812 835 734 811 832 784 763 724 792 760 809 779 727 811 803 799 753 723 727 799 785 721 750 755 791 721 777 768 727 738 774 805 812 782 760 830 765 754 747 741 767 854 710 770 761 716 765 744 784 748 737 765 775 767 771 710 771 808 798 753 766 717 750 778 759 764 798 764 803 737 752 757 722 727 782 780 760 732 812 747 765 736 755 773 750 777 763 790 828 767 802 743 749 761 787 763 759 748 739 785 754 814 785 772 802 770 760 751 772 806 727 688 771 827 728 760 718 791 715 704 753 733 735 773 738 712 726 794 707 755 683 737 702 721 686 747 697 727 677 739 724 655 756 771 699 734 693 662 685 724 692 717 731 687 740 755 727 703 696 743 723 728 726 721 752 747 743 738 733 793 735 719 724 670 731 733 724 707 715 690 744 681 722 743 737 703 703 785 734 710 751 827 694 788 718 830 771 737 818 745 800 774 759 713 759 708 731 703 730 732 733 708 772 714 743 684 718 759 772 639 718 666 654 701 722 652 733 626 761 686 711 744 738 657 652 716 678 678 706 694 719 688 714 721 671 672 723 700 750 635 686 676 712 705 729 692 704 703 682 721 682 634 704 681 684 689 660 718 670 729 696 670 700 715 693 670 696 680 654 702 656 705 715 660 673 656 687 665 690 703 666 653 645 671 653 689 686 678 617 635 680 669 652 662 696 624 684 712 720 679 660 640 692 690 657 663 691 664 710 708 717 656 669 682 652 681 674 706 654 744 689 707 629 746 697 647 617 667 687 702 614 686 660 664 626 657 676 700 633 648 650 651 664 716 646 696 622 670 667 645 627 706 653 643 655 651 648 655 658 604 663 682 649 698 652 698 671 625 662 725 667 671 717 645 630 698 711 662 653 627 639 628 679 679 662 713 680 672 672 696 645 725 666 649 682 661 646 655 626 661 644 687 650 662 662 705 626 654 607 626 667 624 617 666 643 721 676 658 680 666 661 609 668 624 644 629 643 644 694 610 645 645 680 629 605 669 618 672 635 664 670 673 664 598 684 652 669 637 655 709 667 654 685 630 687 695 643 668 594 692 642 602 661 632 672 648 659 611 691 598 651 689 682 677 657 646 670 612 645 671 643 624 692 668 639 670 651 683 729 654 664 686 667 692 679 637 626 651 697 681 683 634 681 652 644 707 681 692 689 670 641 681 642 674 683 677 679 676 624 639 666 692 677 681 642 769 686 657 697 708 705 731 705 672 619 715 679 676 709 645 720 651 654 668 683 734 717 683 705 679 706 667 697 689 684 743 671 747 651 652 672 686 625 655 654 671 703 624 687 614 666 649 648 665 581 595 654 651 662 667 646 636 657 640 595 632 652 613 633 651 676 616 628 610 612 652 618 659 649 670 616 716 689 698 592 664 632 669 632 673 613 654 638 642 625 666 657 625 651 665 686 667 609 672 649 625 625 634 622 631 590 666 640 616 671 590 617 623 636 666 624 605 621 650 611 639 615 597 604 619 666 606 676 608 711 650 656 618 675 654 617 664 609 626 623 664 614 611 607 628 640 668 689 635 611 656 676 632 619 623 609 673 596 632 630 656 625 613 657 626 645 654 676 705 642 665 684 643 625 612 684 630 711 635 655 635 706 653 701 677 688 652 697 649 657 660 678 711 733 706 718 798 720 739 713 748 760 719 842 785 802 732 814 788 826 806 869 830 923 910 895 962 910 887 901 904 932 950 988 1001 1023 996 1077 1074 1070 1105 1095 1111 1160 1188 1227 1142 1219 1232 1216 1317 1311 1263 1317 1341 1313 1373 1371 1299 1312 1365 1315 1254 1210 1190 1209 1140 1130 1052 1080 1023 999 961 978 905 899 905 832 857 838 832 812 834 774 838 725 746 788 733 763 727 721 686 715 724 662 695 692 702 689 712 687 688 652 664 674 632 699 619 642 618 626 621 668 666 636 653 619 648 640 686 640 617 578 663 636 625 684 634 628 604 609 608 629 619 639 612 623 631 567 620 579 601 617 601 628 607 671 602 580 646 589 568 594 553 641 574 624 587 584 631 626 628 615 548 618 608 636 608 611 642 602 613 583 593 625 586 631 612 625 629 643 589 607 608 622 663 606 626 584 602 615 613 644 612 647 628 643 679 616 618 614 597 570 587 648 614 634 584 572 572 563 583 616 580 570 660 593 626 624 631 603 590 648 547 619 568 636 616 589 582 613 622 653 610 620 641 650 629 610 622 576 615 615 579 647 590 629 637 628 591 630 615 615 647 628 616 628 578 590 597 601 609 656 615 618 596 636 577 638 643 593 600 577 678 638 618 608 646 608 619 591 631 667 637 630 639 633 579 643 643 641 605 627 623 633 651 650 667 651 618 645 598 653 625 603 661 675 656 676 626 617 599 640 598 590 669 724 673 654 641 648 610 601 660 593 655 644 626 633 638 627 689 637 653 702 689 623 620 654 652 664 624 587 659 621 699 643 661 671 673 630 707 590 703 620 662 660 662 664 671 630 747 647 684 702 631 689 699 651 673 706 697 701 714 704 692 690 745 713 752 753 740 758 796 855 796 828 838 844 949 1020 974 955 1039 1038 1099 1011 1152 1136 1232 1252 1294 1364 1379 1487 1536 1564 1628 1713 1707 1803 1826 1992 1913 2041 2123 2150 2240 2376 2481 2574 2656 2699 2911 2885 3031 3059 3292 3248 3383 3523 3456 3703 3820 3943 3992 4255 4445 4554 4590 4852 4884 4937 5064 5095 5119 5212 5074 5162 5078 4949 4766 4587 4482 4475 4073 3962 3910 3593 3506 3275 3162 3004 2875 2801 2573 2408 2384 2213 2088 2028 1889 1857 1782 1686 1615 1614 1473 1468 1488 1483 1396 1385 1319 1330 1230 1183 1153 1169 1165 1114 1081 1052 1087 1019 1026 1008 979 906 942 901 896 895 835 878 900 914 861 829 841 854 786 857 804 851 837 781 759 827 809 721 851 840 762 784 766 746 763 778 796 745 745 783 781 764 724 727 747 724 739 699 721 718 778 779 706 749 678 751 749 766 750 714 735 703 704 685 724 679 720 677 626 647 689 726 641 703 740 659 714 685 690 624 696 637 687 647 680 701 654 617 666 598 693 690 674 648 610 652 654 607 610 637 601 612 621 591 630 588 599 599 583 561 641 622 628 607 607 628 630 594 620 601 610 647 625 666 596 600 625 610 664 637 625 616 640 675 677 655 673 688 684 685 736 645 687 764 686 719 739 693 727 742 734 736 718 742 769 765 766 756 777 804 833 838 789 870 842 892 894 866 932 939 880 965 928 920 927 972 963 934 844 919 976 959 907 945 895 921 897 820 816 801 801 861 802 760 766 786 725 766 768 764 712 693 740 695 700 733 766 684 703 676 688 714 669 631 675 647 669 652 652 669 665 658 655 595 618 600 611 638 608 619 637 586 622 630 616 668 603 633 557 593 624 624 618 601 619 605 560 602 579 619 610 592 603 590 607 595 570 537 568 575 555 535 642 589 524 643 607 560 547 593 550 560 593 595 561 609 600 590 582 599 551 584 564 563 575 571 581 609 611 587 561 549 586 571 526 577 527 544 530 537 507 553 529 549 519 593 550 556 530 564 530 628 580 546 563 532 539 523 548 577 551 568 530 545 529 563 475 521 569 537 530 509 592 532 545 556 541 526 539 514 514 547 495 480 554 553 535 574 590 526 524 591 515 510 555 558 524 545 519 555 558 531 519 521 556 523 525 571 490 518 505 571 527 539 535 523 555 514 560 495 559 558 559 523 550 554 506 532 487 524 550 513 500 543 528 531 555 542 514 565 522 496 522 450 510 482 541 520 521 461 532 539 501 493 535 527 482 529 512 551 503 543 521 539 598 525 521 513 508 554 535 532 532 530 522 507 546 493 540 523 563 536 586 529 500 470 504 523 551 544 477 539 492 551 569 555 501 557 523 480 540 532 559 488 535 503 497 518 505 531 497 547 533 560 564 483 525 530 537 542 542 481 540 514 526 485 513 471 508 515 530 527 481 522 465 475 487 520 462 465 511 510 565 495 538 514 492 519 458 547 493 546 506 507 474 502 579 514 517 506 495 503 503 528 505 478 507 527 528 553 513 519 550 519 497 502 518 524 492 509 491 535 526 499 536 509 486 490 540 505 505 542 540 505 569 536 540 497 525 495 491 517 499 538 479 543 536 500 491 508 482 529 526 475 478 508 495 494 500 507 522 529 536 494 518 501 485 512 493 527 487 512 513 520 488 508 523 547 551 520 503 518 524 520 490 514 516 497 480 536 500 493 498 508 492 553 507 520 523 465 513 477 517 466 498 502 486 494 477 487 482 490 470 483 559 505 489 471 512 550 482 454 496 499 531 499 510 519 507 487 509 492 540 501 508 527 498 547 515 485 493 496 513 481 490 493 498 524 531 474 509 451 500 509 506 495 491 496 495 488 538 499 544 508 533 451 509 537 484 519 524 483 552 558 518 524 514 492 557 566 527 510 524 547 525 537 556 523 499 582 486 552 545 558 516 546 564 519 528 527 578 485 568 562 518 563 544 558 532 546 602 595 562 567 591 581 607 628 630 602 684 613 585 624 635 649 604 660 644 668 645 684 657 628 618 659 666 675 687 697 677 748 757 762 713 730 777 833 826 826 810 904 833 952 942 937 992 1019 1034 1054 1017 1033 1062 1063 1114 1124 1160 1222 1288 1300 1307 1393 1379 1447 1331 1527 1539 1601 1627 1582 1605 1615 1726 1625 1740 1738 1768 1697 1686 1675 1571 1509 1564 1552 1465 1445 1465 1422 1361 1247 1226 1231 1171 1201 1057 1117 1026 1007 965 1005 912 907 836 863 821 822 788 790 808 763 783 754 697 726 720 694 743 705 692 654 706 660 607 669 653 662 660 648 632 641 651 605 580 664 559 625 609 582 622 604 555 632 607 604 637 570 618 546 636 597 602 602 565 569 609 559 572 594 577 594 526 584 612 554 616 535 568 547 587 590 549 565 603 574 583 578 579 577 540 566 633 592 603 599 565 628 608 553 543 563 576 594 561 576 543 587 581 592 546 575 591 592 584 577 593 577 559 549 547 571 547 550 562 541 562 543 551 541 540 560 567 570 548 539 571 533 575 502 582 537 548 547 509 565 506 582 504 525 517 566 543 537 541 547 568 493 508 537 492 550 529 536 496 505 480 524 514 535 568 534 513 525 501 500 528 555 544 582 528 558 529 534 524 560 543 546 547 496 575 554 574 534 543 571 590 603 545 567 563 576 601 597 612 610 634 664 658 688 687 731 709 764 728 750 835 815 843 801 858 880 863 926 1009 967 978 995 978 1093 1110 1152 1178 1121 1226 1289 1318 1333 1438 1333 1414 1387 1528 1605 1645 1611 1584 1667 1709 1661 1821 1779 1733 1683 1777 1744 1639 1599 1617 1527 1530 1496 1480 1434 1426 1369 1304 1317 1285 1177 1184 1158 1127 1078 1113 975 967 1001 1007 933 851 851 864 841 816 804 764 745 755 819 699 758 728 666 758 663 695 690 653 652 599 593 620 607 635 616 607 589 569 568 632 581 586 576 582 560 535 534 564 571 573 569 541 560 540 533 539 584 537 556 548 526 553 536 506 516 503 514 551 549 532 499 508 504 522 547 487 535 500 510 486 538 546 483 538 462 526 507 508 479 486 517 551 517 495 481 462 488 489 503 464 494 466 505 482 486 468 483 507 458 509 497 545 487 535 491 481 490 501 546 523 489 522 453 481 509 503 505 537 531 471 496 507 492 495 526 539 496 553 557 551 556 577 545 561 558 575 572 532 590 557 577 632 585 567 609 587 586 558 623 677 587 661 651 649 663 678 767 682 672 679 695 762 747 708 760 772 689 743 705 693 748 717 687 664 708 606 661 629 657 637 638 624 623 596 574 591 604 570 587 608 545 579 560 600 525 562 489 537 544 493 560 485 532 527 523 521 548 510 520 511 507 507 467 473 499 473 504 486 533 492 499 488 511 475 473 496 482 506 528 452 481 494 475 478 456 469 497 493 457 492 475 475 436 465 507 480 463 481 499 429 446 455 457 463 466 475 490 490 479 463 463 471 432 471 438 427 466 466 517 478 452 457 429 442 454 443 460 467 446 444 468 487 477 479 460 461 501 428 463 485 436 456 446 445 467 429 462 440 460 432 457 415 438 416 469 441 450 478 470 453 472 434 479 478 469 467 414 474 453 461 493 472 464 446 457 438 425 483 455 450 433 448 446 469 444 491 453 424 448 446 412 424 430 410 410 419 429 474 451 425 449 413 410 397 427 413 416 413 435 425 401 457 416 408 396 436 423 433 446 457 449 421 441 431 428 437 442 436 457 450 446 405 455 410 434 410 419 429 444 449 385 414 447 441 448 430 426 429 422 418 406 444 454 470 444 476 435 417 426 412 400 379 420 428 441 417 418 445 413 461 419 485 437 464 422 419 446 444 478 428 443 421 393 428 444 421 437 415 461 394 445 433 446 423 461 446 461 423 443 422 487 435 467 456 440 413 491 439 417 468 421 462 410 446 443 428 434 375 410 435 440 428 443 437 444 429 442 449 457 415 453 429 476 439 424 411 431 461 465 456 441 452 434 448 447 405 465 475 459 435 469 487 440 434 428 467 419 433 416 427 459 405 447 436 430 457 435 429 429 452 451 415 437 445 408 447 431 452 387 454 465 425 431 462 410 408 420 430 466 427 448 421 434 415 436 434 443 425 401 413 435 410 436 387 431 404 446 370 421 390 446 416 422 426 396 436 387 436 452 432 392 413 425 450 413 420 407 395 400 438 429 426 402 433 433 374 411 433 449 400 397 388 438 403 431 430 422 406 412 442 429 436 434 411 446 453 373 429 433 443 419 423 408 435 416 426 458 422 400 425 421 476 430 459 430 488 394 482 434 437 454 478 453 464 452 433 447 454 459 507 468 497 483 473 446 465 509 521 497 525 518 545 549 540 544 532 529 556 523 572 516 579 513 550 533 549 577 568 569 570 566 551 583 552 551 534 539 539 531 528 520 542 471 498 458 516 560 471 508 462 487 493 460 504 436 457 451 445 445 433 474 451 459 437 450 469 483 431 438 425 429 435 443 413 446 425 429 412 428 390 403 416 409 399 436 431 445 472 465 433 439 440 427 393 434 432 409 415 410 433 410 384 381 430 423 429 416 415 415 380 390 397 419 411 457 419 470 400 414 402 432 413 425 401 440 367 403 407 392 376 443 377 420 368 410 396 365 422 359 420 398 418 370 386 382 432 385 408 372 372 437 419 397 414 405 423 359 448 392 382 401 382 445 380 424 374 363 421 385 429 439 400 402 357 391 407 392 387 373 376 421 468 439 373 416 441 405 401 416 399 414 405 416 418 355 381 433 353 422 414 418 407 442 383 402 410 393 385 449 400 382 424 388 397 406 410 401 373 432 388 374 391 392 411 418 427 411 424 415 392 429 404 409 435 368 402 407 405 394 382 386 379 390 424 399 432 388 433 402 412 407 443 427 423 415 428 412 438 432 421 431 433 405 415 474 397 461 409 440 390 422 421 432 426 448 406 414 415 457 435 432 449 498 402 461 445 495 489 477 513 479 497 478 518 509 511 509 528 561 585 579 587 535 538 578 554 621 623 613 623 641 666 664 667 707 706 692 725 673 764 727 804 771 795 817 873 879 825 851 869 804 801 820 786 813 784 775 811 815 800 761 719 772 706 698 736 700 719 699 673 621 664 604 616 608 653 606 540 624 603 581 548 529 544 557 520 488 532 523 455 469 454 435 474 526 493 478 468 462 477 488 479 491 473 437 498 448 441 454 475 398 440 451 484 459 465 457 450 421 440 439 458 419 453 402 454 463 467 432 443 396 409 378 409 431 416 418 421 428 401 453 424 423 406 440 435 428 399 431 392 417 395 431 361 434 416 414 408 451 402 397 415 424 405 406 373 384 417 383 397 405 431 426 422 409 424 426 393 421 411 436 408 422 421 436 420 430 425 425 393 415 420 395 461 437 454 414 444 414 420 416 418 423 418 430 377 407 402 427 428 447 435 408 447 403 464 441 432 388 436 421 425 398 423 441 426 446 409 466 416 412 424 445 465 413 444 451 442 469 439 429 449 426 473 424 418 461 421 441 434 435 407 399 399 443 415 432 409 388 385 437 443 391 424 387 438 412 407 367 362 387 443 430 449 365 411 407 410 417 402 422 423 383 423 390 382 367 405 400 413 391 377 389 381 355 443 381 399 373 404 423 404 388 400 414 392 426 379 391 419 394 398 413 430 365 392 347 380 389 424 412 426 414 367 401 363 437 413 386 364 389 402 357 407 421 411 387 404 367 390 373 380 415 429 425 421 420 379 406 367 398 401 380 361 383 399 385 391 438 340 395 408 408 414 383 395 389 378 393 392 420 380 398 367 373 396 348 423 393 355 418 378 413 411 415 420 399 396 411 391 389 393 397 356 354 402 389 409 385 385 391 422 361 441 364 387 403 359 413 429 399 384 382 405 338 376 421 413 422 399 412 391 349 408 400 415 418 427 383 450 397 384 373 390 369 403 404 395 379 403 374 409 381 416 388 387 380 391 444 371 407 405 355 348 378 413 374 401 386 384 399 357 411 391 376 404 380 391 385 391 370 414 406 431 402 356 403 375 394 388 362 401 384 385 382 389 401 410 421 432 414 398 373 388 383 393 390 377 366 371 402 371 395 395 373 362 381 365 408 382 425 384 362 373 406 418 415 366 366 360 396 405 410 394 376 391 400 363 404 387 413 377 383 407 427 418 410 391 402 426 396 415 397 437 401 384 399 390 417 347 398 376 416 393 432 363 436 397 371 420 388 373 396 397 406 394 397 406 396 410 403 397 417 372 429 407 418 432 393 424 382 415 450 401 396 392 351 371 368 384 386 364 366 424 412 405 379 422 443 393 406 372 390 346 376 401 410 373 392 381 421 390 420 383 436 400 406 389 411 389 382 378 400 398 389 398 412 381 386 389 363 431 370 377 393 411 393 388 336 384 396 385 408 386 368 414 349 399 378 395 401 421 415 388 392 423 407 416 432 403 471 402 421 456 396 431 423 409 449 405 426 405 420 484 458 478 417 424 424 475 431 445 454 481 487 487 505 514 465 516 462 498 518 521 468 553 476 570 526 472 498 504 488 540 494 565 480 553 490 523 504 511 542 494 526 487 518 522 506 517 580 580 518 583 546 573 550 560 524 540 536 588 580 578 652 609 568 602 624 644 644 687 665 672 644 677 714 687 765 728 751 747 784 792 765 723 790 753 723 725 771 705 760 759 765 685 703 733 691 717 684 699 709 644 691 643 652 689 720 657 609 621 604 617 613 573 632 573 547 606 541 550 527 528 510 491 545 505 499 483 490 506 499 448 483 455 508 452 503 481 495 481 475 509 457 494 462 470 442 446 473 471 435 426 453 494 482 457 495 499 444 464 484 444 411 433 470 426 469 441 486 430 440 452 469 425 458 439 455 436 422 422 385 443 458 492 442 448 452 444 467 457 462 432 434 426 445 421 418 447 440 449 433 444 445 454 439 443 454 462 440 437 438 434 451 469 415 479 403 483 464 452 441 413 451 454 436 464 409 403 466 473 410 436 401 457 436 431 461 450 439 441 491 422 441 432 419 447 491 443 488 476 498 482 416 482 472 415 475 459 489 482 492 519 484 505 505 505 507 578 479 533 525 501 541 592 593 576 625 588 598 637 649 619 677 661 662 713 701 696 754 746 788 795 793 816 833 819 954 924 904 940 983 990 1103 1118 1107 1143 1203 1239 1235 1266 1298 1367 1311 1303 1376 1382 1355 1283 1329 1301 1341 1274 1329 1263 1261 1306 1217 1217 1261 1298 1252 1208 1151 1188 1150 1122 1081 1092 1112 1026 1015 987 998 951 977 921 915 873 929 866 863 785 766 786 781 736 703 760 722 698 704 781 745 682 659 697 655 654 649 662 609 613 629 626 619 573 573 614 571 593 544 571 541 554 560 563 576 527 553 519 590 497 527 544 504 526 532 528 498 520 503 486 503 497 510 490 521 517 516 462 487 482 473 492 454 472 429 493 474 503 486 453 513 455 478 464 477 453 498 450 462 446 445 399 448 447 450 441 444 443 459 435 489 454 466 439 424 439 456 431 451 422 464 468 458 459 431 454 486 463 504 432 448 437 406 460 486 466 467 447 468 485 504 485 514 523 460 464 483 486 496 522 482 493 466 493 460 533 506 497 507 498 484 536 477 500 506 479 486 478 469 498 491 473 461 481 466 480 484 478 436 512 465 457 481 455 438 449 461 487 472 497 465 435 494 497 451 468 463 470 449 449 419 467 446 502 435 442 468 420 448 433 440 440 451 419 419 442 396 415 428 420 434 414 401 413 449 396 427 376 424 422 404 455 425 456 425 418 458 412 435 448 414 440 397 448 436 434 407 392 392 406 413 401 434 389 400 424 400 412 409 397 435 423 380 446 398 417 408 434 412 426 407 406 381 404 425 392 443 405 422 386 388 376 430 366 424 380 394 426 400 411 377 387 355 375 384 397 373 392 400 443 414 363 457 403 410 364 422 395 399 372 406 369 402 393 351 396 371 404 412 393 432 411 366 427 386 466 390 388 392 408 443 396 396 379 386 380 399 384 338 383 398 389 390 445 397 405 388 367 378 386 392 404 377 402 399 384 406 374 374 383 374 399 409 394 358 390 383 393 394 422 451 423 385 393 362 335 395 465 380 395 418 397 371 407 352 397 381 393 396 387 388 393 386 400 410 371 384 380 423 399 427 430 408 390 439 427 417 389 382 337 416 406 429 449 382 408 419 386 373 373 370 398 426 405 395 389 421 392 384 394 431 404 421 399 419 398 415 390 419 400 395 371 386 409 375 401 400 387 404 386 425 412 407 400 392 419 398 381 377 399 406 414 394 345 404 387 388 389 420 416 372 418 407 404 362 401 393 431 369 415 411 422 393 394 408 422 375 406 382 394 388 371 423 400 364 427 392 405 392 434 438 380 395 387 448 401 409 413 432 376 389 398 405 405 354 415 364 382 360 407 405 387 380 394 396 389 363 394 392 414 392 403 425 398 380 418 431 405 363 417 392 397 424 391 397 418 395 403 417 365 406 355 363 345 342 422 387 418 405 408 404 427 386 388 407 426 402 431 391 400 400 393 400 418 416 410 425 392 411 392 399 396 418 437 420 454 433 422 434 450 402 424 395 449 433 429 461 447 459 480 430 470 473 466 488 507 470 484 477 499 503 461 527 445 489 476 474 473 491 475 462 482 460 463 493 457 472 468 537 471 448 466 489 477 403 495 414 470 469 484 481 449 466 439 476 440 476 399 431 435 461 427 444 426 435 413 429 425 422 406 396 408 388 432 386 410 386 393 481 433 397 418 439 418 413 403 386 398 411 415 375 402 390 405 430 411 430 423 366 417 372 410 375 391 409 388 418 410 402 399 386 403 421 391 424 414 387 417 401 407 363 416 379 414 436 372 423 363 402 381 415 351 363 389 402 387 381 376 403 381 374 402 376 364 412 405 403 404 397 374 377 382 368 414 392 413 355 385 344 398 381 364 364 393 381 410 388 391 433 444 418 424 441 403 381 384 387 350 402 396 371 388 375 385 358 401 399 398 398 425 434 342 369 353 390 375 420 374 390 412 365 408 403 386 391 393 415 381 350 401 398 413 427 386 425 369 404 379 394 420 429 402 444 399 411 419 368 422 364 347 418 403 370 404 402 426 420 418 450 418 421 399 406 424 396 438 457 425 433 378 463 408 434 455 433 443 440 418 394 410 437 456 478 461 451 434 506 488 477 498 518 490 533 497 531 516 526 511 567 567 555 608 619 575 662 587 622 649 664 678 754 712 710 753 807 732 827 820 865 928 940 958 995 1035 974 1053 1037 1024 1019 1059 1025 1121 1076 1150 1073 1079 1062 1050 1076 1032 1058 986 1058 1009 1005 1013 1004 1015 974 983 921 959 906 878 934 849 858 845 881 807 891 828 856 824 776 744 793 755 716 782 797 709 753 672 635 678 637 631 595 653 689 589 620 603 595 621 608 597 530 590 573 538 508 533 480 526 534 492 542 525 584 473 528 500 560 541 508 505 464 470 466 525 464 498 508 509 478 488 450 501 427 475 464 434 443 463 470 454 432 464 430 446 433 431 427 442 413 434 455 420 429 436 409 458 481 452 463 456 457 446 438 454 428 436 436 481 443 461 426 438 420 424 443 423 460 428 415 435 429 467 400 419 417 410 444 384 430 467 401 392 453 453 437 438 463 440 444 422 437 464 479 463 447 437 465 451 471 448 409 429 476 480 497 422 444 487 463 484 447 441 425 414 458 473 423 435 451 426 417 446 446 438 424 453 426 435 461 450 436 435 413 436 452 464 428 492 452 390 429 428 438 474 454 463 448 472 453 428 463 437 448 423 434 436 421 434 427 451 378 424 413 428 385 422 439 381 413 437 441 413 413 438 426 428 423 393 440 415 420 385 438 401 422 437 380 421 388 409 365 432 379 398 381 389 442 420 423 401 429 422 407 418 385 388 407 367 417 414 419 428 397 388 419 408 408 411 415 420 415 404 408 411 402 391 426 393 378 406 391 424 413 405 369 411 383 421 405 396 407 381 429 403 390 413 432 382 388 406 412 408 411 388 399 373 411 397 408 358 367 369 423 381 395 402 395 381 374 408 374 376 391 400 370 366 386 426 401 335 380 348 373 418 389 400 374 403 360 418 402 391 387 392 380 414 382 376 347 368 388 364 408 395 379 415 387 405 372 383 391 371 424 363 385 347 379 391 382 395 401 416 415 422 406 346 429 393 388 392 396 389 376 364 388 428 393 401 384 350 382 372 404 413 390 397 411 376 363 386 373 396 367 370 384 396 382 398 387 345 427 381 410 350 402 392 410 373 389 359 389 373 366 417 399 338 384 357 366 364 403 393 378 329 366 393 370 386 422 393 372 377 373 414 358 395 383 399 416 397 395 387 421 361 359 403 371 379 364 360 408 386 361 386 384 377 417 410 393 415 378 394 360 376 350 354 383 392 398 351 383 348 396 420 382 398 428 369 401 404 363 383 390 380 426 369 396 435 366 375 400 385 437 360 399 379 433 410 366 379 384 381 387 373 412 356 370 391 381 387 426 369 403 423 392 384 385 399 409 396 399 414 419 424 408 403 403 372 434 377 403 362 398 376 397 426 405 432 377 386 393 395 423 402 380 401 409 424 396 381 407 416 381 353 404 382 420 430 445 422 401 384 361 406 427 391 447 444 431 413 432 429 409 399 460 420 431 471 472 465 501 458 448 433 447 464 493 513 480 473 460 501 562 521 513 540 522 528 562 562 562 527</counts>
			</dataPoints>
		</scan>
	</xrdMeasurement>
</xrdMeasurements>
