<?xml version="1.0"?>
<xrdMeasurements xmlns="http://www.xrdml.com/XRDMeasurement/2.3" xmlns:xsi="http://www.w3.org/2001/XMLSchema-instance" xsi:schemaLocation="http://www.xrdml.com/XRDMeasurement/2.3 http://www.xrdml.com/XRDMeasurement/2.3/XRDMeasurement.xsd" status="Completed" recordIdentifier="{D99D0400-34E8-4905-A585-85181F1F2F06}">
	<comment>
		<entry/>
	</comment>
	<sample type="To be analyzed">
		<id>GPSS_Li1p8Mn0p8Y0p2Cl4_111825_691cd5d8f3837ac4a0a99fd3</id>
		<name></name>
		<preparedBy></preparedBy>
	</sample>
	<xrdMeasurement measurementType="Scan" status="Completed" sampleMode="Reflection">
		<usedWavelength intended="K-Alpha 1">
			<kAlpha1 unit="Angstrom">1.5405980</kAlpha1>
			<kAlpha2 unit="Angstrom">1.5444260</kAlpha2>
			<kBeta unit="Angstrom">1.3922500</kBeta>
			<ratioKAlpha2KAlpha1>0.5000</ratioKAlpha2KAlpha1>
		</usedWavelength>
		<incidentBeamPath>
			<radius unit="mm">145.00</radius>
			<xRayTube id="1010048" name="Empyrean Cu LFF HR (9430 033 7310x)">
				<tension unit="kV">40.0</tension>
				<current unit="mA">15.0</current>
				<anodeMaterial>Cu</anodeMaterial>
				<focus type="Line">
					<length unit="mm">12.0</length>
					<width unit="mm">0.4</width>
					<takeOffAngle unit="deg">6.0</takeOffAngle>
				</focus>
			</xRayTube>
			<sollerSlit id="21010002" name="Soller slits 0.04 rad.">
				<opening unit="rad">0.0400</opening>
			</sollerSlit>
			<mask id="22031000" name="Fixed mask 13 mm">
				<width unit="mm">9.00</width>
			</mask>
			<divergenceSlit id="22120001" name="Divergence slit 1°" xsi:type="fixedDivergenceSlitType">
				<distanceToSample unit="mm">50.00</distanceToSample>
				<height unit="mm">1.52</height>
			</divergenceSlit>
		</incidentBeamPath>
		<sampleMovement xsi:type="spinningSampleMovementType">
			<spinnerRevolutionTime unit="seconds">1.0</spinnerRevolutionTime>
		</sampleMovement>
		<diffractedBeamPath>
			<radius unit="mm">145.00</radius>
			<antiScatterSlit id="22090040" name="AS slit 9 mm (PIXcel)" xsi:type="fixedAntiScatterSlitType">
				<height unit="mm">9.00</height>
			</antiScatterSlit>
			<sollerSlit id="21020003" name="Large Soller slits 0.04 rad.">
				<opening unit="rad">0.0400</opening>
			</sollerSlit>
			<filter id="20030001" name="Large beta-filter Nickel">
				<material>Ni</material>
				<thickness unit="mm">0.020</thickness>
			</filter>
			<detector id="7010019" name="PIXcel1D-Medipix3 detector" xsi:type="rtmsDetectorType">
				<phd unit="keV">
					<lowerLevel>4.02</lowerLevel>
					<upperLevel>11.27</upperLevel>
				</phd>
				<mode>Scanning</mode>
				<activeLength unit="deg">5.542</activeLength>
			</detector>
		</diffractedBeamPath>
		<scan appendNumber="0" mode="Continuous" scanAxis="Gonio" status="Completed">
			<header>
				<startTimeStamp>2025-11-21T19:43:16-08:00</startTimeStamp>
				<endTimeStamp>2025-11-21T19:51:23-08:00</endTimeStamp>
				<author>
					<name>AutomatedUser</name>
				</author>
				<source>
					<applicationSoftware version="1.7b (136)">PANalytical Aeris Instrument Suite</applicationSoftware>
					<instrumentControlSoftware version="3.2.00000000 20240306">AERIS</instrumentControlSoftware>
					<instrumentID>950485</instrumentID>
				</source>
			</header>
			<dataPoints>
				<positions axis="2Theta" unit="deg">
					<startPosition>10.00943322</startPosition>
					<endPosition>99.99442286</endPosition>
				</positions>
				<positions axis="Omega" unit="deg">
					<startPosition>5.00471661</startPosition>
					<endPosition>49.99721143</endPosition>
				</positions>
				<commonCountingTime unit="seconds">12.495</commonCountingTime>
				<counts unit="counts">2763 2681 2816 2707 2819 2670 2651 2719 2820 2702 2756 2755 2654 2782 2709 2763 2703 2738 2703 2811 2705 2691 2760 2728 2661 2683 2764 2841 2618 2774 2826 2685 2745 2810 2658 2733 2594 2770 2678 2639 2661 2722 2723 2787 2724 2800 2661 2825 2742 2721 2676 2767 2726 2606 2758 2785 2662 2702 2743 2740 2805 2775 2800 2799 2746 2670 2827 2627 2705 2752 2737 2730 2848 2706 2726 2812 2815 2812 2786 2694 2788 2780 2810 2705 2723 2798 2777 2785 2822 2849 2798 2707 2735 2759 2775 2748 2739 2850 2810 2833 2789 2736 2767 2814 2798 2725 2755 2696 2818 2806 2830 2873 2761 2897 2832 2845 2839 2749 2777 2692 2818 2767 2787 2812 2805 2777 2733 2755 2778 2744 2782 2770 2805 2852 2816 2839 2924 2778 2899 2857 2754 2811 2798 2785 2801 2759 2818 2824 2721 2894 2805 2783 2752 2726 2779 2779 2864 2824 2784 2885 2830 2768 2701 2719 2708 2757 2755 2853 2734 2818 2769 2769 2771 2882 2768 2841 2772 2735 2757 2823 2752 2768 2786 2757 2796 2798 2780 2659 2779 2749 2853 2708 2746 2643 2743 2729 2780 2693 2798 2756 2784 2758 2826 2760 2789 2796 2847 2798 2686 2792 2723 2683 2766 2688 2739 2757 2747 2744 2800 2676 2684 2836 2643 2793 2706 2828 2782 2737 2694 2690 2730 2758 2795 2799 2849 2762 2740 2729 2717 2710 2796 2764 2739 2759 2661 2727 2614 2796 2777 2723 2688 2725 2785 2731 2784 2714 2739 2768 2678 2763 2788 2745 2746 2658 2727 2753 2802 2758 2781 2749 2724 2773 2763 2725 2682 2765 2671 2692 2649 2745 2773 2764 2754 2782 2742 2835 2716 2769 2714 2795 2811 2715 2824 2807 2714 2797 2738 2849 2855 2750 2816 2711 2742 2759 2758 2768 2805 2784 2750 2779 2824 2841 2817 2845 2758 2921 2794 2840 2663 2790 2863 2882 2881 2958 2778 2842 2885 2953 2903 2853 2850 2821 2922 2826 2983 2894 2926 2852 2903 2884 2895 2972 3005 2912 2977 2907 2892 2951 2952 3007 2908 2951 3025 2985 2948 2999 2980 2969 2988 3082 2983 3060 3007 3130 3150 3096 3063 3128 3035 3196 3172 3117 3145 3139 3094 3086 3203 3083 3055 3167 3088 3204 3219 3205 3177 3246 3216 3353 3301 3322 3356 3234 3228 3270 3271 3415 3302 3316 3457 3441 3302 3473 3528 3495 3494 3507 3611 3545 3554 3537 3665 3755 3794 3825 3825 3905 4017 3889 4056 3925 3837 4007 4021 3923 4121 4243 4156 4068 4243 4324 4365 4394 4407 4332 4503 4657 4675 4777 4743 4759 4944 4806 4777 4702 4537 4513 4286 4157 4240 4181 4112 4120 4102 3940 3938 3957 3836 3971 3825 3829 3801 3886 3808 3715 3806 3854 3641 3772 3690 3579 3743 3731 3796 3690 3630 3524 3656 3525 3417 3514 3519 3485 3535 3529 3510 3448 3417 3363 3386 3466 3392 3391 3436 3460 3377 3326 3349 3420 3264 3410 3322 3394 3325 3240 3302 3334 3398 3331 3205 3271 3262 3396 3238 3302 3296 3234 3272 3192 3364 3253 3299 3407 3341 3252 3263 3327 3364 3328 3344 3144 3467 3282 3376 3380 3289 3245 3268 3328 3292 3303 3320 3364 3263 3326 3512 3376 3504 3355 3379 3402 3472 3518 3500 3472 3473 3334 3489 3330 3239 3292 3225 3333 3270 3196 3199 3247 3237 3199 3161 3209 3210 3281 3189 3246 3293 3169 3132 3101 3151 3145 3099 3123 3024 3062 3064 3091 3176 3048 3101 3068 3090 3090 3102 3090 3169 3097 3093 3186 3022 3127 2963 2987 2997 3073 2959 3098 3093 2956 3063 3050 2931 2946 3034 2923 2978 3056 3082 2959 2889 2936 2994 3006 2990 3075 3051 3007 2955 2989 2882 2916 2986 3086 2894 2955 2896 2951 2967 2959 2932 2933 2997 3013 2933 2964 2938 2994 2978 2882 2921 3025 2931 2964 2993 2888 2931 2986 2985 2841 2991 2941 2865 2975 2947 3033 2903 2934 2937 2933 3004 3031 2898 2963 2935 2954 2902 2932 3002 3050 2923 2982 2957 3100 2950 2973 2980 3019 3053 2964 3028 2978 3080 2957 3044 3022 3075 2967 2949 2971 2952 2975 3027 2978 2892 2902 2883 2969 2975 2921 2889 2919 2947 3020 2987 2968 2822 2848 2922 2935 2897 2904 2904 2892 2977 2992 2948 2932 2881 2907 2922 2796 2854 2897 2961 2857 2945 2892 2929 2879 2876 2891 2930 2887 3013 3014 2919 2926 2959 2911 2972 2814 2978 2913 2917 2955 2846 2907 2918 2965 2924 2881 2946 2821 2965 2881 2850 3040 2891 2841 2936 2934 2821 2904 2992 2806 2847 2862 2816 2822 2912 2819 2858 2876 2772 2780 2841 2869 2995 2899 2846 2916 2797 2787 2885 2881 2749 2855 2871 2829 2873 2803 2814 2896 2785 2774 2897 2814 2762 2754 2789 2835 2875 2800 2851 2834 2869 2783 2686 2883 2799 2709 2765 2717 2916 2791 2833 2788 2795 2861 2774 2806 2799 2786 2717 2673 2767 2761 2646 2660 2713 2744 2731 2760 2732 2713 2836 2661 2651 2821 2776 2690 2780 2743 2668 2615 2721 2675 2745 2800 2678 2778 2720 2747 2678 2783 2705 2764 2832 2673 2639 2832 2750 2779 2681 2682 2677 2667 2671 2663 2676 2799 2633 2661 2683 2690 2655 2645 2595 2733 2742 2722 2690 2657 2683 2598 2756 2611 2663 2719 2651 2773 2689 2741 2673 2631 2747 2616 2672 2737 2570 2639 2691 2644 2630 2631 2669 2627 2624 2673 2677 2534 2661 2643 2664 2617 2584 2617 2690 2615 2599 2688 2608 2604 2593 2693 2669 2635 2580 2645 2545 2591 2660 2663 2713 2620 2599 2580 2670 2522 2649 2609 2614 2545 2551 2643 2602 2575 2597 2526 2647 2607 2594 2660 2623 2573 2535 2555 2556 2516 2586 2519 2557 2611 2640 2646 2636 2539 2580 2553 2581 2614 2528 2593 2491 2612 2486 2459 2568 2554 2583 2621 2568 2603 2526 2551 2416 2583 2568 2622 2528 2663 2676 2560 2549 2640 2606 2674 2604 2588 2548 2664 2542 2560 2648 2528 2554 2548 2561 2555 2525 2493 2570 2590 2542 2473 2574 2583 2544 2618 2610 2570 2614 2705 2621 2609 2558 2551 2505 2481 2569 2621 2512 2586 2613 2494 2630 2689 2496 2626 2472 2624 2633 2643 2669 2647 2534 2576 2582 2671 2595 2579 2628 2615 2653 2673 2610 2608 2679 2617 2610 2641 2691 2684 2593 2623 2586 2557 2610 2630 2626 2600 2669 2568 2515 2674 2706 2597 2563 2621 2586 2688 2639 2645 2581 2589 2690 2612 2633 2703 2628 2572 2670 2726 2693 2686 2535 2518 2647 2590 2569 2602 2554 2622 2659 2636 2623 2588 2589 2657 2672 2601 2462 2526 2615 2534 2581 2512 2668 2490 2555 2615 2623 2661 2572 2622 2557 2671 2479 2629 2562 2501 2493 2608 2616 2612 2496 2524 2521 2543 2565 2480 2513 2563 2644 2600 2537 2478 2647 2506 2536 2629 2585 2472 2558 2502 2518 2460 2498 2565 2634 2515 2486 2519 2473 2493 2510 2498 2452 2363 2472 2557 2469 2370 2486 2603 2563 2578 2453 2447 2461 2492 2454 2464 2472 2527 2520 2437 2529 2396 2464 2457 2357 2399 2443 2484 2477 2403 2413 2538 2544 2460 2383 2367 2373 2376 2314 2440 2428 2487 2371 2472 2344 2425 2424 2277 2339 2319 2385 2333 2342 2274 2308 2267 2296 2263 2304 2335 2316 2276 2255 2305 2373 2349 2302 2355 2328 2385 2268 2360 2295 2256 2252 2274 2331 2178 2325 2268 2324 2264 2381 2246 2203 2376 2250 2284 2347 2237 2283 2276 2236 2310 2212 2282 2188 2241 2165 2192 2250 2127 2218 2253 2147 2148 2159 2186 2211 2226 2174 2023 2142 2158 2102 2070 2164 2110 2209 2249 2092 2081 2082 2154 2212 2062 2106 2169 2083 2101 2130 2009 2198 2190 2136 2135 2047 2153 2038 2134 2066 2057 1998 2091 2115 2103 2108 2047 2006 2110 2077 2104 2034 2035 2108 1952 1977 2107 2080 2109 1994 2078 2119 2002 2028 1991 2006 2017 2108 2058 1974 2046 1995 2089 2047 2140 1966 2016 1947 2062 1996 1979 2076 2046 2150 2109 2039 2095 2103 2090 2016 2034 1916 2023 2054 1976 1983 2006 2056 2043 2012 2010 2030 1966 2083 2044 2021 1953 1982 2082 2023 1986 1992 2010 2011 1985 1966 2042 1977 2075 2055 1989 2002 2021 1938 2002 2083 2098 2034 2040 2051 2019 2059 2046 1994 1917 2014 2028 1987 2043 2026 1946 2071 2039 2054 2012 1998 1927 2010 2005 1982 1985 2058 2083 2024 1999 2058 1943 2004 2008 1986 2010 1980 2047 2080 2048 1990 2029 2015 2015 2041 1937 2047 2063 2034 2040 2013 2009 2004 2024 1989 1989 1991 1994 2007 2016 2066 2081 2016 2009 1917 2003 1974 1982 2088 2070 2009 2044 2030 1939 2035 2084 2015 2052 2024 2019 2068 2021 2055 2054 1925 2098 1965 1939 2107 2030 2065 2032 2137 1988 2100 1984 2034 2089 2008 2063 1956 2035 2017 2002 2057 2050 1984 1917 2055 2056 2003 2051 1992 1875 2002 1940 1999 1969 2063 2020 2051 2009 2116 1967 1999 2100 2013 2026 2024 2022 1981 2058 2010 2031 2065 2025 1985 1939 1985 1931 1950 1976 2004 1985 1986 2006 2052 1938 1952 1949 1984 1973 1922 2029 2024 1936 1971 1948 1921 1912 1915 1910 1940 1853 1962 1942 1894 1943 1923 1859 1931 1845 1909 2005 1954 1963 1914 1952 1878 1954 1902 1914 1963 1936 1873 1926 1859 1985 1876 1887 1793 1847 1853 1874 1910 1881 1855 1931 1891 1880 1844 1809 1943 1877 1838 1937 1838 1869 1882 1841 1821 1822 1930 1831 1936 1859 1912 1806 1878 1857 1910 1836 1902 1901 1815 1814 1820 1826 1944 1823 1900 1830 1803 1868 1806 1884 1759 1881 1828 1908 1783 1897 1830 1903 1941 1845 1899 1872 1863 1921 1906 2006 1985 1967 2042 2107 2040 2155 2140 2212 2119 2206 2208 2104 2151 2223 2221 2261 2260 2332 2384 2393 2389 2434 2489 2580 2524 2602 2601 2752 2625 2766 2818 2827 2834 2810 2778 2642 2631 2506 2484 2441 2339 2271 2194 2077 2112 2057 2125 2067 2030 2013 2015 1978 1895 1988 2017 2042 1938 1911 1924 1872 1925 1948 1930 1889 1880 1854 1867 1953 1855 1839 1848 1681 1774 1760 1821 1794 1766 1773 1729 1870 1759 1742 1699 1749 1791 1729 1718 1705 1742 1687 1714 1747 1655 1728 1654 1738 1700 1747 1690 1604 1734 1775 1757 1730 1759 1686 1811 1751 1730 1718 1790 1785 1822 1829 1808 1871 1989 2061 2037 2047 2196 2291 2244 2315 2512 2423 2423 2594 2720 2525 2743 2696 2739 2790 2761 2770 2822 2948 3005 3036 3278 3385 3454 3500 3579 3696 3808 3848 3933 3811 3944 3773 3756 3646 3392 3363 3320 3129 2930 2763 2802 2611 2628 2440 2364 2275 2305 2153 2179 2153 2121 2009 2031 2077 2060 2037 2094 2074 2037 1956 1991 1987 1997 1966 1889 1902 1915 1851 1809 1868 1798 1712 1831 1760 1769 1724 1730 1732 1652 1621 1621 1628 1593 1649 1631 1623 1650 1630 1570 1663 1509 1586 1548 1594 1609 1657 1643 1554 1552 1512 1587 1555 1586 1543 1498 1522 1550 1533 1560 1520 1540 1504 1585 1424 1449 1503 1518 1551 1531 1580 1545 1487 1531 1594 1474 1483 1492 1489 1483 1474 1531 1499 1574 1516 1505 1454 1494 1509 1486 1521 1509 1479 1477 1440 1463 1548 1516 1534 1415 1523 1455 1491 1464 1492 1458 1489 1481 1489 1492 1518 1521 1505 1466 1536 1488 1460 1508 1581 1510 1443 1532 1532 1521 1472 1474 1510 1497 1557 1535 1619 1691 1688 1656 1740 1705 1713 1730 1789 1778 1872 1851 1949 1809 1915 1982 1980 2011 2006 2118 2168 2166 2302 2298 2404 2509 2591 2649 2702 2643 2740 2627 2641 2715 2669 2559 2608 2530 2303 2250 2233 2178 2061 1978 1832 1913 1942 1781 1811 1744 1665 1663 1687 1619 1664 1627 1694 1623 1680 1710 1561 1636 1585 1543 1565 1618 1648 1585 1549 1553 1522 1582 1560 1647 1503 1569 1589 1608 1550 1544 1527 1572 1531 1487 1477 1565 1511 1531 1498 1487 1563 1501 1500 1488 1419 1391 1433 1425 1450 1432 1425 1459 1389 1380 1346 1413 1410 1455 1427 1348 1400 1343 1347 1403 1403 1281 1405 1359 1382 1446 1378 1292 1375 1341 1414 1343 1418 1339 1376 1349 1346 1316 1359 1345 1371 1380 1284 1385 1368 1427 1422 1319 1344 1373 1290 1332 1380 1384 1311 1269 1402 1317 1371 1369 1386 1379 1255 1423 1378 1422 1320 1351 1381 1351 1359 1366 1432 1363 1436 1403 1410 1407 1397 1440 1401 1376 1412 1370 1391 1342 1421 1408 1456 1454 1499 1361 1431 1373 1432 1411 1436 1399 1369 1424 1376 1465 1458 1348 1359 1401 1434 1466 1422 1449 1381 1429 1369 1462 1390 1419 1412 1489 1484 1487 1481 1510 1440 1419 1549 1582 1523 1500 1550 1549 1586 1549 1526 1596 1705 1597 1646 1694 1666 1760 1794 1784 1858 1817 1881 2048 2051 2079 2091 2209 2152 2276 2417 2548 2742 2932 3236 3275 3651 3738 3837 4127 4241 4279 4427 4494 4703 4728 4660 4800 4923 4996 5160 5373 5600 5707 5945 6213 6565 6704 7268 7670 7959 8100 8312 8078 8159 8330 8209 7790 7535 7337 7071 6557 6129 5863 5429 5158 4630 4462 4238 3864 3782 3493 3416 3244 3139 3089 2929 2995 2803 2830 2635 2809 2606 2611 2531 2471 2478 2401 2448 2316 2288 2187 2177 2074 2032 2031 1916 1916 1835 1907 1825 1814 1714 1681 1703 1506 1600 1667 1538 1539 1503 1529 1420 1521 1457 1450 1429 1410 1493 1373 1424 1424 1428 1397 1408 1414 1458 1323 1411 1379 1431 1364 1373 1403 1422 1386 1369 1359 1455 1331 1335 1287 1362 1376 1409 1350 1391 1394 1347 1385 1350 1338 1294 1363 1340 1324 1408 1314 1287 1272 1336 1320 1300 1388 1314 1348 1338 1314 1296 1323 1288 1305 1318 1281 1365 1316 1395 1337 1288 1337 1272 1270 1354 1355 1279 1338 1278 1278 1370 1338 1310 1333 1273 1309 1199 1326 1337 1337 1283 1314 1228 1242 1275 1356 1316 1236 1314 1232 1301 1311 1300 1236 1309 1359 1226 1325 1337 1344 1277 1314 1275 1278 1346 1278 1388 1306 1208 1340 1285 1326 1308 1292 1301 1312 1291 1269 1283 1270 1279 1224 1351 1253 1300 1291 1317 1298 1236 1372 1271 1261 1313 1299 1288 1328 1276 1291 1290 1274 1282 1229 1338 1350 1295 1365 1285 1353 1274 1298 1310 1331 1338 1308 1374 1287 1335 1276 1338 1249 1323 1260 1343 1301 1285 1282 1279 1233 1289 1269 1278 1312 1290 1376 1355 1244 1292 1294 1241 1279 1273 1241 1209 1254 1276 1266 1274 1246 1266 1277 1301 1325 1283 1261 1224 1331 1258 1280 1250 1346 1226 1230 1186 1251 1301 1232 1287 1289 1267 1267 1258 1298 1305 1311 1286 1352 1288 1246 1276 1298 1329 1318 1353 1285 1358 1256 1323 1358 1330 1363 1367 1328 1238 1196 1296 1309 1328 1266 1235 1261 1210 1303 1267 1235 1173 1240 1257 1172 1233 1172 1221 1213 1260 1253 1260 1191 1211 1281 1206 1268 1274 1247 1166 1262 1215 1201 1191 1182 1224 1187 1250 1209 1262 1196 1199 1230 1266 1204 1231 1171 1183 1188 1229 1198 1110 1171 1141 1164 1192 1246 1149 1153 1173 1212 1193 1240 1226 1119 1186 1179 1192 1211 1197 1169 1189 1184 1180 1162 1166 1196 1221 1214 1268 1218 1142 1188 1176 1254 1180 1214 1172 1162 1129 1253 1149 1233 1252 1226 1178 1138 1119 1212 1210 1189 1182 1164 1223 1143 1229 1212 1219 1144 1161 1205 1162 1170 1110 1180 1221 1173 1135 1203 1202 1163 1168 1225 1193 1189 1174 1155 1172 1131 1128 1134 1212 1142 1176 1203 1141 1183 1151 1187 1107 1229 1198 1189 1210 1216 1234 1120 1153 1156 1233 1143 1165 1156 1292 1158 1205 1177 1186 1178 1183 1137 1133 1111 1200 1093 1182 1134 1225 1218 1169 1124 1172 1179 1113 1180 1152 1121 1163 1170 1094 1184 1156 1155 1124 1106 1166 1180 1158 1067 1147 1195 1145 1159 1156 1115 1100 1154 1127 1183 1205 1164 1177 1167 1199 1158 1131 1152 1097 1097 1146 1192 1095 1131 1150 1177 1175 1119 1138 1096 1205 1138 1175 1215 1151 1121 1139 1167 1136 1155 1172 1126 1209 1132 1135 1124 1203 1134 1148 1102 1156 1118 1147 1172 1149 1153 1199 1130 1180 1160 1127 1209 1146 1196 1108 1098 1131 1182 1153 1100 1148 1159 1155 1188 1137 1164 1166 1175 1187 1123 1150 1205 1107 1180 1177 1139 1181 1116 1133 1152 1154 1159 1088 1115 1182 1181 1205 1184 1173 1104 1181 1191 1158 1204 1164 1194 1164 1285 1222 1256 1181 1228 1255 1246 1335 1276 1338 1305 1346 1354 1378 1414 1343 1414 1434 1490 1440 1541 1456 1494 1577 1559 1632 1704 1680 1733 1728 1753 1776 1810 1899 1829 1869 1851 1787 1850 1723 1795 1768 1669 1743 1629 1605 1493 1508 1509 1462 1497 1442 1405 1405 1347 1403 1364 1296 1272 1348 1281 1280 1319 1294 1270 1260 1225 1240 1278 1221 1216 1268 1246 1200 1141 1237 1221 1181 1226 1170 1117 1170 1243 1130 1127 1138 1169 1082 1190 1143 1148 1145 1147 1084 1091 1146 1156 1212 1214 1173 1142 1120 1119 1131 1066 1127 1123 1102 1059 1126 1119 1111 1157 1099 1158 1192 1196 1117 1127 1106 1087 1095 1185 1032 1136 1096 1121 1126 1173 1086 1196 1124 1203 1148 1084 1160 1198 1088 1120 1151 1112 1123 1149 1147 1135 1128 1111 1142 1142 1173 1119 1091 1171 1127 1148 1164 1197 1154 1176 1150 1154 1115 1114 1176 1066 1164 1065 1110 1207 1153 1136 1169 1151 1177 1231 1131 1080 1149 1144 1153 1203 1182 1207 1164 1254 1085 1190 1187 1193 1206 1178 1157 1223 1199 1205 1210 1216 1227 1256 1233 1198 1201 1240 1163 1209 1134 1184 1201 1172 1153 1189 1153 1162 1099 1128 1136 1110 1153 1155 1118 1171 1097 1177 1176 1137 1112 1188 1190 1153 1175 1201 1175 1137 1113 1176 1078 1127 1127 1172 1130 1134 1179 1138 1158 1127 1078 1091 1111 1161 1071 1209 1191 1201 1174 1172 1161 1133 1154 1188 1148 1187 1141 1188 1132 1186 1148 1155 1089 1140 1128 1063 1079 1139 1137 1116 1130 1096 1060 1104 1136 1077 1116 1078 1098 1146 1157 1135 1220 1098 1112 1163 1097 1065 1154 1149 1129 1131 1163 1133 1118 1180 1067 1141 1169 1162 1111 1141 1084 1189 1160 1177 1212 1139 1165 1067 1223 1159 1185 1091 1156 1180 1170 1210 1221 1168 1183 1183 1176 1165 1147 1136 1216 1170 1243 1202 1259 1173 1116 1288 1211 1216 1127 1203 1159 1141 1160 1236 1141 1129 1196 1149 1219 1220 1159 1219 1238 1178 1273 1222 1278 1248 1301 1269 1373 1346 1397 1485 1433 1438 1385 1415 1453 1461 1459 1449 1496 1555 1547 1595 1640 1739 1786 1797 1772 1767 1817 1759 1773 1822 1746 1791 1741 1791 1689 1752 1694 1692 1619 1539 1515 1584 1497 1466 1416 1438 1369 1383 1320 1335 1301 1321 1273 1298 1258 1229 1222 1243 1240 1241 1191 1198 1241 1209 1214 1220 1145 1180 1247 1240 1108 1150 1199 1153 1128 1131 1175 1128 1096 1130 1134 1140 1145 1120 1114 1102 1132 1098 1147 1090 1098 1102 1131 1025 1097 1150 992 1124 1063 1043 1133 1079 1109 1076 1099 1032 1037 1055 1068 1046 1078 1125 1062 1121 1089 1067 1081 1049 1077 1090 1078 1120 1104 1122 1112 1118 1111 1191 1125 1012 998 1130 1048 1085 1092 1117 1079 1125 1059 1107 1117 1029 1093 1067 1162 1062 1153 1030 1072 1043 1098 1066 1090 1132 1104 1116 1097 1072 1105 1064 1034 1097 1066 1048 1054 1044 1052 1118 1049 1116 1081 1045 1123 1028 1111 1094 1103 1101 1036 1024 1129 1057 1099 1072 1058 1123 1094 1070 1095 1032 1090 1061 1033 1056 1081 1095 1053 1045 1078 1043 1024 1107 1107 1132 1063 1079 1123 1058 1074 1008 1085 1024 1051 1083 1080 1022 1089 1057 1050 1117 1098 1026 1012 1115 1075 1095 1052 1049 1063 1049 994 1050 1036 1086 1097 1137 1101 1040 1106 1045 1130 1136 1097 1070 1044 1104 1001 1153 1053 1073 1126 1045 1133 1169 1078 1083 1054 1178 1050 1062 1058 1132 1097 1081 1062 1122 1113 1105 1140 1112 1086 1131 1093 1078 1092 1118 1060 1083 1067 1135 1088 1091 1050 1084 1089 1055 1139 1101 1042 1129 1138 1127 1078 1168 1141 1127 1071 1158 1090 1107 1106 1132 1143 1109 1087 1171 1077 1063 1080 1161 1091 1193 1116 1152 1134 1086 1087 1142 1115 1181 1126 1215 1168 1106 1153 1156 1195 1154 1267 1142 1178 1216 1195 1166 1152 1225 1185 1157 1191 1191 1202 1151 1201 1172 1224 1154 1180 1156 1229 1164 1174 1161 1260 1135 1243 1262 1234 1217 1214 1245 1237 1205 1202 1288 1299 1241 1295 1273 1224 1299 1377 1363 1356 1410 1342 1416 1515 1535 1422 1483 1679 1669 1651 1749 1824 1872 1999 2184 2317 2455 2630 2797 2962 3140 3271 3375 3248 3289 3354 3338 3422 3443 3634 3804 3800 4036 4066 4231 4280 4544 4611 4800 4918 4897 5047 5106 5044 4960 4947 4824 4501 4511 4327 4175 4077 3807 3678 3671 3488 3255 3227 3115 2911 2793 2578 2426 2420 2344 2169 2117 1941 1946 1894 1857 1902 1783 1687 1789 1702 1615 1684 1619 1610 1534 1467 1493 1554 1457 1378 1412 1354 1356 1370 1344 1279 1211 1255 1243 1246 1186 1166 1156 1125 1157 1133 1105 1221 1221 1129 1153 1039 1138 1066 1103 1105 1147 1101 1140 1138 1091 1120 1163 1021 1136 1052 1112 1084 1072 1098 1133 1089 1112 1122 1084 1178 1204 1104 1089 1140 1114 1085 1117 1027 1046 1057 1101 1062 1121 1080 1116 1065 1060 1079 1128 1127 1101 1039 1021 1135 1118 1083 1110 1095 1061 1068 1116 1097 1108 1068 1026 1089 1086 1077 1084 1068 1021 1056 1086 1058 1083 1089 1069 1049 1086 1008 1053 1009 1114 1107 1038 1083 1090 1079 1027 1080 1063 1083 1059 1092 1087 1071 958 1089 1022 1032 1035 1103 1052 1010 1116 1119 1052 1056 1063 1065 1099 1065 1102 1024 1112 1041 1052 1030 1080 1078 1031 1057 1068 1079 1074 1046 1010 1055 1040 1174 1019 1166 1114 1099 1147 1151 1175 1138 1131 1210 1245 1226 1193 1186 1291 1316 1233 1214 1271 1261 1293 1351 1289 1362 1366 1431 1375 1406 1352 1422 1412 1403 1388 1458 1404 1428 1369 1360 1354 1328 1280 1291 1357 1320 1264 1233 1245 1201 1276 1236 1200 1141 1171 1173 1154 1154 1106 1120 1091 1085 1186 1091 1121 1083 1131 1086 1095 1156 1155 1108 1024 1035 1118 1049 1107 1107 1114 1053 1084 1017 1061 1025 1100 1072 1049 1080 1047 1032 1033 1116 1027 1061 1022 1041 1051 1045 1089 1010 1046 1034 1039 1031 1065 1044 1023 1049 1057 1051 1018 979 999 1072 997 1026 1046 1032 958 1052 990 1040 1025 1045 1061 1043 961 1025 1054 1015 1076 1003 1038 974 1124 1043 1043 1055 1045 1056 968 1067 1028 986 1018 952 1049 1011 1087 1006 1057 1015 1062 1038 1035 1069 1044 1067 1115 1022 1068 989 1112 1066 1080 1057 1062 1039 1098 1036 977 1082 1057 1137 1051 1050 1076 1127 1069 1072 1081 962 1007 1029 975 998 1071 1008 995 1057 989 1025 1039 1004 1035 991 1016 1017 1017 986 1066 992 1003 1025 1016 987 972 1059 1020 1037 1043 1009 1069 994 1073 1029 981 1023 1026 1046 1015 974 1020 1048 1039 1078 1039 1076 1074 1016 1031 1098 1038 1096 1063 1110 1119 1108 1105 1103 1100 1106 1146 1123 1079 1083 1139 1171 1118 1159 1094 1066 1132 1094 1063 1054 1158 1075 1127 1103 1089 1071 1056 1017 1077 1079 1083 1068 980 1055 1047 1042 1054 1026 1023 1010 1084 1003 1009 939 964 989 931 980 970 1055 961 1015 961 963 999 1014 973 1037 977 963 1008 927 979 944 926 922 983 911 972 991 1028 971 960 959 955 955 953 955 980 894 940 1005 947 999 983 1030 1022 984 960 940 940 957 977 968 982 974 933 927 1007 935 946 966 988 952 937 977 931 975 951 926 965 976 1018 920 962 941 985 996 1028 994 981 982 972 988 1003 1055 1003 985 991 902 877 975 930 987 974 969 943 975 1003 1001 958 1025 949 935 988 967 920 945 949 961 954 988 994 983 1000 929 973 907 960 1008 992 963 1005 951 978 985 1026 979 924 894 943 1002 929 968 934 952 947 1003 914 915 912 982 1015 974 940 948 952 991 971 1009 938 945 943 987 982 945 944 946 955 937 966 1002 937 917 1001 964 898 938 916 926 971 941 1008 912 899 933 973 940 981 918 1005 952 991 955 987 956 982 960 974 995 938 915 971 914 918 915 928 904 950 929 946 916 922 976 960 963 902 982 977 952 893 1017 966 907 998 956 962 948 962 939 969 910 960 909 990 935 961 925 970 937 1007 921 991 988 956 955 992 913 997 940 916 936 996 949 1019 967 1003 904 971 933 958 968 956 930 998 942 985 936 937 961 937 976 986 981 955 924 969 951 996 978 984 972 941 988 959 953 1025 978 960 968 982 972 1043 981 983 1005 1016 974 980 994 988 991 1019 1004 985 936 990 1047 980 928 1002 971 1062 1004 1017 1034 986 1036 1075 1024 1013 1036 1017 1047 1031 1027 1083 1128 1055 1014 1077 1018 1050 986 998 981 1025 979 1026 1004 997 1060 975 1052 1022 1033 1032 1007 953 997 979 1027 975 1033 1006 1030 1033 1086 1016 989 1002 1026 1036 1140 1029 1100 1098 1111 1093 1093 1154 1180 1250 1218 1204 1238 1241 1221 1255 1283 1284 1347 1324 1321 1392 1405 1420 1476 1418 1449 1386 1475 1487 1436 1376 1404 1361 1336 1368 1260 1345 1310 1306 1243 1237 1233 1284 1156 1156 1244 1215 1121 1108 1154 1153 1120 1121 1104 1120 1046 1059 1046 987 1053 1039 1026 1043 1000 975 999 1015 1058 1017 1001 1027 929 970 1042 1000 933 930 1005 1015 954 982 1019 922 942 954 936 1038 993 975 958 1005 970 1032 996 966 1001 965 996 985 1008 1014 961 945 993 1003 1036 1071 1083 1032 1043 1055 1071 1037 1083 996 1024 1087 1058 1092 1128 1069 1066 1072 1077 986 1095 1047 1074 1041 1068 1053 1037 1015 992 1012 1132 1007 1010 987 1063 1006 1020 991 1025 986 997 990 1012 992 995 1003 977 1056 997 1027 995 1051 971 974 908 1006 981 955 1016 1008 988 986 965 976 998 961 974 968 1034 984 984 976 995 996 963 982 995 943 920 975 961 1012 976 948 988 1007 928 955 949 953 984 1000 930 958 967 977 929 916 930 938 959 917 963 962 959 913 1025 965 959 946 967 908 941 938 912 996 959 966 953 931 965 938 968 941 955 951 968 963 997 950 989 905 938 935 971 940 1006 942 1040 1025 975 942 980 1095 939 1009 975 973 969 977 1018 1009 1033 1044 1071 1053 1089 1095 1133 1179 1271 1192 1283 1318 1296 1380 1444 1465 1455 1525 1474 1545 1445 1565 1596 1544 1646 1695 1694 1775 1827 1845 1878 1847 1982 1838 1972 1817 1764 1689 1664 1686 1641 1554 1521 1567 1490 1536 1596 1484 1464 1500 1426 1475 1437 1317 1299 1235 1288 1228 1227 1130 1155 1157 1200 1158 1218 1115 1097 1127 1105 1072 1047 1128 1069 1084 1046 1139 985 1071 1040 1120 1036 1003 1005 1019 1009 1021 973 978 1016 1014 964 1013 1034 1004 1046 973 988 982 948 953 967 958 974 955 937 898 985 966 951 927 970 956 919 884 953 995 961 951 911 950 932 944 920 888 933 912 894 1004 907 879 910 892 941 924 931 879 881 926 902 917 895 894 975 910 932 930 957 992 914 888 918 973 952 937 950 951 908 918 944 949 968 887 930 903 941 955 953 931 934 964 941 992 900 984 931 891 930 900 946 930 927 869 941 892 914 926 978 981 934 895 994 936 888 978 956 932 951 954 917 1003 956 942 943 1044 1040 988 1067 1041 987 1005 1048 1027 1040 1026 1092 1050 1080 1117 1049 1125 1127 1152 1158 1199 1170 1192 1091 1164 1126 1119 1097 1065 1062 1077 1094 1019 1015 1040 1108 1025 1031 1013 1076 985 1004 1019 1062 954 1028 1013 993 911 936 892 946 1009 979 945 963 931 927 894 963 921 920 888 888 928 899 903 836 849 910 921 928 876 904 877 951 925 876 878 955 925 924 885 925 932 942 901 964 920 910 954 940 902 878 886 915 906 870 1014 953 905 896 880 906 910 972 946 946 936 889 891 916 938 943 913 908 888 893 918 885 852 916 885 887 892 904 921 880 864 942 925 861 957 866 872 911 881 944 885 857 881 892 854 941 882 941 878 815 842 902 941 895 940 892 948 942 846 894 910 946 897 970 958 896 919 856 879 931 897 953 925 924 898 878 884 908 890 900 838 915 900 880 950 938 932 922 919 909 940 952 932 920 833 876 901 914 931 878 920 932 939 922 908 893 921 900 881 873 903 942 864 943 926 962 961 954 908 860 924 935 991 889 945 938 920 1001 926 1016 964 957 968 919 920 1030 968 990 958 966 1073 932 971 1027 996 959 955 998 978 978 1005 977 1012 989 965 1002 931 952 998 970 943 929 945 970 966 915 951 972 898 956 958 934 880 909 944 892 909 885 912 890 894 843 903 894 915 901 954 900 912 900 891 851 900 829 878 895 881 905 927 856 845 885 882 921 918 873 954 794 891 931 832 869 907 918 850 950 834 924 852 911 875 910 862 912 894 932 968 902 884 856 835 854 971 921 879 900 894 847 917 895 892 911 868 919 870 941 955 858 905 923 878 899 852 912 868 881 889 886 903 868 880 866 870 910 838 893 923 842 832 902 933 888 926 823 896 900 939 846 905 847 869 885 909 830 903 835 894 876 905 844 899 896 887 847 931 920 900 952 854 841 925 903 855 878 917 844 923 892 912 893 884 902 921 882 898 904 870 847 843 871 915 870 850 919 899 875 860 886 904 873 874 926 900 873 911 869 939 875 871 922 889 933 898 922 968 877 915 899 877 911 920 875 926 910 904 918 909 950 862 914 929 859 925 936 936 939 902 930 887 933 918 937 886 903 946 966 878 921 874 948 894 893 884 856 961 858 923 944 895 925 872 904 931 863 883 880 922 913 993 917 921 912 938 946 945 1005 936 953 1024 1010 977 1038 962 1013 988 1015 1012 961 1037 1047 992 1078 1032 1006 1007 1056 986 995 987 1051 959 900 953 955 971 1055 880 908 950 945 987 960 931 936 951 877 906 914 909 919 873 928 914 908 934 874 926 912 912 837 891 873 904 881 892 842 871 912 899 826 901 840 913 895 907 799 886 892 854 851 869 895 811 832 886 952 840 864 837 874 839 925 847 797 877 915 873 849 854 844 879 921 928 938 899 896 834 906 847 841 885 845 888 912 904 860 936 870 829 872 849 910 882 861 918 852 881 841 868 856 887 826 846 855 858 852 829 849 909 813 921 839 913 860 894 855 870 916 857 860 850 845 845 801 843 820 843 881 909 868 843 873 876 896 919 839 858 888 849 906 949 887 841 897 882 818 874 874 898 860 890 896 845 849 922 879 868 871 861 836 838 900 852 851 874 919 905 835 879 809 832 876 907 867 896 894 931 860 883 857 859 879 859 875 889 905 902 876 861 870 912 888 905 896 876 877 879 891 899 879 862 840 823 848 855 865 844 882 867 857 846 897 853 868 896 869 847 887 896 861 854 910 895 886 955 907 893 865 880 902 901 894 895 954 874 888 927 857 879 896 957 889 884 896 904 855 917 844 908 861 892 850 895 926 931 855 859 921 925 960 936 922 982 1000 953 994 968 986 987 1055 997 1066 1099 1085 1163 1158 1119 1138 1152 1192 1156 1162 1168 1227 1229 1204 1183 1233 1216 1192 1185 1261 1213 1231 1222 1190 1155 1180 1231 1157 1142 1085 1136 1157 1132 1102 1139 1112 1032 1115 1092 1105 1125 1064 1078 1045 1033 1022 962 980 975 933 997 986 1000 915 940 980 969 916 884 843 926 924 958 907 847 895 896 828 884 932 893 860 842 850 885 846 856 866 888 909 884 930 876 813 877 868 877 929 887 917 881 892 833 853 879 845 845 842 847 843 860 893 961 863 868 846 862 764 826 838 804 839 878 891 831 870 827 841 833 881 903 862 863 885 847 861 888 919 940 961 884 904 853 825 889 835 912 857 900 857 865 836 847 807 883 869 896 877 895 868 840 858 848 829 888 845 905 882 822 893 926 824 835 898 845 858 865 817 916 886 855 934 886 880 828 867 869 855 899 830 817 806 869 856 882 873 841 883 867 884 873 883 802 915 862 814 875 847 857 846 836 903 845 874 933 878 881 959 914 854 869 895 844 896 861 850 872 865 850 930 930 858 842 891 849 899 899 885 949 797 914 866 852 854 872 887 871 862 829 865 892 886 843 860 832 838 895 887 838 868 922 829 816 898 841 870 856 847 846 863 879 884 828 820 886 817 889 827 844 858 841 871 844 842 903 839 894 826 849 879 894 876 859 847 796 902 927 882 876 890 874 891 887 867 878 850 876 898 849 866 908 831 838 862 874 855 836 871 862 959 851 880 826 856 857 853 885 868 820 900 845 808 829 873 889 877 899 847 842 852 873 858 842 815 914 882 971 880 914 943 827 921 854 907 874 901 929 817 910 848 917 910 952 819 894 862 896 874 863 922 912 875 863 873 869 844 832 915 880 880 866 888 884 893 886 847 884 881 896 929 852 867 844 856 865 881 860 829 857 859 843 844 804 844 849 810 847 839 871 852 832 841 873 845 844 866 840 919 824 906 852 901 920 867 904 878 885 845 820 856 897 877 811 919 895 896 884 833 872 853 871 915 775 918 897 874 812 867 850 830 860 882 834 862 797 838 842 798 850 848 867 800 860 842 808 848 859 892 830 895 856 831 844 848 866 866 882 825 872 826 829 864 860 827 852 821 834 889 904 836 879 862 849 856 879 856 862 846 858 842 828 858 839 834 862 836 858 803 842 839 878 781 866 829 826 859 856 847 833 849 817 912 900 920 835 830 817 875 889 861 858 841 836 816 870 835 867 861 845 903 817 834 883 840 830 848 831 864 869 916 889 884 867 949 824 889 799 846 895 891 893 823 860 905 908 842 861 882 888 845 864 845 860 877 912 901 865 899 799 915 834 938 854 897 882 866 867 889 905 929 890 868 877 901 840 832 871 888 900 886 864 859 838 928 882 854 868 801 815 924 867 847 882 839 870 868 833 815 878 850 882 875 852 862 889 922 873 916 858 875 806 881 850 905 866 883 869 890 894 883 839 879 862 859 892 893 831 908 884 900 892 887 869 912 854 958 987 961 949 978 947 963 933 948 917 992 916 985 956 929 969 1008 992 1015 1005 974 1012 1031 942 986 917 965 933 940 942 938 967 920 958 949 964 958 932 970 982 880 912 936 972 975 980 874 946 951 938 896 955 928 932 921 960 918 942 922 972 989 914 969 976 942 1059 994 1004 1033 1020 989 977 991 983 990 1043 1039 1036 989 1032 963 1025 1032 948 935 959 988 995 977 972 919 967 983 959 964 1022 940 992 969 898 919 929 909 941 856 917 899 990 943 894 907 913 898 907 916 888 920 909 889 962 930 966 914 882 937 934 963 944 926 964 907 905 932 990 889 941 944 885 976 974 952 893 951 978 879 941 949 953 903 941 899 938 976 852 905 866 983 886 932 927 943 926 930 911 881 941 901 883 906 865 900 875 916 873 897 893 883 973 908 885 880 894 951 858 888 962 815 894 874 877 889 904 865 872 890 912 866 908 906 893 861 872 926 873 880 885 887 876 915 868 925 895 948 923 809 917 886 871 893 946 920 957 892 903 864 892 935 899 900 893 900 858 896 922 892 884 871 855 926 892 928 878 910 908 855 971 814 872 924 939 935 937 953 881 869 908 968 912 930 1006 932 941 972 979 936 958 918 949 977 916 969 1002 1035 1042 1063 1057 1091 1044 1061 1127 1172 1134 1183 1224 1203 1256 1331 1270 1370 1360 1408 1428 1409 1451 1488 1534 1460 1581 1587 1560 1604 1570 1720 1722 1630 1615 1680 1575 1568 1648 1591 1515 1459 1533 1491 1496 1491 1468 1504 1431 1379 1446 1390 1404 1393 1420 1410 1403 1304 1332 1333 1264 1332 1298 1126 1169 1151 1178 1193 1089 1040 1113 1079 1100 1054 1082 1087 996 970 1031 946 1042 963 937 970 945 940 908 963 924 956 935 932 963 925 918 981 885 924 905 941 900 934 923 890 912 932 876 975 881 958 853 930 901 888 909 936 873 898 872 923 920 904 863 912 870 952 906 942 909 921 859 857 842 896 847 886 949 853 902 903 848 894 901 893 886 888 876 875 902 885 854 933 907 891 836 883 886 845 870 892 901 873 891 876 878 870 851 888 865 900 820 874 933 910 878 850 882 851 855 916 921 904 934 864 941 907 905 965 945 926 892 880 929 947 903 935 892 898 925 910 945 931 888 913 882 924 951 949 932 971 928 899 982 982 937 963 916 916 982 977 901 934 918 921 890 947 922 913 891 906 889 915 955 920 838 863 895 883 872 846 895 945 940 918 875 873 866 902 931 894 904 803 843 836 936 770 856 889 853 879 873 858 837 882 849 858 843 882 918 877 840 922 861 868 802 813 828 863 813 859 856 854 801 852 852 877 932 879 793 833 852 885 858 876 852 890 843 846 856 829 889 838 919 844 859 844 875 822 866 877 828 859 931 861 851 857 893 856 846 897 855 873 843 793 803 892 877 861 862 833 816 857 867 846 911 874 897 831 891 847 861 877 833 841 857 894 868 827 929 879 890 874 930 799 900 834 833 860 873 843 918 864 861 787 879 874 894 910 920 896 892 883 864 915 903 920 826 967 901 948 898 894 890 911 961 919 905 858 902 882 899 911 930 925 935 911 887 987 918 870 895 907 883 978 891 915 885 895 943 918 946 880 929 920 924 862 927 912 896 816 930 850 882 878 931 926 897 904 896 863 946 847 882 896 925 850 833 850 874 866 848 852 824 908 820 886 899 891 895 847 924 824 862 866 798 825 857 865 872 878 894 894 891 902 840 830 882 958 865 774 848 826 878 807 880 808 849 816 812 904 775 859 878 770 912 841 814 846 839 811 888 858 810 881 860 891 817 848 859 842 814 845 851 871 853 818 860 889 858 856 866 843 861 846 892 839 883 864 870 845 856 869 903 838 862 805 874 873 866 821 883 854 876 848 813 857 824 898 796 930 859 854 875 868 790 844 809 839 869 853 846 887 827 906 888 906 823 836 798 803 842 824 846 878 861 821 844 873 847 833 852 877 818 831 808 817 801 905 866 863 858 842 917 881 847 833 814 866 891 859 841 869 862 892 877 833 862 830 845 839 856 830 895 849 868 835 780 804 855 885 861 895 830 892 836 808 878 862 847 889 864 853 864 857 862 855 921 930 844 864 803 889 899 866 901 853 919 904 870 881 869 885 883 933 928 873 869 968 862 997 975 947 996 1015 958 920 851 910 959 944 842 947 872 901 894 931 919 897 948 933 905 923 956 948 943 897 904 942 934 856 908 897 896 864 860 929 847 928 878 829 962 901 899 881 894 890 874 908 867 855 870 789 877 870 870 887 815 887 879 893 855 866 849 860 777 838 839 814 839 814 831 908 843 867 860 802 881 892 854 894 816 808 902 850 910 890 876 827 888 805 812 846 861 918 874 872 912 843 808 865 833 904 837 821 823 875 882 908 816 833 854 846 831 876 892 917 902 880 848 867 877 799 885 870 850 858 925 806 855 880 837 842 860 809 830 830 869 895 870 876 875 873 842 879 834 886 837 848 858 920 835 860 922 836 895 925 828 875 845 867 825 849 865 846 827 868 918 830 819 823 851 850 837 883 860 869 846 855 869 828 917 833 834 825 816 856 871 848 908 912 833 852 895 840 820 858 873 852 826 836 781 876 863 869 821 855 873 884 939 896 863 837 840 844 905 913 856 896 891 887 893 885 922 876 894 856 868 832 853 877 914 859 918 920 940 933 906 877 883 961 863 900 913 879 886 954 912 943 949 931 943 932 919 941 882 898 934 959 987 967 1032 972 985 1011 996 1061 964 1061 1059 1025 1094 1098 1168 1090 1242 1200 1186 1249 1317 1151 1258 1235 1275 1286 1298 1388 1419 1358 1414 1350 1352 1382 1412 1366 1385 1284 1315 1278 1298 1294 1273 1231 1243 1243 1172 1197 1211 1243 1216 1152 1210 1152 1170 1114 1209 1166 1135 1187 1141 1134 1120 1156 1052 1125 1056 1074 1023 1095 1007 1012 992 1006 975 998 918 991 924 903 974 883 894 941 934 903 879 877 888 907 860 892 881 849 882 831 890 855 895 873 910 876 890 884 837 869 857 874 871 832 847 879 902 855 873 840 894 841 849 827 858 853 842 792 882 834 862 812 901 834 841 846 846 864 892 882 815 870 900 883 857 847 820 859 878 868 880 822 840 855 890 835 884 855 854 843 841 868 844 866 871 839 893 857 864 832 817 857 857 791 912 877 938 804 857 870 832 805 863 860 889 866 882 822 844 883 814 932 855 850 881 820 912 812 856 849 838 897 893 908 927 854 913 883 818 858 890 906 881 882 866 854 828 885 902 880 914 899 867 866 905 840 891 886 853 858 904 898 867 874 811 855 887 844 885 841 882 840 869 849 854 827 837 900 819 895 900 837 808 857 817 879 892 828 826 851 871 881 910 864 855 857 858 824 832 843 838 814 843 880 843 841 873 821 825 803 829 854 793 837 816 862 897 853 810 841 862 850 857 860 892 853 872 863 817 823 841 767 840 866 858 839 837 810 887 829 800 907 870 800 844 853 865 865 861 867 810 867 861 838 898 854 851 864 843 864 898 851 845 868 876 847 827 919 882 853 874 846 832 865 880 852 802 857 838 785 856 851 794 822 880 881 864 864 837 858 794 860 869 906 860 849 801 853 860 857 816 842 875 848 822 835 811 795 809 849 842 832 848 898 795 854 823 884 838 861 823 792 807 869 835 845 814 822 857 870 808 817 857 852 855 853 821 860 876 835 867 778 800 855 815 829 796 798 850 833 799 826 766 800 833 748 866 814 829 849 841 811 855 861 822 920 826 903 869 853 881 835 853 894 878 839 875 868 794 848 817 863 805 840 816 800 834 804 783 865 816 796 824 784 837 784 885 775 855 848 792 826 804 851 789 869 867 824 802 813 840 860 829 788 830 811 856 810 885 821 823 800 759 776 777 806 821 872 862 797 808 791 838 822 847 864 845 791 794 846 795 804 807 809 844 822 846 863 832 782 824 829 833 808 854 848 867 831 884 837 807 834 847 782 813 835 824 821 894 833 858 822 877 819 829 875 810 778 843 858 775 856 826 862 876 895 847 852 793 830 808 826 815 804 791 871 826 828 842 826 841 834 815 796 854 818 841 870 810 822 809 848 870 834 802 854 862 827 860 773 847 841 868 843 836 869 847 839 822 862 800 857 849 858 822 836 825 773 930 862 869 831 870 862 880 839 849 840 863 789 808 793 842 825 834 882 869 856 803 855 828 854 853 854 891 842 933 873 919 846 896 920 866 893 868 927 938 873 951 935 934 907 987 940 929 957 905 947 975 891 936 950 960 975 942 945 920 955 902 949 918 897 939 947 896 844 921 917 892 952 871 829 869 929 875 940 932 918 900 928 927 924 980 880 929 837 953 917 912 922 942 924 886 956 912 936 882 918 920 873 888 931 960 930 955 890 952 931 905 881 952 900 881 891 900 853 945 962 881 881 913 909 906 887 874 872 882 899 900 841 931 887 882 921 870 926 874 880 848 892 909 895 904 846 857 894 850 899 869 902 847 856 866 898 885 918 857 857 854 865 853 821 809 819 875 841 798 870 892 916 857 863 805 877</counts>
			</dataPoints>
		</scan>
	</xrdMeasurement>
</xrdMeasurements>
