<?xml version="1.0"?>
<xrdMeasurements xmlns="http://www.xrdml.com/XRDMeasurement/2.3" xmlns:xsi="http://www.w3.org/2001/XMLSchema-instance" xsi:schemaLocation="http://www.xrdml.com/XRDMeasurement/2.3 http://www.xrdml.com/XRDMeasurement/2.3/XRDMeasurement.xsd" status="Completed" recordIdentifier="{A3CE4D79-175C-45B9-819D-616D8D4CCBAB}">
	<comment>
		<entry/>
	</comment>
	<sample type="To be analyzed">
		<id>GPSS_Li1p6Fe1p2Cl4_121225_693c5ab8f4d05ae3d6974f1b</id>
		<name></name>
		<preparedBy></preparedBy>
	</sample>
	<xrdMeasurement measurementType="Scan" status="Completed" sampleMode="Reflection">
		<usedWavelength intended="K-Alpha 1">
			<kAlpha1 unit="Angstrom">1.5405980</kAlpha1>
			<kAlpha2 unit="Angstrom">1.5444260</kAlpha2>
			<kBeta unit="Angstrom">1.3922500</kBeta>
			<ratioKAlpha2KAlpha1>0.5000</ratioKAlpha2KAlpha1>
		</usedWavelength>
		<incidentBeamPath>
			<radius unit="mm">145.00</radius>
			<xRayTube id="1010048" name="Empyrean Cu LFF HR (9430 033 7310x)">
				<tension unit="kV">40.0</tension>
				<current unit="mA">15.0</current>
				<anodeMaterial>Cu</anodeMaterial>
				<focus type="Line">
					<length unit="mm">12.0</length>
					<width unit="mm">0.4</width>
					<takeOffAngle unit="deg">6.0</takeOffAngle>
				</focus>
			</xRayTube>
			<sollerSlit id="21010002" name="Soller slits 0.04 rad.">
				<opening unit="rad">0.0400</opening>
			</sollerSlit>
			<mask id="22031000" name="Fixed mask 13 mm">
				<width unit="mm">9.00</width>
			</mask>
			<divergenceSlit id="22120001" name="Divergence slit 1°" xsi:type="fixedDivergenceSlitType">
				<distanceToSample unit="mm">50.00</distanceToSample>
				<height unit="mm">1.52</height>
			</divergenceSlit>
		</incidentBeamPath>
		<sampleMovement xsi:type="spinningSampleMovementType">
			<spinnerRevolutionTime unit="seconds">1.0</spinnerRevolutionTime>
		</sampleMovement>
		<diffractedBeamPath>
			<radius unit="mm">145.00</radius>
			<antiScatterSlit id="22090040" name="AS slit 9 mm (PIXcel)" xsi:type="fixedAntiScatterSlitType">
				<height unit="mm">9.00</height>
			</antiScatterSlit>
			<sollerSlit id="21020003" name="Large Soller slits 0.04 rad.">
				<opening unit="rad">0.0400</opening>
			</sollerSlit>
			<filter id="20030001" name="Large beta-filter Nickel">
				<material>Ni</material>
				<thickness unit="mm">0.020</thickness>
			</filter>
			<detector id="7010019" name="PIXcel1D-Medipix3 detector" xsi:type="rtmsDetectorType">
				<phd unit="keV">
					<lowerLevel>4.02</lowerLevel>
					<upperLevel>11.27</upperLevel>
				</phd>
				<mode>Scanning</mode>
				<activeLength unit="deg">5.542</activeLength>
			</detector>
		</diffractedBeamPath>
		<scan appendNumber="0" mode="Continuous" scanAxis="Gonio" status="Completed">
			<header>
				<startTimeStamp>2025-12-16T14:51:16-08:00</startTimeStamp>
				<endTimeStamp>2025-12-16T14:59:23-08:00</endTimeStamp>
				<author>
					<name>AutomatedUser</name>
				</author>
				<source>
					<applicationSoftware version="1.7b (136)">PANalytical Aeris Instrument Suite</applicationSoftware>
					<instrumentControlSoftware version="3.2.00000000 20240306">AERIS</instrumentControlSoftware>
					<instrumentID>950485</instrumentID>
				</source>
			</header>
			<dataPoints>
				<positions axis="2Theta" unit="deg">
					<startPosition>10.00943322</startPosition>
					<endPosition>99.99442286</endPosition>
				</positions>
				<positions axis="Omega" unit="deg">
					<startPosition>5.00471661</startPosition>
					<endPosition>49.99721143</endPosition>
				</positions>
				<commonCountingTime unit="seconds">12.495</commonCountingTime>
				<counts unit="counts">3269 3442 3275 3315 3416 3247 3311 3345 3257 3415 3379 3438 3267 3338 3389 3407 3304 3331 3343 3390 3426 3414 3450 3373 3337 3372 3244 3302 3328 3325 3276 3328 3327 3303 3284 3404 3434 3297 3353 3310 3525 3398 3388 3417 3459 3485 3458 3357 3324 3260 3525 3325 3446 3428 3372 3362 3374 3499 3433 3461 3351 3405 3335 3403 3396 3379 3356 3420 3414 3430 3402 3568 3514 3411 3355 3381 3439 3485 3463 3577 3455 3409 3456 3454 3418 3490 3403 3512 3490 3537 3453 3462 3394 3422 3457 3533 3535 3411 3422 3440 3503 3517 3429 3445 3411 3435 3503 3382 3542 3579 3411 3472 3494 3457 3477 3486 3541 3480 3516 3477 3420 3542 3470 3493 3579 3652 3479 3521 3441 3483 3604 3541 3519 3602 3586 3433 3583 3534 3578 3477 3541 3476 3535 3565 3581 3451 3612 3384 3566 3559 3506 3583 3525 3475 3624 3488 3628 3570 3604 3628 3688 3633 3495 3508 3565 3436 3597 3574 3492 3497 3622 3577 3636 3470 3562 3581 3611 3629 3510 3559 3635 3627 3553 3408 3537 3600 3622 3584 3570 3628 3597 3608 3555 3576 3614 3593 3552 3568 3476 3581 3499 3516 3395 3463 3599 3517 3491 3641 3608 3490 3577 3524 3593 3437 3540 3540 3576 3653 3501 3628 3616 3587 3518 3525 3622 3558 3589 3498 3571 3648 3459 3520 3583 3434 3560 3533 3585 3693 3538 3541 3564 3650 3569 3588 3509 3588 3595 3597 3500 3579 3444 3494 3602 3627 3523 3605 3536 3496 3573 3642 3546 3554 3486 3700 3553 3529 3575 3602 3598 3534 3519 3648 3523 3605 3614 3616 3505 3611 3569 3496 3712 3486 3627 3639 3656 3643 3570 3649 3587 3576 3656 3608 3605 3615 3629 3640 3581 3617 3710 3695 3653 3576 3588 3637 3694 3612 3687 3773 3798 3578 3671 3756 3734 3662 3736 3710 3601 3708 3731 3688 3725 3726 3760 3740 3748 3708 3740 3698 3682 3827 3818 3714 3792 3681 3764 3872 3884 3747 3901 3882 3874 3898 3762 3833 3848 3859 3933 3798 3928 3813 3900 3951 3974 3899 3880 3767 3986 3750 4024 3904 3874 3951 4054 4123 4010 3826 3957 4053 3898 4023 4043 4101 4009 4075 4004 4000 4071 4035 3978 4133 4088 4152 4004 4209 4119 4021 4082 4019 3971 4286 4092 4071 4129 4268 4208 4207 4175 4267 4193 4211 4142 4131 4189 4215 4283 4178 4362 4218 4178 4317 4315 4363 4497 4304 4375 4261 4300 4449 4415 4425 4493 4482 4487 4522 4567 4666 4540 4709 4581 4653 4884 4926 4999 4857 5014 5046 5066 5264 5314 5378 5446 5393 5567 5622 5649 5872 5852 5965 6275 5977 6344 6212 6434 6489 6508 6523 6856 6829 6877 6807 6858 6805 6716 6687 6623 6573 6540 6354 6164 6034 6032 5961 5734 5605 5610 5507 5350 5430 5335 5248 5250 5230 5152 5091 5007 5109 5065 5041 5088 5131 5008 4929 4974 4853 4864 4913 4797 4764 4800 4843 4647 4644 4527 4480 4457 4534 4567 4442 4460 4383 4342 4360 4219 4413 4346 4318 4465 4405 4400 4269 4288 4306 4282 4202 4254 4176 4297 4293 4076 4086 4217 4314 4199 4213 4123 4127 4112 4161 4100 4213 4063 4224 4246 4036 4097 4085 4227 4115 4108 4102 4280 4069 4002 4163 4115 4161 4134 4121 4214 4006 4105 4179 4156 4001 4190 4126 4075 3996 4006 4120 4037 4073 3978 4047 4059 4077 4060 4078 4081 3936 4088 4091 4050 4150 3996 3919 4109 4032 4004 4015 3978 4093 3952 4156 4039 3941 3971 3867 4056 4004 4031 4062 4042 3929 3939 3987 3924 3960 3904 4038 3941 3961 3978 3995 4043 3959 3927 3967 3917 4080 4002 3910 3957 4007 3996 3982 3947 3896 3852 3934 3922 3986 3890 3972 4022 3914 4047 3944 3928 3851 3978 3938 3908 3921 3858 3939 3860 4018 3976 3869 3953 3953 4025 3930 3976 3889 3869 4016 3955 3957 3898 3889 4041 4113 3932 4042 3948 3976 3997 4046 4136 3989 3908 3992 3999 4062 4083 3926 4131 4010 4045 3956 3920 4053 4040 4062 3915 3959 3756 4006 4065 3985 4059 4029 3937 3938 4029 4042 3867 3989 3855 3944 3933 4064 3959 3901 3954 3870 3946 3904 4006 3774 3858 3806 4030 3872 3994 3860 3969 3894 3870 3938 4042 3996 3950 3802 3914 4115 3926 3827 3854 3855 3911 3859 4073 3926 3916 3979 3924 3994 3920 4032 3923 3820 3919 3986 3928 3904 4016 3957 3931 3892 4012 4019 3833 3895 3871 3894 3973 3942 3827 3990 3882 3794 3956 3901 3878 3919 3851 3820 3910 3876 3969 3879 3953 3914 3870 3938 3963 3913 3920 4012 3867 4004 3971 3795 3948 3945 3927 3935 3946 4001 3784 3910 3814 4001 3799 3950 3895 3919 3886 3952 3920 3900 3837 3881 3792 3905 3961 3966 3902 3850 3947 3878 4049 3910 3833 3897 3828 3868 3985 3887 3874 3820 3948 3815 3918 3944 3898 3863 3924 3894 3967 3934 3956 3881 3907 3990 3895 3827 3825 3824 3843 3784 3842 3763 3871 3924 3885 3971 3875 3854 3971 3935 3821 3920 3840 3971 3932 3757 3923 3877 3812 3812 3825 3814 3831 3801 3866 3840 3901 3870 3798 3880 3875 3834 3814 3835 3835 3710 3886 3797 3751 3832 3899 3877 3833 3878 3866 3835 3742 3826 3850 3674 3848 3824 3821 3790 3831 3885 3665 3730 3769 3723 3822 3806 3824 3861 3839 3690 3703 3765 3745 3736 3768 3815 3704 3790 3778 3786 3846 3745 3745 3737 3660 3814 3720 3662 3842 3765 3795 3798 3816 3851 3763 3751 3778 3821 3816 3831 3826 3857 3814 3793 3742 3755 3742 3755 3660 3748 3737 3797 3804 3769 3718 3752 3837 3826 3738 3647 3782 3753 3664 3905 3671 3838 3895 3876 3730 3755 3820 3915 3755 3768 3715 3849 3865 3736 3817 3812 3725 3781 3849 3711 3722 3806 3701 3835 3665 3732 3844 3731 3633 3724 3844 3601 3964 3763 3710 3719 3629 3728 3821 3747 3815 3757 3743 3840 3746 3864 3801 3704 3699 3732 3777 3766 3648 3711 3814 3803 3703 3675 3796 3822 3765 3745 3862 3757 3785 3831 3783 3721 3807 3721 3669 3752 3718 3859 3796 3747 3713 3774 3736 3654 3849 3824 3672 3879 3847 3836 3836 3750 3720 3813 3692 3847 3841 3692 3857 3759 3724 3781 3705 3763 3777 3737 3736 3769 3911 3726 3816 3803 3908 3737 3855 3823 3796 3773 3782 3757 3868 3788 3810 3613 3860 3812 3763 3772 3729 3765 3883 3809 3877 3809 3796 3736 3815 3813 3918 3816 3791 3776 3794 3798 3791 3883 3806 3661 3788 3795 3672 3714 3814 3912 3758 3751 3777 3833 3826 3730 3766 3738 3876 3796 3833 3751 3635 3616 3706 3845 3678 3712 3783 3674 3755 3863 3756 3765 3840 3792 3810 3750 3709 3824 3785 3756 3671 3732 3744 3713 3695 3735 3708 3742 3639 3624 3649 3768 3770 3718 3626 3717 3783 3605 3613 3669 3754 3727 3611 3551 3614 3656 3674 3705 3618 3662 3653 3687 3632 3691 3729 3615 3509 3538 3527 3551 3614 3591 3596 3529 3640 3634 3635 3571 3715 3615 3646 3651 3572 3738 3608 3602 3533 3496 3538 3538 3659 3552 3553 3458 3607 3558 3470 3606 3525 3518 3591 3442 3427 3501 3461 3459 3488 3533 3463 3510 3611 3549 3493 3509 3528 3479 3375 3504 3495 3389 3367 3521 3374 3448 3313 3559 3518 3466 3344 3430 3320 3427 3443 3350 3459 3364 3457 3337 3396 3389 3293 3333 3400 3431 3444 3435 3411 3360 3417 3378 3358 3372 3283 3455 3371 3382 3378 3370 3294 3373 3368 3322 3278 3327 3289 3374 3331 3399 3269 3307 3335 3291 3411 3379 3475 3334 3241 3302 3365 3370 3294 3393 3396 3170 3286 3289 3316 3246 3330 3296 3359 3322 3250 3334 3243 3336 3322 3353 3298 3212 3378 3207 3254 3264 3336 3345 3412 3232 3325 3289 3187 3227 3449 3308 3285 3412 3305 3260 3496 3399 3265 3257 3287 3284 3254 3338 3483 3440 3360 3326 3311 3267 3324 3333 3266 3387 3327 3266 3330 3314 3337 3302 3296 3260 3243 3260 3269 3351 3251 3257 3330 3206 3182 3249 3307 3279 3282 3239 3191 3272 3232 3179 3266 3219 3226 3188 3206 3273 3150 3210 3206 3312 3303 3190 3260 3184 3335 3303 3264 3270 3333 3190 3208 3179 3198 3278 3302 3313 3262 3268 3317 3363 3222 3233 3303 3184 3256 3255 3303 3173 3195 3211 3306 3403 3318 3134 3313 3268 3182 3293 3274 3213 3236 3213 3320 3293 3251 3288 3252 3231 3319 3198 3234 3294 3317 3288 3192 3260 3240 3241 3270 3251 3336 3173 3273 3318 3207 3322 3277 3268 3380 3236 3304 3275 3247 3333 3203 3332 3309 3298 3296 3252 3249 3311 3242 3197 3229 3286 3232 3256 3295 3250 3286 3186 3318 3163 3258 3334 3254 3330 3270 3294 3295 3201 3289 3365 3278 3247 3275 3241 3247 3218 3199 3271 3225 3179 3256 3243 3291 3233 3198 3251 3250 3277 3253 3225 3221 3353 3229 3219 3202 3242 3217 3267 3166 3240 3161 3194 3193 3194 3211 3222 3199 3291 3291 3259 3293 3154 3227 3189 3142 3206 3290 3152 3197 3132 3289 3179 3132 3238 3242 3161 3264 3152 3181 3221 3227 3274 3204 3146 3190 3150 3165 3233 3162 3214 3204 3093 3159 3121 3119 3130 3185 3151 3174 3182 3112 3284 3245 3216 3073 3236 3235 3028 3155 2976 3081 3223 3230 3150 3185 2983 3168 3083 3235 3052 3036 3108 3068 3060 3081 3182 3156 3169 3004 3080 3156 3079 3122 3090 3074 3140 3006 3058 2944 3033 2984 2997 3077 3010 2960 3094 3033 3019 3038 3043 3071 3095 3008 3009 2887 3047 3088 3025 3103 3028 3110 2957 2985 2935 2903 3005 3052 3090 3006 2955 3004 3092 2966 3004 2982 2996 2946 3094 2992 2938 3043 3031 2964 2963 2981 2948 2989 3128 2950 3031 3028 3004 2978 2978 2987 3116 2949 2909 2913 3051 3005 3058 2912 2981 2931 2916 2998 2963 2973 2975 2926 2999 2919 3007 3071 3027 2984 2916 3027 3061 3054 3046 3058 3105 3049 3097 3152 3117 3209 3222 3240 3312 3386 3434 3382 3478 3505 3601 3600 3620 3713 3690 3913 3949 3892 3958 4025 4011 4048 4070 4212 4082 4114 4042 4052 4194 3957 3813 3993 3919 3825 3795 3645 3679 3583 3615 3698 3468 3488 3366 3387 3294 3238 3435 3253 3354 3271 3288 3266 3149 3222 3127 3176 3217 3175 3084 3116 3205 3141 3169 3098 3003 3174 3180 3084 3170 3215 3126 3071 3063 3034 3043 2991 3037 3057 3014 2974 2944 2884 2965 2920 2884 2934 2912 2969 2875 2914 2913 2897 2925 2919 2961 2868 2961 2838 2942 2818 2949 2794 2911 2949 2862 2987 2847 2908 2807 2926 2883 2972 2892 2951 3065 3037 3133 3084 3216 3152 3271 3312 3340 3340 3428 3482 3693 3680 3714 3852 3936 3999 4083 4203 4324 4276 4429 4629 4516 4667 4759 4789 4778 4976 4860 4756 4847 4745 4581 4627 4523 4476 4401 4151 3959 3938 3808 3768 3711 3734 3543 3463 3419 3321 3391 3378 3313 3273 3179 3221 3187 3167 3050 3177 3060 2991 3063 3004 2924 3007 2879 2843 2837 2904 2872 2783 2790 2799 2701 2698 2803 2797 2690 2735 2811 2803 2691 2850 2743 2729 2736 2686 2680 2713 2671 2711 2798 2800 2683 2544 2721 2711 2677 2643 2691 2803 2838 2689 2762 2752 2722 2705 2794 2665 2719 2732 2741 2708 2658 2692 2666 2783 2681 2653 2658 2706 2738 2707 2771 2707 2606 2601 2691 2671 2796 2626 2714 2672 2737 2721 2591 2659 2672 2614 2655 2607 2622 2684 2647 2683 2714 2718 2638 2617 2660 2600 2785 2731 2734 2549 2671 2644 2582 2640 2658 2652 2617 2690 2682 2615 2595 2716 2636 2612 2564 2657 2715 2691 2560 2679 2648 2660 2595 2608 2608 2671 2638 2588 2517 2538 2639 2561 2546 2629 2646 2576 2600 2672 2682 2588 2467 2641 2612 2591 2590 2626 2654 2613 2678 2656 2687 2625 2614 2616 2589 2580 2640 2501 2570 2554 2525 2626 2667 2569 2592 2666 2590 2688 2619 2727 2659 2690 2604 2755 2635 2614 2556 2664 2550 2633 2608 2583 2561 2490 2603 2654 2543 2605 2511 2539 2588 2575 2612 2532 2632 2661 2580 2558 2519 2608 2547 2624 2613 2583 2591 2526 2610 2552 2684 2567 2582 2738 2596 2618 2651 2496 2637 2572 2631 2575 2669 2646 2663 2642 2454 2583 2560 2501 2606 2621 2686 2723 2568 2625 2662 2549 2604 2557 2672 2600 2601 2488 2575 2616 2664 2571 2635 2535 2589 2512 2628 2612 2561 2585 2554 2628 2551 2578 2561 2681 2698 2566 2627 2601 2640 2548 2517 2621 2571 2699 2539 2588 2597 2687 2574 2569 2541 2621 2554 2594 2589 2583 2515 2684 2590 2619 2477 2627 2634 2635 2455 2667 2665 2561 2649 2659 2617 2557 2656 2666 2669 2708 2596 2558 2643 2591 2713 2654 2498 2704 2533 2676 2601 2579 2574 2623 2606 2567 2687 2501 2635 2624 2686 2625 2592 2546 2586 2691 2571 2734 2592 2640 2649 2630 2629 2716 2768 2693 2638 2627 2614 2561 2695 2605 2668 2678 2678 2577 2675 2627 2707 2704 2830 2685 2735 2731 2801 2630 2758 2697 2689 2775 2763 2843 2820 2854 2743 2870 2828 2872 2837 2946 2924 2960 2995 3062 3086 3125 3195 3320 3381 3519 3588 3692 3708 4037 4166 4203 4493 4694 4910 5204 5533 5797 6015 6303 6568 6957 7138 7592 7785 8266 8477 8981 9122 9397 9460 9824 10083 9864 10193 10015 10005 9789 9654 9555 9235 9005 8913 8301 8173 7730 7616 7062 6683 6675 6441 6161 5915 5677 5541 5390 5266 5119 5072 4733 4767 4720 4443 4341 4356 4240 4083 4029 3946 3810 3783 3669 3613 3591 3388 3531 3429 3460 3319 3339 3406 3249 3263 3252 3207 3134 3223 3198 3197 3272 3254 3214 3269 3313 3103 3212 3255 3271 3131 3148 3212 3103 3229 3114 3111 3103 3049 3164 3003 3040 3028 3006 2978 2952 2898 3011 2874 2773 2920 2919 2917 2838 2815 2812 2754 2710 2763 2826 2647 2717 2730 2676 2643 2667 2640 2578 2601 2673 2665 2708 2643 2736 2689 2708 2682 2650 2575 2631 2638 2636 2691 2560 2681 2597 2695 2522 2565 2581 2592 2696 2556 2581 2745 2576 2513 2584 2563 2517 2571 2520 2492 2581 2523 2538 2550 2499 2615 2578 2554 2473 2536 2640 2590 2710 2508 2504 2564 2420 2642 2553 2536 2541 2510 2428 2524 2603 2539 2544 2493 2615 2451 2536 2600 2576 2533 2459 2566 2527 2654 2582 2542 2555 2585 2581 2505 2545 2535 2581 2453 2454 2626 2578 2557 2508 2497 2488 2513 2501 2448 2476 2478 2489 2507 2495 2564 2494 2520 2477 2502 2502 2524 2620 2702 2617 2540 2490 2492 2514 2527 2570 2555 2506 2551 2488 2455 2523 2502 2501 2563 2571 2573 2567 2524 2524 2477 2602 2594 2537 2534 2567 2546 2508 2499 2575 2461 2573 2523 2599 2504 2519 2555 2621 2437 2541 2577 2523 2517 2562 2519 2488 2591 2481 2582 2479 2489 2617 2537 2587 2512 2521 2550 2536 2508 2507 2478 2554 2571 2624 2614 2497 2555 2575 2603 2569 2597 2576 2741 2690 2617 2586 2608 2639 2648 2689 2677 2680 2704 2664 2707 2701 2649 2661 2644 2637 2649 2566 2642 2599 2585 2675 2758 2609 2607 2674 2683 2557 2611 2635 2588 2514 2562 2517 2633 2612 2643 2585 2606 2612 2617 2597 2561 2534 2610 2577 2539 2606 2533 2528 2518 2552 2480 2546 2638 2491 2517 2620 2531 2552 2459 2642 2439 2462 2624 2496 2572 2511 2532 2495 2493 2498 2553 2539 2543 2533 2569 2536 2552 2532 2550 2511 2541 2536 2518 2490 2606 2504 2480 2341 2402 2494 2563 2517 2419 2537 2434 2599 2390 2566 2500 2550 2499 2497 2460 2432 2444 2509 2564 2538 2588 2553 2500 2510 2464 2526 2499 2518 2446 2558 2462 2545 2491 2508 2446 2471 2526 2516 2544 2467 2486 2615 2442 2505 2524 2412 2504 2627 2572 2444 2484 2595 2499 2475 2449 2442 2614 2524 2567 2445 2504 2520 2527 2474 2523 2485 2452 2486 2497 2447 2543 2494 2506 2516 2464 2473 2467 2433 2494 2495 2525 2444 2512 2472 2437 2501 2559 2493 2555 2495 2452 2477 2385 2480 2450 2425 2478 2489 2485 2491 2436 2453 2447 2520 2429 2449 2478 2516 2479 2529 2449 2516 2522 2531 2416 2465 2581 2437 2439 2374 2404 2487 2466 2486 2496 2504 2467 2546 2482 2455 2404 2539 2517 2497 2490 2482 2447 2517 2399 2439 2555 2419 2443 2523 2401 2468 2374 2447 2435 2451 2517 2457 2514 2417 2409 2413 2476 2508 2420 2432 2324 2446 2440 2495 2462 2500 2415 2570 2437 2469 2429 2415 2450 2420 2465 2439 2398 2473 2585 2485 2514 2450 2544 2512 2437 2466 2429 2446 2494 2522 2480 2550 2482 2405 2531 2502 2567 2535 2450 2459 2491 2449 2400 2458 2417 2405 2440 2475 2542 2510 2491 2390 2530 2478 2443 2558 2515 2458 2400 2436 2453 2466 2546 2527 2415 2478 2365 2481 2441 2430 2494 2387 2445 2537 2450 2373 2420 2452 2377 2443 2399 2465 2568 2399 2453 2463 2430 2401 2502 2489 2463 2437 2445 2487 2465 2439 2414 2442 2442 2401 2478 2513 2461 2427 2420 2418 2434 2386 2463 2510 2455 2453 2535 2520 2398 2469 2422 2454 2457 2518 2445 2573 2522 2390 2420 2390 2518 2578 2440 2415 2487 2465 2348 2396 2324 2477 2488 2506 2457 2347 2463 2432 2449 2424 2377 2455 2443 2470 2482 2514 2458 2521 2440 2479 2403 2411 2400 2521 2475 2493 2438 2340 2394 2494 2464 2455 2311 2396 2380 2454 2415 2469 2357 2347 2538 2479 2484 2462 2354 2481 2405 2468 2562 2398 2389 2472 2434 2462 2488 2479 2503 2489 2478 2414 2406 2511 2418 2457 2441 2525 2330 2501 2480 2501 2501 2525 2423 2504 2411 2469 2433 2458 2423 2454 2383 2395 2456 2428 2490 2429 2515 2509 2447 2560 2423 2499 2404 2461 2463 2493 2446 2484 2589 2481 2496 2449 2584 2572 2512 2486 2528 2566 2469 2545 2477 2521 2511 2400 2473 2488 2532 2482 2561 2421 2458 2460 2493 2555 2404 2479 2513 2419 2425 2489 2466 2527 2394 2450 2437 2534 2455 2389 2497 2451 2436 2401 2424 2577 2406 2503 2381 2424 2455 2432 2525 2350 2403 2468 2470 2372 2529 2443 2416 2449 2432 2355 2422 2466 2515 2398 2377 2447 2373 2448 2477 2365 2360 2393 2430 2467 2405 2472 2459 2373 2423 2407 2471 2404 2486 2422 2435 2484 2502 2458 2443 2399 2399 2442 2440 2451 2403 2392 2500 2455 2428 2389 2445 2409 2332 2433 2398 2479 2512 2410 2398 2440 2471 2411 2408 2400 2458 2329 2407 2368 2462 2373 2492 2425 2445 2423 2386 2510 2462 2439 2404 2379 2339 2505 2441 2445 2325 2394 2455 2406 2461 2350 2431 2506 2352 2412 2344 2423 2488 2498 2486 2562 2416 2446 2456 2490 2431 2558 2471 2396 2434 2418 2459 2488 2453 2487 2407 2440 2377 2466 2400 2484 2435 2441 2478 2462 2526 2400 2448 2545 2492 2381 2422 2445 2530 2514 2502 2419 2470 2526 2431 2442 2444 2420 2521 2454 2384 2458 2466 2517 2579 2494 2630 2678 2444 2646 2711 2677 2666 2689 2735 2720 2764 2839 2819 2883 2969 2911 2897 3071 3059 3201 3027 3211 3154 3135 3231 3257 3321 3366 3311 3361 3265 3256 3195 3191 3185 3099 3130 3101 3144 2986 3078 3022 2980 2843 2876 2962 2869 2901 2835 2834 2849 2656 2640 2753 2765 2638 2678 2681 2621 2653 2572 2650 2549 2598 2583 2562 2549 2616 2634 2553 2599 2513 2486 2445 2580 2446 2466 2507 2477 2575 2467 2424 2390 2439 2473 2466 2516 2480 2428 2526 2521 2469 2498 2481 2442 2402 2438 2453 2474 2517 2489 2423 2478 2492 2456 2523 2430 2608 2559 2444 2446 2497 2490 2374 2466 2590 2450 2495 2452 2370 2538 2453 2435 2499 2362 2551 2463 2450 2436 2470 2464 2480 2478 2448 2452 2512 2471 2448 2370 2394 2340 2504 2470 2461 2437 2468 2448 2460 2337 2426 2504 2439 2383 2442 2394 2464 2510 2374 2414 2391 2461 2455 2501 2394 2407 2395 2418 2456 2435 2440 2414 2501 2439 2471 2362 2446 2451 2448 2465 2376 2475 2404 2470 2419 2562 2467 2496 2461 2378 2341 2382 2485 2416 2420 2517 2441 2457 2429 2375 2405 2459 2409 2428 2383 2424 2521 2394 2310 2429 2434 2389 2455 2422 2477 2390 2415 2460 2434 2475 2474 2416 2417 2437 2463 2364 2516 2387 2370 2478 2369 2372 2382 2432 2421 2326 2412 2357 2457 2312 2480 2436 2426 2440 2480 2535 2435 2455 2321 2440 2339 2334 2311 2432 2437 2414 2463 2476 2453 2393 2491 2387 2463 2409 2434 2287 2512 2448 2433 2462 2498 2455 2447 2450 2477 2483 2483 2403 2596 2482 2431 2390 2455 2419 2353 2393 2384 2429 2427 2420 2345 2389 2468 2470 2430 2425 2572 2430 2346 2449 2451 2448 2457 2381 2442 2444 2463 2425 2375 2458 2371 2431 2444 2381 2491 2438 2419 2462 2401 2406 2426 2441 2433 2338 2425 2485 2424 2398 2447 2516 2522 2371 2507 2412 2558 2411 2546 2361 2511 2395 2432 2450 2388 2396 2314 2441 2517 2346 2498 2526 2432 2451 2430 2471 2444 2414 2521 2419 2502 2531 2542 2529 2469 2442 2511 2506 2528 2570 2549 2489 2473 2478 2451 2480 2518 2579 2657 2563 2583 2494 2647 2565 2618 2549 2520 2636 2577 2498 2612 2602 2636 2656 2747 2662 2788 2845 2749 2840 2980 3106 3119 3237 3460 3528 3571 3778 3892 3975 4235 4512 4442 4681 4817 4975 5128 5346 5528 5809 5722 5893 6175 6228 6398 6558 6394 6448 6399 6214 6179 6013 5760 5820 5709 5463 5506 5145 5034 4922 4761 4590 4484 4205 4197 4212 3923 3862 3610 3590 3449 3372 3330 3350 3286 3174 3195 3110 3152 3081 2965 2991 3009 3022 3037 3017 2989 2961 2923 2945 3005 2865 2851 2873 2772 2732 2806 2829 2752 2761 2750 2783 2702 2729 2814 2754 2719 2729 2725 2660 2694 2656 2752 2639 2703 2692 2629 2708 2688 2645 2689 2739 2621 2799 2768 2681 2792 2727 2740 2617 2698 2724 2622 2673 2658 2688 2627 2717 2648 2660 2659 2540 2586 2595 2631 2672 2631 2611 2594 2587 2615 2566 2559 2598 2529 2539 2620 2437 2494 2575 2527 2377 2507 2490 2565 2484 2478 2568 2451 2518 2512 2610 2551 2393 2525 2384 2420 2401 2425 2380 2483 2511 2438 2439 2363 2475 2472 2405 2410 2487 2471 2500 2450 2408 2495 2500 2361 2466 2356 2432 2395 2352 2453 2448 2400 2491 2500 2415 2382 2500 2426 2470 2468 2389 2467 2393 2362 2432 2339 2442 2471 2374 2505 2516 2490 2407 2465 2515 2389 2495 2421 2449 2512 2351 2452 2398 2408 2455 2477 2476 2543 2410 2480 2504 2537 2422 2492 2535 2594 2569 2505 2472 2548 2646 2592 2630 2741 2649 2726 2704 2595 2871 2820 2766 2797 2749 2861 2828 2971 2934 2877 2902 2963 2963 2856 2933 2895 2823 2820 2817 2708 2759 2773 2751 2725 2686 2633 2635 2679 2650 2586 2650 2649 2614 2550 2643 2667 2492 2544 2520 2550 2442 2505 2504 2547 2540 2502 2476 2468 2514 2476 2529 2504 2556 2510 2492 2468 2557 2496 2535 2473 2544 2440 2510 2442 2518 2452 2454 2470 2535 2513 2443 2478 2521 2365 2525 2500 2475 2423 2451 2522 2484 2481 2565 2505 2442 2530 2426 2466 2501 2426 2515 2459 2473 2448 2448 2434 2519 2491 2510 2539 2462 2498 2487 2480 2432 2480 2445 2516 2432 2514 2423 2404 2475 2519 2386 2453 2477 2383 2551 2447 2429 2393 2440 2395 2514 2474 2437 2406 2543 2478 2454 2331 2362 2457 2460 2419 2491 2488 2441 2389 2413 2419 2385 2405 2404 2458 2356 2387 2466 2266 2390 2434 2395 2365 2319 2429 2327 2475 2471 2430 2485 2340 2370 2396 2311 2492 2383 2388 2454 2383 2397 2393 2387 2423 2381 2415 2310 2459 2384 2485 2418 2351 2316 2337 2346 2389 2337 2286 2326 2405 2391 2305 2344 2402 2331 2433 2456 2392 2371 2320 2422 2386 2427 2343 2332 2427 2360 2392 2406 2361 2351 2423 2356 2393 2456 2448 2343 2354 2357 2312 2322 2330 2401 2287 2377 2477 2325 2364 2425 2365 2354 2413 2362 2388 2290 2380 2326 2392 2352 2349 2327 2365 2317 2288 2417 2396 2295 2417 2468 2388 2363 2371 2288 2404 2464 2337 2361 2404 2381 2397 2387 2329 2379 2351 2427 2374 2396 2420 2404 2352 2373 2366 2347 2355 2398 2394 2336 2313 2431 2365 2353 2361 2385 2303 2380 2369 2315 2348 2403 2333 2412 2359 2398 2347 2311 2332 2370 2357 2415 2418 2306 2400 2383 2385 2263 2317 2332 2301 2351 2373 2353 2238 2460 2373 2433 2350 2469 2353 2394 2421 2367 2378 2289 2365 2424 2408 2511 2452 2420 2360 2364 2372 2389 2415 2321 2362 2247 2418 2362 2331 2384 2263 2369 2427 2306 2261 2436 2387 2322 2306 2288 2349 2313 2395 2350 2315 2342 2376 2270 2409 2366 2389 2351 2340 2326 2398 2391 2288 2479 2360 2414 2402 2256 2382 2447 2402 2377 2362 2429 2407 2345 2307 2305 2280 2367 2302 2342 2273 2368 2272 2334 2369 2329 2347 2265 2373 2329 2354 2381 2222 2365 2371 2271 2350 2332 2302 2343 2335 2449 2353 2334 2391 2429 2337 2355 2243 2370 2312 2373 2424 2510 2326 2348 2329 2466 2366 2407 2397 2311 2486 2414 2437 2346 2388 2386 2408 2441 2369 2409 2375 2347 2464 2375 2465 2347 2376 2329 2364 2459 2388 2444 2411 2439 2386 2431 2478 2456 2383 2353 2470 2350 2437 2415 2421 2432 2469 2402 2276 2322 2294 2385 2449 2300 2282 2409 2291 2295 2351 2353 2400 2337 2429 2396 2410 2379 2324 2415 2354 2306 2380 2352 2375 2254 2408 2401 2371 2377 2442 2415 2368 2269 2351 2336 2312 2325 2387 2402 2295 2286 2319 2368 2330 2348 2371 2373 2332 2424 2507 2391 2308 2362 2423 2340 2393 2323 2365 2403 2343 2360 2365 2379 2390 2326 2324 2396 2383 2409 2313 2347 2334 2442 2342 2317 2325 2327 2424 2420 2364 2344 2360 2390 2392 2401 2466 2360 2389 2340 2404 2467 2427 2379 2405 2502 2395 2515 2435 2417 2432 2468 2478 2534 2504 2411 2411 2521 2545 2545 2514 2449 2514 2507 2484 2375 2503 2437 2440 2510 2496 2367 2482 2475 2475 2539 2330 2363 2543 2385 2423 2471 2458 2350 2358 2381 2358 2367 2436 2403 2449 2408 2501 2383 2287 2483 2370 2394 2410 2428 2415 2448 2425 2540 2549 2473 2429 2467 2459 2573 2497 2588 2492 2520 2612 2686 2650 2644 2658 2719 2763 2698 2679 2700 2698 2654 2730 2684 2768 2715 2761 2838 2706 2685 2743 2722 2681 2677 2650 2699 2643 2640 2630 2549 2569 2576 2582 2512 2484 2558 2494 2507 2530 2434 2403 2446 2480 2381 2464 2530 2371 2421 2431 2529 2467 2439 2419 2478 2376 2280 2419 2446 2476 2370 2476 2397 2371 2367 2408 2324 2376 2350 2466 2433 2383 2338 2285 2497 2460 2378 2362 2472 2343 2471 2338 2338 2357 2333 2398 2345 2423 2307 2286 2340 2414 2477 2382 2290 2293 2396 2372 2332 2412 2330 2367 2333 2404 2382 2346 2390 2381 2298 2425 2354 2390 2391 2310 2362 2277 2372 2377 2392 2422 2368 2342 2363 2370 2344 2450 2373 2437 2420 2421 2289 2382 2338 2419 2314 2452 2297 2378 2311 2354 2388 2369 2352 2443 2309 2378 2268 2389 2314 2368 2331 2322 2500 2375 2313 2299 2398 2317 2422 2370 2320 2306 2409 2404 2398 2444 2374 2317 2365 2325 2334 2298 2392 2391 2362 2281 2314 2301 2326 2362 2338 2416 2302 2293 2336 2426 2332 2357 2386 2440 2406 2357 2431 2305 2301 2353 2430 2385 2353 2349 2389 2406 2329 2262 2365 2327 2421 2306 2356 2304 2350 2310 2357 2366 2301 2368 2299 2331 2326 2401 2355 2351 2317 2390 2380 2350 2336 2393 2367 2364 2460 2384 2367 2350 2361 2485 2346 2387 2413 2381 2405 2474 2313 2358 2408 2400 2458 2335 2427 2378 2435 2351 2517 2488 2400 2506 2561 2494 2569 2631 2667 2587 2584 2691 2661 2778 2680 2808 2791 2850 2936 3092 2962 3062 3164 3219 3229 3119 3163 3162 3302 3257 3354 3357 3284 3304 3221 3188 3274 3272 3142 3114 3103 3003 3011 3104 2954 2984 3059 2881 2878 2929 2841 2794 2806 2760 2762 2738 2637 2678 2584 2604 2625 2623 2534 2550 2451 2460 2522 2483 2597 2470 2455 2516 2672 2548 2611 2540 2602 2512 2509 2516 2550 2465 2542 2529 2502 2568 2576 2477 2520 2537 2520 2496 2553 2514 2530 2459 2564 2404 2463 2457 2450 2456 2474 2395 2488 2383 2379 2425 2426 2470 2332 2363 2392 2421 2451 2346 2462 2375 2417 2386 2462 2486 2430 2392 2357 2360 2404 2449 2357 2385 2401 2407 2445 2418 2453 2372 2530 2396 2464 2450 2353 2375 2518 2465 2456 2387 2378 2452 2503 2496 2404 2386 2302 2411 2413 2398 2412 2499 2431 2405 2411 2344 2375 2376 2372 2340 2467 2348 2409 2380 2471 2400 2406 2380 2434 2350 2440 2414 2344 2410 2446 2400 2327 2380 2451 2397 2394 2355 2344 2430 2429 2349 2343 2390 2410 2387 2389 2322 2381 2415 2416 2462 2487 2433 2382 2368 2518 2418 2462 2551 2500 2534 2514 2524 2508 2616 2493 2639 2583 2584 2582 2611 2624 2650 2585 2617 2630 2552 2668 2519 2547 2596 2566 2560 2650 2556 2526 2659 2495 2528 2540 2473 2515 2523 2543 2504 2486 2442 2482 2503 2490 2484 2450 2435 2421 2414 2343 2461 2403 2445 2453 2413 2356 2329 2391 2305 2324 2359 2412 2365 2417 2357 2312 2276 2417 2255 2443 2406 2431 2318 2419 2452 2470 2425 2333 2354 2290 2378 2327 2332 2377 2279 2277 2306 2355 2335 2278 2402 2390 2398 2345 2431 2361 2324 2378 2380 2365 2369 2286 2408 2337 2351 2347 2319 2359 2358 2283 2280 2426 2334 2271 2403 2349 2331 2357 2401 2325 2434 2264 2323 2357 2260 2406 2358 2278 2315 2391 2292 2399 2371 2375 2392 2342 2347 2310 2373 2326 2400 2240 2309 2435 2385 2382 2395 2338 2369 2394 2428 2348 2340 2286 2310 2285 2366 2391 2376 2348 2385 2367 2338 2314 2256 2386 2299 2378 2388 2343 2365 2353 2306 2267 2355 2315 2404 2380 2302 2274 2337 2456 2383 2396 2432 2273 2339 2367 2330 2221 2264 2297 2263 2246 2359 2357 2366 2441 2348 2363 2383 2246 2355 2357 2239 2263 2337 2273 2347 2434 2356 2374 2392 2327 2313 2411 2289 2276 2338 2346 2333 2358 2252 2335 2365 2366 2304 2364 2310 2249 2283 2417 2360 2352 2275 2291 2338 2301 2259 2280 2316 2379 2295 2347 2339 2308 2377 2266 2349 2279 2241 2325 2263 2269 2362 2247 2301 2261 2258 2287 2370 2311 2333 2320 2400 2405 2417 2400 2393 2413 2305 2308 2317 2356 2438 2291 2353 2346 2300 2372 2353 2272 2291 2256 2330 2299 2347 2358 2378 2415 2320 2268 2318 2300 2332 2334 2323 2348 2366 2276 2274 2291 2322 2344 2289 2318 2417 2330 2295 2351 2282 2356 2332 2290 2279 2304 2303 2400 2318 2317 2337 2268 2334 2270 2266 2301 2338 2338 2363 2326 2313 2383 2259 2295 2344 2305 2391 2296 2320 2382 2380 2251 2383 2350 2335 2351 2383 2214 2239 2297 2292 2292 2342 2217 2338 2351 2368 2378 2314 2397 2284 2290 2304 2317 2330 2320 2246 2433 2290 2252 2342 2175 2378 2319 2349 2385 2314 2288 2329 2374 2244 2210 2269 2351 2337 2211 2268 2287 2263 2360 2309 2323 2201 2332 2388 2345 2309 2357 2320 2347 2334 2282 2305 2340 2254 2314 2408 2238 2312 2324 2449 2341 2276 2339 2340 2366 2339 2346 2235 2344 2319 2357 2300 2288 2382 2319 2388 2461 2314 2314 2284 2263 2386 2303 2302 2292 2293 2308 2332 2328 2359 2290 2263 2396 2353 2360 2392 2242 2327 2375 2402 2341 2257 2320 2352 2277 2321 2276 2347 2370 2354 2436 2319 2336 2294 2342 2363 2357 2349 2404 2337 2291 2306 2384 2289 2285 2304 2342 2251 2335 2288 2343 2251 2332 2349 2396 2276 2397 2328 2348 2295 2284 2378 2301 2373 2264 2380 2238 2340 2324 2346 2353 2346 2351 2382 2412 2444 2394 2362 2326 2471 2521 2400 2406 2529 2467 2395 2501 2467 2462 2459 2458 2481 2476 2572 2536 2394 2408 2512 2575 2414 2412 2403 2458 2390 2439 2489 2437 2427 2506 2419 2434 2349 2307 2435 2399 2422 2443 2353 2493 2381 2325 2383 2332 2472 2447 2418 2394 2446 2355 2356 2326 2328 2308 2379 2364 2327 2363 2343 2435 2330 2412 2375 2417 2347 2355 2344 2360 2346 2295 2308 2286 2368 2330 2320 2361 2384 2286 2368 2343 2380 2353 2325 2354 2360 2277 2337 2371 2394 2250 2302 2377 2253 2305 2466 2352 2277 2329 2385 2310 2379 2354 2383 2258 2297 2263 2344 2329 2325 2285 2357 2293 2363 2356 2357 2387 2378 2328 2282 2379 2386 2274 2322 2347 2302 2380 2246 2430 2360 2263 2199 2319 2368 2251 2368 2404 2342 2369 2374 2316 2363 2254 2314 2390 2295 2394 2282 2383 2358 2374 2409 2373 2392 2395 2389 2310 2419 2439 2364 2317 2388 2340 2355 2355 2266 2263 2306 2361 2302 2305 2335 2254 2307 2271 2259 2326 2303 2294 2244 2273 2366 2346 2376 2357 2301 2336 2188 2315 2266 2348 2350 2422 2242 2292 2352 2303 2380 2271 2288 2297 2360 2286 2309 2291 2388 2294 2332 2294 2417 2381 2322 2366 2359 2317 2301 2377 2332 2301 2399 2371 2240 2360 2337 2276 2342 2304 2330 2226 2361 2301 2339 2360 2281 2270 2316 2381 2277 2315 2368 2356 2284 2318 2335 2336 2365 2391 2256 2338 2354 2385 2354 2333 2318 2360 2315 2277 2405 2418 2319 2320 2357 2331 2286 2287 2320 2326 2375 2340 2302 2370 2292 2343 2306 2391 2409 2417 2366 2431 2382 2359 2458 2307 2426 2341 2381 2454 2333 2391 2355 2273 2391 2321 2377 2424 2381 2389 2329 2395 2393 2484 2389 2488 2398 2512 2609 2497 2497 2528 2563 2564 2537 2497 2627 2617 2646 2585 2597 2688 2629 2742 2609 2665 2662 2715 2693 2702 2704 2696 2671 2651 2607 2664 2615 2677 2564 2638 2647 2545 2712 2550 2595 2590 2592 2544 2613 2528 2525 2488 2529 2480 2486 2489 2446 2419 2505 2402 2417 2399 2471 2475 2434 2376 2432 2425 2417 2366 2478 2366 2459 2412 2407 2518 2406 2428 2453 2401 2460 2402 2369 2408 2318 2471 2406 2330 2412 2332 2340 2291 2449 2285 2368 2407 2347 2323 2338 2424 2468 2368 2362 2406 2380 2383 2338 2357 2380 2467 2348 2348 2403 2317 2355 2398 2370 2343 2380 2363 2366 2425 2380 2316 2403 2296 2418 2391 2364 2349 2306 2312 2393 2389 2311 2352 2297 2415 2391 2399 2347 2359 2373 2390 2319 2435 2338 2390 2254 2369 2307 2359 2276 2309 2404 2331 2275 2369 2375 2410 2383 2333 2392 2371 2343 2279 2388 2394 2306 2336 2411 2310 2283 2333 2369 2330 2311 2359 2332 2351 2323 2362 2348 2350 2413 2387 2271 2398 2397 2326 2365 2433 2263 2456 2388 2427 2373 2334 2324 2385 2340 2354 2239 2298 2316 2359 2423 2419 2260 2317 2324 2331 2407 2274 2299 2337 2306 2252 2394 2367 2332 2400 2301 2385 2301 2245 2394 2250 2212 2352 2351 2331 2295 2344 2346 2312 2311 2271 2266 2295 2373 2298 2401 2373 2303 2276 2390 2316 2260 2340 2338 2411 2272 2345 2383 2344 2355 2293 2399 2334 2392 2394 2363 2272 2360 2374 2276 2412 2283 2287 2295 2320 2311 2425 2386 2341 2305 2335 2399 2301 2424 2382 2353 2313 2406 2335 2245 2321 2312 2380 2328 2297 2289 2296 2345 2360 2340 2263 2392 2291 2424 2273 2297 2312 2297 2236 2249 2336 2343 2239 2415 2302 2337 2166 2308 2275 2276 2337 2325 2313 2328 2286 2360 2222 2298 2335 2307 2346 2369 2389 2351 2313 2369 2302 2233 2285 2329 2339 2304 2393 2289 2269 2334 2331 2320 2329 2328 2303 2254 2296 2328 2397 2318 2324 2357 2352 2317 2382 2284 2453 2371 2422 2408 2340 2334 2323 2356 2239 2370 2306 2374 2367 2401 2214 2347 2377 2341 2273 2306 2275 2335 2388 2287 2294 2294 2285 2296 2271 2238 2309 2298 2297 2329 2296 2316 2289 2256 2249 2375 2406 2254 2324 2266 2385 2300 2344 2378 2277 2319 2378 2415 2277 2295 2331 2318 2322 2354 2238 2361 2307 2284 2241 2303 2203 2285 2279 2260 2276 2327 2281 2353 2267 2330 2381 2328 2249 2413 2358 2293 2368 2314 2289 2215 2264 2322 2226 2339 2315 2365 2336 2305 2457 2333 2303 2337 2330 2345 2365 2277 2366 2242 2327 2319 2301 2343 2293 2361 2419 2404 2340 2285 2272 2385 2396 2299 2337 2265 2245 2338 2210 2363 2372 2300 2206 2294 2300 2259 2344 2380 2357 2283 2335 2310 2323 2291 2291 2312 2323 2209 2300 2287 2387 2283 2336 2362 2369 2304 2357 2337 2385 2269 2351 2296 2369 2383 2355 2369 2263 2386 2399 2296 2298 2290 2380 2331 2421 2407 2289 2362 2339 2290 2284 2318 2326 2317 2277 2377 2268 2351 2301 2312 2335 2246 2324 2354 2292 2315 2372 2329 2295 2347 2384 2236 2333 2317 2287 2250 2274 2367 2298 2329 2319 2319 2287 2352 2360 2321 2376 2387 2334 2306 2388 2329 2268 2340 2356 2230 2268 2368 2397 2310 2343 2329 2370 2318 2383 2376 2369 2353 2344 2299 2335 2380 2366 2306 2411 2348 2271 2293 2410 2324 2284 2308 2329 2280 2354 2264 2282 2285 2219 2296 2299 2311 2295 2422 2348 2257 2279 2310 2286 2338 2353 2315 2258 2227 2312 2260 2351 2378 2356 2261 2229 2306 2287 2316 2347 2299 2397 2426 2335 2395 2356 2399 2317 2301 2246 2422 2377 2414 2363 2289 2420 2372 2311 2332 2402 2359 2246 2371 2423 2519 2280 2376 2429 2390 2363 2334 2398 2302 2433 2437 2453 2511 2353 2384 2355 2495 2348 2421 2449 2418 2426 2415 2432 2477 2498 2402 2409 2421 2367 2421 2487 2498 2395 2469 2318 2423 2384 2387 2416 2468 2388 2402 2321 2332 2372 2430 2332 2416 2451 2282 2404 2381 2366 2501 2420 2385 2465 2362 2328 2361 2450 2363 2416 2430 2357 2306 2372 2324 2356 2422 2463 2390 2504 2458 2385 2458 2429 2371 2421 2400 2415 2358 2421 2441 2419 2385 2412 2398 2480 2431 2466 2427 2407 2448 2409 2472 2358 2335 2437 2410 2371 2469 2382 2392 2427 2475 2384 2414 2337 2376 2385 2332 2328 2468 2368 2352 2429 2335 2333 2391 2344 2377 2358 2456 2369 2271 2392 2282 2313 2345 2336 2323 2314 2306 2348 2350 2372 2392 2425 2360 2293 2345 2301 2395 2263 2302 2332 2385 2335 2323 2271 2378 2320 2327 2310 2351 2370 2339 2396 2349 2348 2338 2393 2447 2331 2417 2387 2343 2373 2372 2372 2342 2340 2326 2383 2347 2331 2334 2360 2302 2378 2373 2249 2349 2380 2377 2383 2386 2363 2301 2415 2246 2319 2370 2319 2360 2419 2325 2301 2308 2406 2418 2301 2359 2353 2366 2373 2294 2363 2362 2288 2335 2309 2301 2363 2383 2362 2338 2419 2352 2442 2391 2361 2352 2307 2297 2413 2404 2399 2304 2388 2373 2372 2357 2340 2406 2307 2431 2353 2300 2331 2324 2331 2398 2351 2339 2352 2357 2412 2375 2384 2353 2414 2384 2333 2374 2406 2368 2355 2362 2354 2375 2411 2407 2397 2453 2387 2467 2281 2393 2360 2398 2315 2409 2375 2304 2447 2347 2380 2463 2514 2460 2365 2444 2342 2489 2495 2531 2477 2521 2522 2512 2521 2591 2468 2435 2555 2644 2722 2680 2727 2804 2760 2843 2901 2843 2840 2870 2796 2874 2856 2981 2874 2912 3015 2959 2938 3016 3042 3052 3088 2968 3042 3077 3000 3059 2926 2985 2914 2873 2934 2818 2822 2982 2907 2839 2810 2928 2855 2792 2754 2721 2719 2781 2808 2794 2754 2715 2776 2729 2631 2658 2618 2656 2607 2536 2568 2542 2600 2512 2540 2561 2420 2444 2501 2454 2476 2507 2432 2444 2456 2414 2426 2412 2447 2479 2376 2493 2391 2498 2399 2509 2451 2506 2409 2439 2456 2445 2477 2390 2362 2338 2547 2611 2390 2398 2443 2447 2394 2466 2503 2396 2427 2473 2456 2516 2426 2409 2438 2359 2575 2422 2442 2407 2460 2399 2340 2353 2502 2351 2451 2428 2342 2394 2442 2404 2364 2321 2435 2451 2381 2473 2408 2425 2438 2281 2449 2434 2317 2375 2373 2391 2396 2395 2268 2354 2313 2426 2373 2435 2393 2432 2285 2343 2373 2314 2429 2319 2460 2455 2380 2314 2441 2471 2333 2353 2449 2430 2429 2422 2445 2386 2367 2432 2433 2424 2393 2469 2402 2378 2371 2387 2484 2462 2399 2448 2439 2372 2501 2333 2392 2429 2478 2424 2365 2492 2538 2424 2416 2434 2424 2486 2472 2376 2461 2519 2542 2421 2522 2467 2431 2329 2390 2453 2425 2418 2488 2423 2388 2491 2479 2462 2399 2408 2355 2416 2443 2508 2459 2359 2385 2451 2397 2437 2365 2343 2347 2345 2469 2385 2463 2366 2414 2323 2373 2361 2363 2365 2394 2416 2411 2389 2388 2457 2474 2395 2438 2348 2362 2358 2405 2445 2293 2350 2412 2352 2378 2431 2356 2337 2276 2359 2392 2408 2344 2366 2442 2284 2336 2435 2372 2373 2310 2303 2417 2361 2372 2420 2304 2352 2383 2447 2364 2322 2330 2394 2308 2341 2390 2330 2303 2361 2252 2331 2436 2331 2336 2377 2393 2349 2302 2282 2394 2364 2250 2367 2387 2356 2330 2370 2377 2234 2352 2377 2339 2320 2279 2380 2314 2320 2362 2297 2383 2348 2331 2307 2375 2279 2267 2384 2387 2392 2404 2328 2355 2381 2323 2337 2351 2281 2363 2314 2387 2289 2350 2372 2453 2318 2372 2365 2398 2374 2360 2275 2442 2227 2407 2351 2310 2423 2457 2263 2350 2407 2390 2356 2333 2364 2377 2291 2258 2358 2318 2310 2356 2382 2339 2351 2311 2350 2289 2379 2326 2334 2341 2330 2367 2373 2352 2434 2312 2419 2332 2315 2319 2406 2363 2366 2356 2366 2365 2360 2272 2365 2297 2372 2290 2376 2329 2342 2377 2348 2293 2385 2276 2295 2338 2413 2398 2352 2263 2353 2317 2423 2351 2412 2380 2357 2316 2313 2301 2353 2303 2356 2360 2345 2307 2277 2381 2387 2334 2365 2302 2329 2297 2328 2278 2312 2327 2326 2350 2306 2318 2309 2349 2372 2216 2419 2445 2323 2361 2317 2245 2396 2329 2273 2413 2347 2303 2374 2443 2374 2323 2305 2405 2420 2275 2415 2307 2369 2404 2409 2306 2288 2321 2290 2465 2321 2288 2359 2390 2336 2374 2326 2338 2338 2291 2386 2351 2349 2347 2305 2405 2316 2407 2326 2318 2241 2411 2365 2390 2343 2355 2365 2460 2287 2378 2344 2283 2269 2285 2292 2320 2416 2413 2370 2297 2354 2288 2304 2288 2313 2375 2417 2364 2332 2321 2296 2327 2349 2416 2238 2393 2308 2405 2310 2374 2288 2356 2308 2382 2287 2295 2306 2351 2348 2278 2225 2351 2352 2295 2326 2445 2279 2450 2297 2367 2307 2247 2389 2295 2367 2329 2343 2357 2331 2423 2344 2236 2357 2463 2367 2354 2397 2335 2297 2407 2392 2305 2439 2400 2391 2337 2347 2373 2418 2439 2370 2389 2355 2409 2328 2327 2395 2288 2345 2431 2412 2516 2364 2278 2408 2347 2320 2440 2361 2291 2348 2289 2309 2488 2401 2391 2313 2392 2434 2397 2366 2420 2395 2365 2333 2542 2449 2390 2351 2477 2362 2397 2371 2450 2506 2353 2485 2385 2410 2364 2448 2343 2425 2425 2465 2502 2406 2338 2437 2353 2420 2417 2417 2333 2517 2412 2441 2490 2434 2399 2477 2444 2435 2398 2384 2431 2468 2434 2405 2476 2372 2411 2310 2380 2354 2401 2459 2405 2410 2432 2458 2509 2381 2309 2348 2234 2399 2436 2323 2324 2419 2385 2346 2354 2360 2412 2388 2409 2486 2447 2335 2327 2357 2347 2415 2340 2375 2363 2402 2391 2363 2372 2312 2375 2387 2333 2330 2364 2334 2370 2426 2271 2330 2414 2295 2334 2374 2328 2413 2326 2318 2330 2325 2359 2416 2376 2383 2291 2381 2326 2396 2399 2348 2389 2442 2355 2437 2374 2356 2284 2341 2480 2411 2419 2378 2340 2309 2370 2375 2355 2305 2362 2378 2370 2360 2376 2448 2392 2368 2408 2375 2366 2332 2412 2315 2417 2392 2360 2353 2345 2363 2327 2315 2308 2427 2332 2348 2343 2354 2380 2323 2461 2418 2456 2404 2313 2333 2402 2389 2371 2338 2304 2418 2425 2323 2356 2358 2264 2404 2382 2365 2314 2420 2401 2299 2434 2388 2346 2439 2314 2384 2379 2425 2343 2361 2250 2387 2327 2371 2367 2412 2352 2414 2411 2351 2393 2360 2372 2378 2284 2275 2337 2380 2435 2392 2351 2425 2357 2358 2404 2356 2372 2409 2314 2358 2329 2316 2233 2363 2289 2390 2397 2414 2349 2360 2390 2317 2416 2366 2389 2385 2292 2420 2381 2441 2402 2458 2513 2420 2453 2421 2417 2404 2398 2369 2455 2345 2454 2374 2412 2366 2357 2397 2324 2461 2475 2435 2378 2470 2452 2339 2473 2471 2471 2399 2452 2498 2559 2531 2499 2496 2568 2554 2588 2625 2646 2618 2562 2620 2675 2772 2725 2687 2721 2640 2687 2753 2715 2749 2707 2770 2773 2738 2837 2789 2820 2739 2913 2830 2821 2827 2874 2823 2891 2686 2694 2855 2775 2732 2770 2682 2722 2743 2693 2615 2763 2794 2748 2625 2670 2618 2669 2657 2717 2601 2632 2591 2677 2552 2534 2551 2546 2640 2474 2639 2505 2616 2512 2433 2434 2436 2502 2433 2434 2453 2551 2384 2425 2494 2440 2411 2490 2444 2432 2446 2353 2393 2426 2430 2403 2383 2450 2506 2489 2513 2466 2456 2378 2382 2408 2413 2461 2459 2477 2408 2350 2431 2487 2453 2427 2462 2426 2344 2362 2494 2340 2398 2364 2354 2463 2432 2406 2382 2391 2390 2454 2408 2331 2433 2384 2474 2349 2470 2533 2416 2451 2437 2395 2406 2387 2380 2427 2388 2418 2359 2324 2361 2482 2434 2337 2446 2449 2402 2391 2398 2378 2387 2432 2412 2376 2407 2446 2525 2470 2337 2463 2344 2417 2436 2369 2459 2346 2357 2404 2312 2364 2415 2412 2429 2453 2345 2406 2356 2369 2387 2394 2349 2371 2484 2424 2369 2399 2441 2383 2495 2435 2375 2442 2463 2452 2294 2386 2360 2385 2431 2371 2384 2595 2407 2407 2460 2341 2311 2434 2362 2414 2383 2413 2401 2361 2428 2422 2344 2409 2429 2343 2409 2423 2398 2309 2357 2442 2330 2350 2369 2349 2498 2448 2358 2410 2341 2343 2346 2463 2309 2415 2357 2348 2404 2432 2391 2352 2370 2419 2295 2382 2439 2397 2409 2321 2429 2383 2394 2397 2344 2331 2371 2369 2403 2436 2355 2282 2392 2357 2417 2393 2406 2381 2449 2337 2315 2370 2423 2445 2362 2385 2362 2398 2337 2351 2374 2372 2414 2357 2275 2376 2412 2420 2524 2488 2321 2325 2336 2347 2318 2317 2348 2352 2405 2336 2417 2380 2371 2413 2414 2359 2360 2369 2285 2416 2330 2413 2308 2343 2340 2286 2352 2359 2355 2398 2399 2378 2343 2347 2293 2392 2294 2407 2417 2435 2292 2262 2400 2301 2312 2259 2378 2393 2456 2408 2374 2374 2377 2314 2296 2245 2350 2351 2322 2280 2302 2344 2414 2276 2322 2336 2373 2397 2374 2223 2319 2356 2327 2414 2424 2354 2406 2357 2314 2360 2360 2362 2367 2362 2291 2252 2347 2367 2380 2366 2373 2377 2276 2431 2307 2349 2396 2368 2296 2346 2358 2418 2286 2396 2367 2376 2397 2438 2337 2297 2420 2320 2380 2272 2360 2289 2353 2338 2321 2298 2431 2352 2402 2373 2268 2304 2358 2361 2309 2253 2417 2396 2272 2361 2402 2404 2397 2330 2311 2326 2255 2346 2363 2377 2388 2317 2333 2444 2329 2380 2331 2464 2332 2324 2361 2439 2292 2361 2346 2303 2390 2438 2403 2295 2342 2409 2372 2411 2342 2286 2417 2360 2272 2385 2472 2256 2334 2276 2280 2379 2350 2296 2284 2345 2369 2277 2414 2394 2359 2380 2376 2390 2385 2350 2329 2315 2376 2293 2411 2386 2305 2374 2356 2293 2249 2274 2400 2312 2387 2377 2365 2339 2346 2319 2346 2379 2394 2329 2371 2381 2372 2397 2369 2327 2338 2339 2274 2316 2337 2288 2331 2363 2315 2377 2298 2351 2354 2354 2399 2351 2341 2345 2337 2410 2417 2366 2363 2336 2357 2338 2282 2351 2329 2335 2340 2396 2404 2278 2391 2338 2381 2360 2351 2344 2333 2297 2323 2387 2313 2430 2380 2351 2325 2271 2391 2330 2336 2361 2361 2428 2317 2340 2347 2373 2281 2412 2353 2472 2375 2377 2343 2361 2336 2316 2416 2398 2393 2302 2294 2391 2392 2450 2484 2374 2354 2331 2291 2407 2378 2334 2385 2400</counts>
			</dataPoints>
		</scan>
	</xrdMeasurement>
</xrdMeasurements>
