<?xml version="1.0"?>
<xrdMeasurements xmlns="http://www.xrdml.com/XRDMeasurement/2.3" xmlns:xsi="http://www.w3.org/2001/XMLSchema-instance" xsi:schemaLocation="http://www.xrdml.com/XRDMeasurement/2.3 http://www.xrdml.com/XRDMeasurement/2.3/XRDMeasurement.xsd" status="Completed" recordIdentifier="{31827467-837E-4576-9EA6-D23DF31EC966}">
	<comment>
		<entry/>
	</comment>
	<sample type="To be analyzed">
		<id>GPSS_Li1p7Mg0p9Y0p1Cu0p2Cl4_111825_691cd5d8f3837ac4a0a99fd0</id>
		<name></name>
		<preparedBy></preparedBy>
	</sample>
	<xrdMeasurement measurementType="Scan" status="Completed" sampleMode="Reflection">
		<usedWavelength intended="K-Alpha 1">
			<kAlpha1 unit="Angstrom">1.5405980</kAlpha1>
			<kAlpha2 unit="Angstrom">1.5444260</kAlpha2>
			<kBeta unit="Angstrom">1.3922500</kBeta>
			<ratioKAlpha2KAlpha1>0.5000</ratioKAlpha2KAlpha1>
		</usedWavelength>
		<incidentBeamPath>
			<radius unit="mm">145.00</radius>
			<xRayTube id="1010048" name="Empyrean Cu LFF HR (9430 033 7310x)">
				<tension unit="kV">40.0</tension>
				<current unit="mA">15.0</current>
				<anodeMaterial>Cu</anodeMaterial>
				<focus type="Line">
					<length unit="mm">12.0</length>
					<width unit="mm">0.4</width>
					<takeOffAngle unit="deg">6.0</takeOffAngle>
				</focus>
			</xRayTube>
			<sollerSlit id="21010002" name="Soller slits 0.04 rad.">
				<opening unit="rad">0.0400</opening>
			</sollerSlit>
			<mask id="22031000" name="Fixed mask 13 mm">
				<width unit="mm">9.00</width>
			</mask>
			<divergenceSlit id="22120001" name="Divergence slit 1°" xsi:type="fixedDivergenceSlitType">
				<distanceToSample unit="mm">50.00</distanceToSample>
				<height unit="mm">1.52</height>
			</divergenceSlit>
		</incidentBeamPath>
		<sampleMovement xsi:type="spinningSampleMovementType">
			<spinnerRevolutionTime unit="seconds">1.0</spinnerRevolutionTime>
		</sampleMovement>
		<diffractedBeamPath>
			<radius unit="mm">145.00</radius>
			<antiScatterSlit id="22090040" name="AS slit 9 mm (PIXcel)" xsi:type="fixedAntiScatterSlitType">
				<height unit="mm">9.00</height>
			</antiScatterSlit>
			<sollerSlit id="21020003" name="Large Soller slits 0.04 rad.">
				<opening unit="rad">0.0400</opening>
			</sollerSlit>
			<filter id="20030001" name="Large beta-filter Nickel">
				<material>Ni</material>
				<thickness unit="mm">0.020</thickness>
			</filter>
			<detector id="7010019" name="PIXcel1D-Medipix3 detector" xsi:type="rtmsDetectorType">
				<phd unit="keV">
					<lowerLevel>4.02</lowerLevel>
					<upperLevel>11.27</upperLevel>
				</phd>
				<mode>Scanning</mode>
				<activeLength unit="deg">5.542</activeLength>
			</detector>
		</diffractedBeamPath>
		<scan appendNumber="0" mode="Continuous" scanAxis="Gonio" status="Completed">
			<header>
				<startTimeStamp>2025-11-21T19:25:45-08:00</startTimeStamp>
				<endTimeStamp>2025-11-21T19:33:52-08:00</endTimeStamp>
				<author>
					<name>AutomatedUser</name>
				</author>
				<source>
					<applicationSoftware version="1.7b (136)">PANalytical Aeris Instrument Suite</applicationSoftware>
					<instrumentControlSoftware version="3.2.00000000 20240306">AERIS</instrumentControlSoftware>
					<instrumentID>950485</instrumentID>
				</source>
			</header>
			<dataPoints>
				<positions axis="2Theta" unit="deg">
					<startPosition>10.00943322</startPosition>
					<endPosition>99.99442286</endPosition>
				</positions>
				<positions axis="Omega" unit="deg">
					<startPosition>5.00471661</startPosition>
					<endPosition>49.99721143</endPosition>
				</positions>
				<commonCountingTime unit="seconds">12.495</commonCountingTime>
				<counts unit="counts">3052 3001 3102 2949 3010 2995 2978 3095 2964 3054 2990 2987 3042 3054 3034 2977 2962 2957 2910 2853 2914 3086 2999 3027 2962 3014 3113 3007 2991 3006 2957 3144 2982 2980 3060 2979 3058 2957 3086 2998 3028 3136 3010 3089 3057 3083 2964 3120 3058 3041 3113 3043 3055 3055 3088 3106 3224 2971 3121 3062 3032 3118 3083 3108 3058 3093 3122 3090 3024 3038 3037 3145 3125 3146 3132 3133 3164 3112 3070 3226 3089 3104 3052 3153 3158 3130 3184 3273 3192 3104 3139 3143 3168 3049 3108 3184 3204 3128 3141 3284 3195 3112 3151 3171 3184 3124 3253 3197 3209 3142 3255 3241 3203 3199 3307 3115 3221 3298 3225 3219 3177 3251 3297 3249 3111 3339 3161 3225 3227 3154 3269 3157 3214 3263 3258 3243 3225 3319 3283 3299 3187 3221 3258 3262 3200 3286 3296 3258 3280 3263 3289 3339 3359 3114 3227 3212 3284 3151 3247 3298 3196 3294 3336 3237 3232 3326 3268 3236 3250 3241 3314 3414 3181 3215 3336 3289 3265 3218 3248 3234 3271 3255 3300 3287 3200 3189 3315 3222 3249 3206 3233 3200 3221 3229 3252 3184 3219 3201 3242 3159 3191 3119 3215 3195 3287 3298 3210 3230 3218 3215 3359 3226 3247 3249 3305 3181 3229 3179 3282 3114 3263 3134 3161 3186 3178 3150 3093 3299 3177 3231 3232 3160 3145 3207 3146 3162 3119 3176 3211 3226 3170 3107 3122 3157 3160 3056 3071 3085 3144 3170 3263 3080 3130 3019 3116 3200 3168 3121 3154 3206 3165 3248 3151 3137 3250 3077 3166 3164 3107 3089 3104 3129 3122 3114 3171 3080 3135 3088 3089 3182 3196 3144 3154 3144 3138 3253 3115 3162 3042 3177 3117 3212 3155 3249 3066 3176 3128 3162 3247 3263 3197 3247 3190 3178 3222 3208 3196 3175 3112 3249 3167 3291 3287 3221 3226 3169 3302 3341 3235 3413 3358 3285 3235 3160 3233 3242 3267 3324 3387 3183 3174 3155 3249 3359 3395 3279 3341 3251 3230 3176 3321 3339 3257 3348 3302 3441 3450 3299 3357 3446 3359 3449 3422 3319 3416 3487 3416 3386 3271 3356 3396 3445 3299 3436 3346 3503 3518 3387 3474 3524 3388 3485 3422 3412 3489 3468 3449 3466 3531 3519 3491 3451 3582 3507 3643 3408 3467 3543 3529 3577 3588 3451 3573 3469 3626 3500 3591 3527 3542 3513 3545 3611 3604 3593 3600 3592 3605 3679 3651 3587 3656 3666 3671 3685 3626 3724 3708 3778 3769 3751 3812 3823 3781 3926 3756 3800 3981 3988 3977 4025 4153 4149 4168 4327 4348 4405 4389 4559 4494 4532 4625 4642 4508 4330 4433 4307 4333 4281 4180 4082 4050 4063 3948 4011 3930 3931 3939 3866 3744 3819 3696 3780 3764 3726 3782 3830 3639 3665 3757 3811 3724 3666 3655 3659 3562 3594 3509 3708 3706 3555 3647 3504 3575 3404 3524 3554 3530 3559 3543 3517 3486 3499 3422 3460 3483 3433 3392 3381 3528 3433 3456 3426 3425 3496 3390 3375 3407 3452 3429 3450 3407 3378 3310 3418 3423 3431 3351 3383 3474 3243 3433 3379 3246 3257 3461 3308 3362 3334 3492 3442 3445 3261 3338 3377 3360 3431 3346 3403 3326 3329 3399 3418 3390 3462 3470 3382 3278 3404 3340 3379 3322 3196 3302 3282 3316 3317 3284 3169 3151 3231 3221 3188 3244 3224 3220 3238 3267 3349 3305 3180 3282 3344 3233 3149 3161 3242 3109 3055 3187 3242 3160 3094 3285 3202 3220 3222 3120 3213 3159 3222 3201 3184 3169 3215 3093 3117 3268 3071 3121 3207 3102 3051 2992 3168 3104 3144 3119 3116 3053 3080 3045 3175 2986 3068 3066 3124 3073 3171 3132 3147 3093 3178 3074 2980 3041 3106 3066 3168 3164 2962 3047 3106 2986 3020 3053 3017 3108 3103 3114 2951 3067 2969 3002 3037 3033 3055 3000 2928 3033 3010 3063 2992 3055 3010 2975 3105 3015 2961 3040 3005 3069 3125 2963 3016 2888 3008 2974 3024 2953 3048 3063 3015 3032 3092 3098 2959 3006 2997 2921 2991 3057 3049 2956 2900 3040 2934 2927 3038 3063 2990 2921 2970 2949 2947 2927 3017 2917 2957 2973 2970 2971 2986 2925 2828 2971 2956 2924 2947 2863 2881 2967 2999 2914 2988 3003 2938 2916 3008 3001 2949 2863 2983 2947 2945 2884 2920 2881 2888 2997 2883 2888 3018 2931 2883 2910 2941 2979 2950 2860 3024 3000 3000 2911 2878 3015 2892 2985 3074 2923 3005 2976 2937 2888 3023 2905 2902 2873 2872 2951 2948 2882 2916 2968 2928 2925 2842 2926 2884 2880 2873 2879 2911 2926 2899 2877 2894 2991 2920 2888 2817 2852 2955 2872 2947 2789 2949 2860 2853 2860 2962 2790 2978 2863 2974 2949 2851 2885 2929 2830 2866 2838 2898 2745 2801 2839 2886 2851 2846 2904 2859 2870 2861 2854 2750 2918 2885 2857 2801 2715 2796 2794 2913 2842 2746 2799 2892 2800 2755 2763 2858 2720 2790 2801 2866 2759 2709 2736 2869 2902 2817 2831 2717 2826 2784 2862 2784 2646 2776 2788 2694 2825 2814 2863 2785 2727 2856 2798 2770 2821 2705 2836 2777 2743 2795 2764 2784 2773 2838 2744 2750 2626 2699 2686 2800 2833 2764 2670 2689 2782 2829 2792 2707 2718 2681 2745 2702 2708 2723 2648 2705 2664 2714 2749 2774 2685 2824 2661 2681 2808 2745 2710 2603 2719 2647 2712 2682 2706 2737 2704 2732 2684 2687 2694 2661 2674 2760 2723 2636 2748 2732 2833 2677 2586 2718 2636 2749 2642 2692 2636 2646 2666 2619 2645 2669 2690 2566 2692 2688 2651 2683 2730 2572 2597 2692 2681 2702 2709 2565 2545 2538 2632 2626 2600 2653 2545 2567 2644 2586 2655 2608 2617 2626 2623 2621 2643 2539 2620 2608 2654 2705 2702 2533 2616 2616 2570 2662 2674 2540 2616 2677 2603 2551 2624 2665 2696 2546 2604 2526 2727 2589 2580 2669 2575 2509 2722 2639 2617 2611 2677 2628 2514 2567 2717 2595 2682 2652 2522 2654 2607 2604 2517 2605 2649 2572 2673 2564 2616 2587 2582 2622 2563 2523 2637 2507 2655 2673 2677 2586 2693 2577 2593 2550 2572 2686 2517 2564 2634 2569 2599 2648 2589 2632 2622 2648 2653 2622 2648 2652 2640 2622 2665 2755 2625 2636 2630 2540 2580 2718 2693 2638 2701 2521 2640 2619 2529 2648 2582 2673 2542 2648 2655 2596 2551 2618 2697 2554 2573 2631 2665 2569 2579 2564 2559 2679 2607 2649 2602 2572 2625 2686 2591 2604 2604 2599 2633 2610 2645 2671 2575 2615 2693 2576 2594 2511 2544 2597 2549 2580 2545 2602 2575 2490 2643 2612 2634 2597 2639 2498 2549 2488 2548 2554 2595 2560 2558 2522 2606 2570 2508 2561 2580 2608 2555 2613 2568 2562 2488 2529 2601 2534 2493 2483 2446 2571 2549 2531 2435 2491 2509 2539 2536 2511 2495 2420 2477 2497 2538 2396 2493 2469 2480 2513 2456 2401 2466 2432 2452 2426 2392 2495 2417 2424 2420 2378 2352 2363 2433 2472 2452 2478 2475 2414 2435 2472 2389 2463 2391 2423 2435 2372 2393 2372 2360 2446 2372 2291 2360 2341 2436 2421 2375 2349 2253 2314 2321 2296 2309 2291 2401 2348 2283 2245 2247 2421 2322 2320 2331 2243 2262 2209 2318 2341 2207 2263 2288 2273 2209 2228 2244 2310 2118 2169 2263 2252 2212 2359 2111 2342 2178 2193 2249 2151 2185 2137 2140 2255 2198 2157 2183 2208 2231 2188 2207 2123 2142 2126 2118 2162 2174 2182 2233 2117 2132 2134 2126 2139 2155 2107 2078 2156 2109 2165 2196 2118 2109 2103 2079 2123 2198 2126 2064 2067 2165 2188 2125 2211 2225 2122 2144 2186 2245 2331 2254 2264 2328 2306 2238 2418 2395 2554 2435 2570 2541 2628 2640 2554 2621 2692 2705 2588 2577 2449 2538 2441 2451 2293 2248 2206 2228 2273 2215 2199 2151 2141 2203 2130 2063 2077 2045 2029 2059 2077 2133 2054 2123 2089 1982 2000 2009 1948 1983 2026 1995 1967 2047 2032 2028 1970 1999 2013 1954 1991 1946 1931 1956 1972 1958 1868 1930 2078 1998 1939 2052 1917 1965 2085 2036 1901 1997 1904 1952 1960 1924 1946 1908 1951 1954 1948 1983 1922 1951 1955 1948 1955 1992 1823 1960 1949 1959 2004 1939 1962 2016 2015 1926 1908 1916 1947 1862 1879 1919 1951 1974 1941 1925 1969 2025 1894 1992 2033 1999 1944 1955 1942 1965 1972 2011 1918 1971 1994 1995 2031 1972 2003 1957 1945 1991 1947 1982 1966 1968 1959 1894 1969 1905 2011 1977 2010 1858 1915 1962 1927 2034 1932 2001 1966 1986 1981 1930 1986 1963 2013 1995 1945 1858 1988 1939 2041 1905 1902 2006 1897 2001 1945 1881 2019 1932 1902 1866 1915 1948 1945 2006 2028 1938 1900 1942 1875 1951 2004 1997 2024 2010 1956 2007 2016 1928 1932 2040 1942 2013 2026 1991 1936 2020 1992 1947 2018 1989 1966 1949 2014 2026 2020 1968 2009 2013 1902 1987 2045 2007 1996 1951 2012 1987 2013 2108 1988 2042 2061 2064 2020 2161 2106 2061 2055 2183 2091 2010 2112 2047 1977 2042 2012 2063 2005 2015 2087 2055 2048 2018 2014 2028 2042 1953 1961 1991 1964 1926 2013 1948 1894 1924 1891 1908 1881 1939 1908 1911 1850 1883 1870 1865 1886 1918 1860 1890 1837 1796 1855 1802 1825 1790 1717 1834 1804 1880 1873 1923 1827 1855 1847 1871 1816 1802 1831 1797 1809 1745 1781 1746 1759 1753 1822 1731 1740 1687 1739 1829 1786 1782 1814 1818 1832 1700 1730 1811 1728 1787 1756 1767 1738 1693 1701 1753 1733 1708 1717 1774 1725 1778 1723 1737 1728 1794 1794 1705 1774 1768 1783 1755 1730 1748 1698 1636 1651 1761 1718 1737 1721 1691 1671 1736 1719 1794 1731 1790 1664 1727 1721 1659 1795 1742 1700 1633 1708 1661 1702 1735 1754 1694 1709 1727 1678 1708 1676 1788 1808 1711 1729 1745 1814 1780 1803 1800 1907 1835 2004 1901 1999 2019 2111 2077 2194 2357 2354 2401 2588 2771 2872 3034 3061 3177 3318 3501 3398 3404 3415 3388 3326 3302 3255 3025 2996 2906 2787 2615 2590 2461 2475 2280 2228 2134 2114 2032 1969 2028 1976 1914 1820 1736 1883 1827 1890 1847 1796 1780 1771 1732 1719 1760 1757 1678 1779 1730 1721 1709 1778 1766 1684 1678 1684 1679 1653 1646 1687 1630 1631 1727 1689 1693 1674 1684 1765 1651 1675 1708 1638 1695 1628 1672 1595 1683 1691 1738 1706 1728 1721 1763 1801 1771 1781 1790 1772 1697 1820 1838 1807 1914 1900 1855 1888 1863 1918 1957 2069 2178 2109 2224 2277 2335 2459 2691 2759 3032 3123 3245 3527 3824 4159 4570 5094 5641 6385 7276 7976 8894 9898 11303 12291 13351 14463 15216 16276 16802 17059 17129 17267 16753 16192 15693 15220 13890 12888 11979 11217 10088 9433 8437 7715 6852 6205 5505 5136 4710 4466 4043 3702 3742 3467 3258 3199 3075 3005 3048 2882 2758 2776 2685 2661 2618 2511 2520 2419 2334 2325 2191 2123 2106 2001 1933 1944 1989 1854 1830 1798 1738 1645 1627 1600 1671 1641 1517 1618 1556 1466 1545 1525 1540 1446 1429 1551 1398 1438 1440 1483 1397 1465 1449 1459 1504 1499 1434 1454 1449 1445 1475 1558 1448 1389 1377 1429 1415 1356 1425 1385 1438 1446 1391 1456 1381 1481 1406 1445 1395 1385 1431 1340 1423 1347 1427 1441 1336 1394 1397 1367 1484 1411 1422 1410 1446 1447 1499 1462 1393 1414 1457 1426 1475 1435 1437 1429 1335 1376 1356 1420 1383 1419 1365 1384 1515 1471 1430 1468 1467 1549 1407 1603 1529 1594 1588 1666 1699 1642 1748 1745 1813 1775 1737 1924 1824 1789 1780 1819 1715 1711 1729 1665 1633 1548 1617 1488 1542 1452 1560 1495 1514 1453 1478 1412 1396 1366 1440 1332 1389 1390 1352 1402 1453 1345 1357 1321 1393 1342 1403 1388 1330 1300 1318 1289 1349 1302 1344 1343 1386 1346 1404 1372 1315 1326 1309 1338 1329 1395 1371 1340 1340 1376 1386 1330 1404 1383 1357 1287 1304 1356 1324 1358 1263 1328 1208 1282 1329 1306 1319 1305 1279 1300 1247 1329 1334 1323 1297 1343 1343 1252 1356 1394 1299 1328 1393 1398 1418 1405 1490 1451 1492 1499 1492 1611 1508 1610 1459 1544 1469 1559 1527 1500 1497 1436 1470 1483 1460 1403 1429 1341 1435 1368 1319 1333 1344 1300 1370 1344 1291 1353 1311 1267 1272 1193 1212 1196 1246 1296 1226 1200 1251 1252 1191 1310 1233 1222 1197 1169 1217 1246 1227 1222 1259 1304 1229 1246 1208 1182 1255 1214 1237 1195 1275 1222 1221 1211 1231 1215 1203 1262 1235 1256 1209 1271 1302 1313 1269 1245 1254 1271 1261 1286 1245 1322 1268 1250 1296 1295 1233 1253 1282 1283 1290 1264 1257 1307 1410 1351 1342 1291 1314 1289 1307 1287 1308 1348 1330 1412 1374 1387 1331 1440 1420 1393 1388 1422 1501 1386 1323 1416 1399 1333 1404 1356 1415 1374 1404 1397 1366 1329 1446 1431 1430 1438 1380 1436 1421 1440 1439 1393 1396 1430 1466 1478 1477 1527 1481 1448 1545 1481 1558 1506 1598 1567 1592 1598 1801 1772 1813 1954 2085 2049 2237 2492 2562 2804 3026 3563 3596 4114 4515 5105 5694 6534 7203 7862 9025 9861 10731 11612 11922 12395 12856 13108 13168 13103 13109 12769 12346 11556 10924 10527 9562 8973 8283 7625 6869 6250 5726 5153 4693 4146 3993 3663 3261 2987 2876 2629 2534 2480 2432 2365 2235 2156 2058 2028 2104 1996 2064 1946 1993 1874 1964 1972 1880 1909 1805 1834 1797 1771 1777 1852 1691 1726 1615 1602 1579 1589 1528 1522 1437 1398 1428 1471 1338 1353 1346 1263 1315 1295 1280 1256 1336 1270 1314 1291 1259 1273 1316 1270 1301 1274 1270 1253 1285 1250 1235 1223 1311 1349 1272 1264 1267 1367 1332 1318 1338 1356 1416 1347 1427 1463 1374 1444 1396 1466 1421 1428 1433 1461 1493 1508 1465 1530 1459 1504 1506 1535 1531 1467 1507 1522 1475 1419 1429 1439 1408 1370 1402 1335 1386 1333 1314 1292 1298 1282 1296 1270 1255 1194 1250 1279 1230 1213 1255 1188 1177 1138 1223 1146 1172 1196 1203 1239 1167 1175 1065 1155 1150 1213 1168 1188 1150 1179 1150 1206 1132 1122 1223 1066 1155 1084 1147 1192 1148 1144 1128 1091 1133 1076 1055 1100 1105 1138 1112 1183 1162 1196 1158 1179 1084 1141 1125 1091 1127 1159 1113 1127 1064 1094 1178 1165 1142 1068 1143 1113 1121 1105 1098 1090 1099 1127 1073 1035 1093 1138 1109 1074 1100 1092 1110 1090 1135 1082 1078 1066 1109 1024 1080 1106 1072 1026 1046 1043 1097 1147 1104 1033 1092 1070 1137 1073 1052 1088 1156 1094 1083 1039 1094 1084 1044 1148 1095 1122 1088 1023 1021 1142 1111 1055 1052 1130 1076 1109 1062 1085 1136 1049 1072 1110 1043 1072 1076 1100 1049 1084 1055 1109 1040 1080 1060 1097 1113 1040 1139 1177 1098 1149 1110 1149 1152 1168 1169 1200 1212 1216 1170 1212 1204 1243 1179 1248 1134 1237 1138 1213 1189 1126 1130 1105 1112 1213 1131 1132 1094 1085 1043 1078 1027 1050 1066 1020 1056 1032 1019 997 1088 1062 1023 996 1062 1014 1088 1082 1044 953 1081 1025 993 1031 1051 1052 1106 1100 1066 1075 1029 1033 1080 1035 994 971 1041 1010 991 1017 1080 1052 1032 1085 1011 1024 1070 976 1015 1035 996 985 1044 976 1026 1047 1018 985 998 1012 991 1028 1013 1032 975 950 1003 1014 975 1068 972 1009 976 1018 1097 1006 1027 1013 992 1040 976 1000 1001 1009 1017 1027 1025 987 1007 962 992 943 1026 962 994 961 1031 1000 984 1013 987 1006 960 1038 1021 982 936 978 938 964 943 1006 922 1001 1006 991 965 994 971 992 1020 956 943 1010 1024 973 1015 915 918 936 909 938 988 987 949 1023 987 999 928 979 1004 941 962 1012 960 947 953 955 999 958 929 933 983 965 899 994 928 982 1009 947 997 978 986 975 950 959 983 953 925 908 947 978 925 981 918 922 952 959 1012 946 991 943 945 921 958 994 908 978 973 967 954 955 952 986 973 980 930 888 921 957 893 957 954 930 952 963 1015 944 972 995 956 1001 1015 963 1000 985 977 990 990 1017 926 955 911 1034 953 920 969 965 952 919 954 943 987 961 938 909 910 990 1004 932 954 957 936 943 944 948 962 922 973 956 938 999 996 968 926 1004 994 966 950 973 976 1014 937 1023 1010 1037 1004 1006 984 1138 1038 1090 1061 1077 1085 1089 1142 1140 1135 1125 1119 1216 1188 1142 1173 1140 1185 1173 1125 1130 1127 1097 1087 1087 1075 1070 1051 1075 1016 1053 1021 991 994 1039 962 980 944 998 964 966 974 979 995 1005 967 930 924 967 938 965 960 969 961 943 1008 1051 973 960 909 930 931 932 953 952 953 945 935 948 990 923 908 960 952 939 966 965 931 954 906 973 982 892 940 894 988 941 926 882 929 913 961 938 953 959 961 907 955 932 904 944 957 939 977 917 912 885 971 937 933 936 954 941 947 938 919 959 933 941 934 945 874 978 953 932 981 923 938 889 957 925 907 943 949 946 903 928 933 917 915 914 979 882 954 970 997 983 977 987 997 1016 1043 1077 1081 1126 1114 1099 1120 1119 1134 1078 1145 1111 1171 1159 1173 1133 1087 1138 1214 1063 1084 1072 1032 1069 1107 1077 1080 1058 1008 1122 1086 1083 1050 1069 1049 997 1073 1047 980 996 1015 973 1041 1001 1089 966 971 963 979 1024 1009 991 906 950 958 1022 944 935 942 946 965 921 954 924 972 986 929 974 920 935 928 919 950 930 925 895 912 895 934 890 920 952 939 969 950 957 993 981 992 995 989 999 997 947 984 977 969 998 945 993 985 1019 945 1016 943 896 1001 913 979 977 953 967 904 941 966 957 932 934 953 912 908 884 889 902 950 969 952 935 951 891 913 851 923 904 852 908 964 934 880 912 916 928 918 956 961 899 895 864 916 937 948 968 869 956 913 944 913 885 935 936 957 922 949 921 922 952 930 935 975 941 900 907 896 935 898 949 939 933 895 928 959 913 955 934 891 971 960 904 988 940 989 962 950 923 923 943 910 842 939 847 930 919 912 914 996 901 950 921 905 928 926 910 929 969 913 934 932 887 916 919 992 933 977 895 954 908 978 1013 915 1003 1004 968 1039 1002 1034 968 1019 1068 1044 1031 1142 1095 1150 1276 1276 1427 1420 1510 1588 1702 1838 1973 2048 2205 2277 2402 2343 2340 2452 2618 2485 2471 2346 2377 2397 2317 2203 2288 2003 1965 1988 1829 1776 1744 1636 1508 1432 1392 1347 1238 1286 1143 1203 1118 1070 1126 1047 1076 1049 1002 967 1004 1009 984 942 937 963 999 996 955 971 935 884 903 961 948 922 900 930 861 896 858 924 878 838 974 860 891 889 890 860 871 882 840 916 921 906 900 919 872 856 899 879 869 859 897 880 891 899 899 891 896 857 851 891 866 899 864 818 899 884 929 882 892 907 850 922 899 964 888 843 900 876 940 917 937 905 900 923 909 941 915 929 892 956 903 968 939 953 975 966 1009 968 1021 972 1051 1048 994 1015 1033 1010 983 1001 987 1083 1020 988 1051 994 995 951 1008 945 951 904 904 960 912 919 906 924 919 945 946 901 946 941 851 936 875 942 853 880 850 894 881 863 904 876 865 903 849 883 895 881 947 862 898 902 860 886 975 903 917 871 899 906 895 858 904 881 915 886 833 875 835 944 919 874 828 887 859 886 864 879 914 869 901 898 948 908 852 864 902 927 923 911 924 904 869 960 908 958 885 966 905 924 905 909 937 947 952 901 917 961 958 941 989 973 906 996 933 903 976 908 979 912 936 969 918 959 958 944 950 972 936 989 982 1007 992 1030 1014 1020 1006 1024 1039 1000 985 998 997 971 1001 1036 1091 1023 1031 1056 1011 976 967 956 999 1009 1026 971 1032 1065 959 974 1018 968 934 950 964 1024 971 966 959 962 1037 994 1009 945 1019 981 981 935 918 981 969 970 1017 1094 1054 1023 1037 1007 1052 1127 1066 1143 1104 1108 1087 1104 1100 1078 1117 1137 1121 1141 1068 1184 1144 1092 1145 1089 1106 1089 1102 1092 1121 1151 1116 1129 1130 1152 1173 1104 1145 1243 1115 1157 1183 1147 1149 1200 1215 1225 1215 1283 1218 1254 1336 1431 1444 1528 1575 1704 1766 1853 2027 2141 2338 2659 2856 3169 3591 4101 4470 5126 5767 6553 7019 7666 8294 8706 9296 9438 9572 9705 9694 9690 9632 9271 9002 8568 8602 8049 7977 7503 7221 6816 6291 5803 5418 5062 4803 4222 3880 3569 3214 2931 2772 2457 2231 2123 1950 1846 1732 1626 1581 1591 1574 1358 1320 1355 1278 1301 1245 1240 1236 1198 1135 1109 1125 1139 1142 1080 1117 1104 1059 1079 1092 1081 1112 1045 1120 1037 1071 1104 1139 1087 1078 1059 1082 1024 1134 1103 1112 1066 1109 1032 1062 1043 1018 1027 1009 960 1007 931 1028 917 985 906 958 928 937 935 960 972 926 985 993 942 943 953 982 891 939 918 892 945 918 935 959 893 954 965 944 862 908 894 873 888 893 935 914 883 908 875 936 887 896 778 909 928 948 872 890 849 868 861 846 887 845 905 859 958 904 853 832 825 873 845 837 903 887 862 872 832 852 893 903 862 870 787 859 800 853 893 849 851 898 871 914 814 774 904 838 854 887 870 878 863 877 867 856 832 891 855 782 846 867 887 909 849 828 930 809 808 854 886 801 857 844 892 858 902 935 859 908 831 861 886 812 889 867 907 879 836 906 999 967 934 975 941 936 956 1016 1024 1054 1059 999 1041 1044 1040 1008 1077 984 1024 1031 1013 986 972 996 962 971 990 1013 935 932 889 950 896 900 896 893 906 879 916 849 877 850 873 810 918 856 852 849 827 862 853 879 858 897 815 862 888 852 871 857 826 858 852 861 819 798 856 827 807 798 833 843 847 846 847 820 851 827 860 819 819 847 824 811 768 890 849 892 897 830 876 831 849 840 836 830 868 814 868 846 862 872 822 896 797 915 789 894 829 873 810 839 851 787 817 808 865 792 865 859 824 794 872 845 822 838 883 836 801 833 818 850 914 878 868 842 855 859 877 840 863 873 859 900 843 785 819 879 818 818 837 882 821 826 835 835 866 843 822 882 841 869 896 798 835 829 845 801 835 814 845 844 840 796 833 810 813 876 794 821 865 808 809 850 849 820 781 823 835 849 751 770 802 771 819 795 791 797 782 771 808 788 869 745 821 814 786 737 839 766 782 760 769 836 784 807 783 844 787 761 746 840 781 753 774 745 769 808 770 775 756 768 791 826 787 811 849 757 829 793 755 804 752 810 828 801 849 838 812 790 777 823 821 784 813 796 759 836 838 807 803 808 771 859 833 797 757 822 784 785 781 785 750 793 774 744 743 757 741 711 785 745 792 756 832 724 777 743 822 778 743 777 740 739 729 753 721 742 756 715 747 764 778 745 731 801 736 732 770 775 701 751 734 741 751 749 764 723 795 733 750 791 764 747 683 726 760 753 707 733 730 684 707 748 723 718 742 718 718 686 727 706 720 701 712 780 757 703 723 735 726 702 754 745 691 775 722 734 795 783 732 741 762 719 734 776 749 741 756 775 767 813 726 755 803 734 809 759 792 742 732 795 737 740 769 749 767 724 742 787 718 746 759 749 737 723 745 749 780 744 743 720 722 695 715 661 720 762 708 780 721 721 741 752 749 727 805 714 739 766 707 727 726 756 794 722 824 723 716 798 771 764 775 747 754 760 709 719 737 697 709 716 759 738 741 714 751 781 731 792 799 746 777 740 734 744 772 733 764 734 822 773 749 782 682 759 725 736 771 726 700 785 780 758 785 793 765 784 707 734 712 754 769 786 759 716 747 762 751 763 702 737 687 746 776 772 710 781 712 734 736 765 761 750 743 734 721 734 759 744 732 781 778 779 755 764 721 706 757 723 770 747 779 765 745 735 777 711 750 741 718 713 729 783 758 743 694 771 698 755 805 699 792 750 790 770 791 773 762 722 736 766 740 783 812 770 813 809 796 765 796 804 816 864 781 782 822 858 841 878 830 892 860 893 889 890 882 960 845 876 835 928 866 867 878 836 834 858 889 846 874 860 856 856 872 849 823 827 870 862 892 863 890 825 771 822 894 866 862 903 884 856 864 836 926 874 905 973 949 968 988 1054 1023 1038 1147 1179 1223 1280 1387 1455 1593 1712 1875 1901 2070 2185 2276 2297 2388 2456 2561 2561 2594 2593 2508 2500 2439 2543 2349 2295 2267 2126 2153 2087 1990 2029 1866 1802 1830 1791 1713 1583 1535 1465 1391 1321 1258 1211 1198 1137 1014 1016 1063 977 954 1017 963 874 936 920 884 896 908 950 841 906 860 876 937 875 841 831 784 871 876 857 839 858 807 815 891 817 866 921 856 869 842 825 864 790 892 855 862 889 846 899 914 897 815 908 852 893 860 894 905 888 911 848 901 935 889 882 874 912 886 906 873 943 847 861 897 910 895 868 911 900 893 941 928 906 942 864 901 925 883 929 893 911 875 851 918 917 846 877 856 849 905 855 847 905 931 908 883 880 805 843 915 844 839 856 837 863 844 786 839 797 779 839 801 833 787 800 811 789 760 787 849 867 875 829 783 786 826 773 805 800 825 836 819 836 815 775 819 804 808 784 828 814 857 880 788 802 787 802 785 816 851 811 770 806 835 797 856 805 828 817 806 800 850 797 812 798 817 840 788 866 806 864 856 780 791 813 794 846 833 855 830 840 798 831 843 801 864 804 870 865 793 822 787 831 813 861 866 847 876 880 863 874 832 876 941 906 948 855 972 906 925 992 967 1035 1016 1132 1150 1167 1266 1425 1448 1618 1674 1778 1851 1906 1970 1958 2026 2005 2047 2036 2228 1974 2036 2048 2046 1970 2007 1864 1942 1820 1809 1743 1702 1643 1625 1495 1537 1505 1391 1401 1356 1175 1302 1179 1191 1084 1149 1023 1069 1004 974 964 910 889 861 894 867 855 826 826 872 824 855 854 836 900 863 832 795 882 770 817 800 805 834 794 755 910 806 768 797 824 791 837 841 785 837 806 815 823 787 802 803 835 741 805 764 831 852 799 792 767 790 802 798 793 858 820 824 802 839 824 866 829 808 729 831 734 760 793 811 784 701 824 775 808 773 797 825 764 754 763 818 779 844 803 803 802 788 783 771 700 754 788 821 792 765 764 799 781 764 764 761 740 757 830 773 770 796 777 735 789 785 732 800 805 822 776 726 762 788 798 802 797 778 812 728 763 737 787 757 748 787 801 795 865 739 767 794 808 840 760 766 807 792 779 791 800 820 862 859 861 866 857 843 833 909 931 897 947 975 912 918 959 997 978 940 967 992 976 924 887 917 962 903 902 876 916 861 897 810 860 904 915 818 837 827 807 829 808 820 761 786 719 779 738 757 814 727 806 740 755 747 747 775 731 743 767 745 768 786 782 706 767 757 767 777 727 817 785 701 791 727 721 704 706 754 728 743 740 815 746 786 736 763 748 756 733 754 703 767 727 757 778 771 786 741 693 735 727 708 716 732 731 784 712 747 746 748 751 763 726 744 763 756 746 800 763 743 735 734 722 710 746 735 726 734 721 739 737 695 748 714 717 755 721 736 667 759 708 770 739 726 724 711 746 709 721 680 707 779 705 789 755 796 796 715 748 709 727 752 725 775 780 785 800 720 782 717 712 785 780 725 759 735 725 716 731 752 784 712 736 788 824 759 723 723 741 727 717 704 720 701 765 744 778 742 715 696 715 746 764 782 711 752 750 678 735 775 735 745 688 733 746 723 732 704 763 711 724 694 715 735 735 671 721 746 724 733 736 753 788 754 720 725 720 711 686 778 731 703 712 732 707 711 761 709 711 725 674 767 742 716 727 729 731 711 725 697 700 708 743 723 655 761 678 671 727 698 697 707 687 757 778 769 709 676 694 734 741 672 669 758 700 688 751 712 740 704 762 762 753 726 681 784 760 789 731 795 648 714 714 716 733 735 774 707 748 788 714 711 738 742 717 757 732 754 731 753 731 719 780 755 716 736 752 716 789 752 786 724 754 739 769 735 705 782 738 782 733 688 764 727 757 739 730 721 699 758 744 757 752 757 706 707 651 680 718 739 733 720 724 749 709 737 720 785 789 701 710 781 641 761 781 759 742 752 755 732 707 720 744 720 737 738 711 721 716 744 708 768 749 710 733 719 744 734 763 725 793 734 715 775 742 737 744 740 768 716 736 743 706 762 720 726 702 732 692 736 797 769 754 708 720 722 717 733 727 717 772 737 694 727 715 721 719 729 718 697 698 685 732 778 666 713 681 780 735 742 725 775 712 722 676 706 739 730 712 722 677 669 701 681 705 729 720 748 769 735 720 695 673 708 692 706 703 728 739 739 757 781 758 697 735 680 699 717 738 720 711 649 747 717 713 754 750 753 796 729 743 719 767 747 791 798 796 796 816 774 838 942 873 908 938 896 888 876 894 882 872 879 876 868 793 855 852 828 810 859 859 794 838 831 772 818 833 826 804 806 795 786 818 754 752 774 743 751 739 743 785 711 688 729 712 698 694 761 762 688 687 742 759 726 723 652 757 708 696 686 681 684 737 681 654 718 733 724 718 708 657 677 736 707 751 725 716 758 675 694 717 656 721 665 717 693 679 694 719 705 654 687 702 698 697 656 714 616 656 677 690 682 656 707 673 665 675 685 721 689 729 680 698 673 738 680 722 723 696 713 685 702 680 742 674 725 659 702 627 755 735 706 715 668 703 672 709 681 685 754 666 703 685 732 716 741 671 707 713 711 640 681 713 674 706 698 692 710 711 713 673 662 755 710 727 690 704 734 648 675 705 700 696 695 739 701 740 665 714 697 691 686 699 683 702 728 725 674 711 732 764 683 710 656 709 654 722 692 694 714 719 682 722 708 741 709 682 713 704 735 695 732 721 665 718 674 687 731 704 707 731 690 699 693 704 709 674 739 771 681 657 680 675 726 738 701 706 663 718 711 697 712 698 708 703 674 689 630 650 691 737 688 723 727 683 681 704 660 720 700 685 706 678 684 678 700 703 694 705 721 718 706 783 722 718 726 681 680 692 785 697 717 784 746 757 736 812 734 800 782 801 852 791 858 862 895 925 834 912 937 995 982 1003 1068 1072 1052 1117 1116 1088 1200 1168 1191 1179 1209 1121 1120 1211 1133 1151 1149 1114 1095 1092 1121 1042 1016 1022 1033 1033 993 1000 1055 1001 950 924 936 860 930 897 874 892 825 802 822 800 784 765 803 738 746 784 757 714 759 758 743 730 720 717 752 728 731 721 740 725 698 729 701 681 681 706 769 673 671 686 712 703 710 730 756 696 744 732 710 738 758 744 715 687 679 712 714 653 694 685 701 690 706 724 697 755 741 687 756 682 712 706 718 698 741 703 683 694 704 712 732 634 674 681 739 716 735 730 677 720 691 721 703 699 700 686 688 685 726 734 679 757 752 726 754 738 672 684 709 677 733 661 684 730 681 697 692 715 683 696 709 728 683 718 707 697 661 664 676 696 732 707 697 725 644 671 714 732 697 680 716 718 711 746 697 673 685 744 716 797 732 677 745 739 705 773 722 706 747 723 809 750 768 695 724 736 706 730 703 762 706 709 759 669 747 694 711 758 717 757 726 728 682 752 719 708 668 681 680 711 673 676 713 644 698 684 692 722 664 677 667 728 644 690 677 723 682 700 662 682 655 667 658 741 691 680 635 677 689 683 663 602 690 660 660 662 672 650 701 683 669 652 637 708 688 640 708 668 617 654 703 682 670 680 713 610 682 671 709 692 649 668 682 682 686 664 677 639 704 637 660 673 618 694 648 676 695 643 674 623 667 657 648 655 698 659 645 657 664 708 636 705 639 704 657 711 673 631 673 672 689 621 725 643 679 648 729 654 657 599 691 696 653 671 640 640 666 686 659 660 672 663 689 669 683 677 708 669 652 640 656 665 663 628 659 644 632 650 682 620 662 658 710 636 659 671 656 697 667 658 644 685 660 666 675 655 666 660 612 622 670 684 651 632 668 639 662 634 674 659 677 626 687 636 657 684 680 715 652 694 649 645 712 683 720 663 703 657 655 653 663 654 688 622 715 683 682 671 654 707 676 676 688 660 686 655 672 687 678 655 644 681 684 613 694 712 661 693 673 657 710 669 636 656 668 730 709 675 685 665 687 701 711 704 700 673 668 647 727 659 688 696 697 701 674 728 675 662 684 682 657 691 658 731 702 635 688 674 688 683 643 702 681 727 698 695 681 620 735 723 711 739 621 652 627 660 662 690 669 639 703 650 672 648 699 687 684 635 654 709 688 675 691 666 705 705 672 672 673 731 685 677 611 658 657 647 676 691 623 638 651 663 635 659 664 643 632 702 652 647 644 690 695 679 693 642 730 693 683 677 637 650 685 657 662 717 706 643 692 654 680 644 611 612 648 654 627 723 674 639 687 668 670 652 656 699 631 648 664 626 660 697 654 664 639 683 717 635 649 682 670 697 696 704 702 653 674 655 722 682 670 667 613 693 696 688 649 664 682 705 689 688 637 725 718 740 723 680 708 711 690 683 687 687 687 715 708 718 715 716 684 686 677 725 676 692 705 753 700 700 723 750 679 742 712 736 653 784 781 761 759 825 811 783 800 806 789 807 783 842 803 804 807 830 820 790 802 786 758 788 780 746 725 781 760 755 758 756 758 812 791 791 806 821 792 792 815 747 788 782 828 840 818 782 793 808 812 841 777 864 796 843 930 874 914 900 947 959 995 1032 1045 1024 1077 1060 1074 1045 1070 1139 1089 1090 1137 1054 1072 1130 1065 1072 1006 1059 1031 976 986 1012 1018 956 954 978 960 959 1009 935 905 890 901 918 901 872 928 852 793 809 853 826 852 830 839 713 745 794 740 727 744 734 687 741 707 694 685 690 687 691 702 670 755 715 692 714 678 647 683 665 708 656 670 696 705 692 707 719 656 672 653 716 662 675 685 712 664 705 682 684 630 656 693 712 673 708 689 698 676 679 678 710 712 653 727 692 701 622 640 724 697 738 685 666 689 661 691 673 709 711 739 689 678 736 699 693 762 692 738 699 710 732 717 780 707 652 713 715 668 707 727 704 682 703 709 683 693 639 727 674 723 713 706 717 682 711 658 716 654 713 699 723 674 703 730 688 696 691 701 680 709 697 674 646 644 662 706 686 705 681 716 735 675 706 710 684 712 671 695 717 683 680 697 720 727 665 751 714 692 750 695 742 730 794 763 762 779 769 793 790 758 783 783 772 833 785 821 827 898 902 880 992 1000 1021 1052 1102 1090 1158 1164 1236 1205 1331 1364 1390 1422 1517 1488 1488 1453 1530 1509 1538 1432 1530 1582 1488 1405 1456 1434 1411 1434 1377 1303 1365 1270 1292 1305 1318 1186 1186 1232 1209 1220 1246 1221 1209 1131 1156 1030 1058 1084 995 1067 1022 949 950 910 870 893 867 842 834 834 798 748 796 804 783 696 766 766 745 715 672 715 710 779 783 747 710 701 718 712 716 722 679 719 728 686 654 674 674 713 677 689 734 678 750 698 707 712 704 692 701 692 688 692 714 695 720 698 730 743 714 653 711 637 681 686 657 701 682 709 652 690 638 684 641 674 678 721 693 650 678 677 711 721 736 669 729 693 669 680 721 739 650 725 667 695 690 685 705 686 706 704 725 704 669 731 718 736 680 690 734 660 720 693 761 766 682 723 726 745 755 656 704 706 703 749 736 758 743 732 692 721 718 706 738 731 767 689 717 703 772 722 751 763 765 715 759 662 663 677 738 743 703 665 695 695 687 695 678 662 735 712 710 661 674 713 727 703 706 647 692 699 682 713 707 688 707 672 722 708 690 674 647 665 646 636 679 642 638 648 688 626 705 609 694 657 681 623 687 680 658 675 681 679 624 721 697 675 650 673 674 647 634 692 617 620 655 687 684 624 674 653 647 699 685 660 653 665 669 678 681 635 645 658 641 635 622 644 636 578 664 685 689 646 705 702 645 687 685 677 655 642 632 635 583 670 715 580 679 641 636 619 651 638 673 664 587 628 661 678 706 621 693 715 649 561 647 638 606 637 675 672 661 635 658 607 679 641 637 688 658 654 678 681 612 614 640 663 700 642 640 654 652 631 633 623 594 633 597 664 658 614 701 625 623 631 646 568 636 657 622 612 633 662 622 607 629 640 664 623 640 647 619 668 709 635 652 656 618 679 595 652 610 658 657 622 631 672 639 633 680 649 693 647 665 656 637 624 634 664 655 681 679 649 658 594 612 655 619 670 651 667 651 652 677 613 588 607 662 643 647 679 632 646 672 640 633 643 662 677 679 632 601 622 637 639 610 678 634 676 648 606 615 664 658 665 655 643 662 635 607 665 651 652 631 643 656 619 659 627 618 663 625 670 657 639 653 599 589 655 649 673 636 618 628 657 653 652 635 643 653 626 668 677 648 652 663 641 642 650 615 714 664 659 654 688 609 586 667 633 673 653 668 601 620 639 647 643 644 633 675 688 675 628 621 707 646 657 697 652 620 664 599 655 610 650 647 673 631 605 647 702 653 648 628 622 618 654 663 651 643 650 629 642 604 700 653 631 696 650 617 630 630 664 636 666 626 633 653 664 635 681 664 642 634 606 602 671 601 639 629 699 615 688 659 664 651 645 643 661 626 620 659 675 636 664 614 650 627 652 700 616 638 676 629 651 588 658 634 666 681 636 637 611 686 627 622 632 664 629 649 655 670 668 653 626 691 703 660 669 664 745 679 727 701 647 730 703 703 717 716 689 660 745 738 813 741 808 730 739 770 751 751 760 743 749 744 779 759 704 692 745 710 758 772 751 733 727 788 729 759 728 740 708 757 695 686 736 725 700 739 725 748 681 733 715 724 697 729 649 625 696 662 710 684 661 689 629 677 716 680 653 663 691 684 694 637 704 649 645 623 670 668 658 660 644 641 638 633 671 663 629 669 644 663 673 673 692 637 639 682 643 650 668 648 649 603 655 646 690 628 621 608 629 655 649 621 673 630 657 661 638 686 637 614 659 659 646 619 689 630 641 689 617 625 632 648 635 652 647 644 685 622 657 626 602 627 587 600 656 643 670 656 616 680 657 665 649 659 701 679 684 663 649 611 649 643 709 663 676 668 627 659 660 699 656 717 668 687 684 638 681 663 656 623 635 679 651 609 650 634 669 661 658 653 633 605 655 611 700 628 656 628 652 654 627 641 624 650 634 650 662 676 671 658 647 667 606 659 649 595 653 633 643 645 680 596 709 661 633 614 618 673 648 622 669 623 645 668 656 631 663 700 664 633 667 662 687 629 646 700 640 727 665 681 696 636 647 639 706 665 712 690 661 729 686 676 677 729 733 706 706 744 753 728 766 773 742 741 696 750 725 751 824 830 781 802 791 933 867 933 955 953 974 1013 1039 1066 1121 1159 1175 1192 1224 1261 1275 1306 1272 1323 1348 1342 1361 1371 1459 1335 1325 1379 1342 1316 1272 1309 1312 1254 1298 1197 1190 1204 1232 1196 1178 1166 1116 1138 1138 1069 1031 1114 1096 1128 1036 1142 1046 1034 986 986 1013 999 990 944 847 868 856 871 890 825 819 790 793 827 781 773 761 811 742 771 696 687 741 758 612 716 741 712 672 740 630 699 699 687 632 677 650 642 689 693 610 661 692 642 655 629 624 676 658 687 693 688 683 646 648 620 710 684 664 648 636 667 630 658 678 672 652 641 628 672 636 655 652 684 627 642 634 692 657 608 621 669 652 649 684 627 680 661 665 700 614 723 689 625 662 675 663 678 682 619 707 692 694 685 673 671 687 710 653 691 700 720 706 700 680 716 660 697 652 653 667 722 696 708 683 660 724 704 707 752 759 727 690 664 699 683 789 719 646 682 720 716 746 700 667 687 771 724 646 682 696 704 720 662 719 722 685 688 724 671 714 690 636 666 684 689 627 685 678 708 648 662 680 661 670 647 676 686 664 674 629 675 643 667 672 673 664 654 637 644 672 649 650 669 620 634 641 640 647 623 612 661 669 626 655 643 597 655 644 640 684 642 583 607 649 659 629 663 671 659 654 600 626 605 581 630 617 660 623 631 619 608 655 600 607 662 660 660 655 576 585 665 647 686 595 686 622 639 616 653 634 607 604 658 668 636 640 607 656 655 643 563 613 624 674 620 633 603 631 614 658 622 648 670 608 617 579 625 636 621 618 613 638 640 624 672 600 585 681 634 635 620 645 637 608 614 649 659 637 593 638 650 593 617 577 626 654 591 610 658 618 641 663 629 618 628 616 585 705 656 570 609 587 619 615 575 638 662 628 587 624 619 624 683 576 600 655 664 641 717 674 640 625 650 704 612 639 646 648 654 655 654 596 651 617 636 654 628 619 668 627 670 700 670 659 627 624 657 616 666 626 643 629 657 696 622 681 652 627 634 629 658 670 607 627 633 677 618 661 700 624 649 638 676 627 635 653 669 651 674 649 644 643 658 695 626 613 646 667 640 630 658 612 664 623 629 697 659 644 685 627 676 646 670 640 636 593 591 585 595 639 628 654 651 628 648 643 663 689 681 616 656 672 649 629 647 616 595 668 664 688 656 592 691 639 646 579 619 581 637 618 621 667 646 617 645 639 639 654 604 628 618 632 627 598 657 607 651 653 660 641 613 611 608 597 586 642 634 596 629 601 678 558 660 630 577 644 646 640 636 660 608 663 657 644 635 596 589 631 639 600 637 625 632 596 661 626 629 605 634 599 591 638 630 660 624 648 588 674 660 602 555 608 594 650 633 629 621 656 654 591 630 607 602 601 664 653 632 659 615 600 624 628 655 621 622 656 656 700 647 651 609 670 630 709 599 644 621 656 668 653 641 688 710 626 659 666 649 664 717 679 667 665 697 663 677 715 693 708 743 694 728 759 765 738 773 793 754 789 833 712 789 802 759 771 768 822 765 794 812 794 792 756 832 783 727 765 794 749 739 782 758 731 742 777 780 743 792 816 782</counts>
			</dataPoints>
		</scan>
	</xrdMeasurement>
</xrdMeasurements>
