<?xml version="1.0"?>
<xrdMeasurements xmlns="http://www.xrdml.com/XRDMeasurement/2.3" xmlns:xsi="http://www.w3.org/2001/XMLSchema-instance" xsi:schemaLocation="http://www.xrdml.com/XRDMeasurement/2.3 http://www.xrdml.com/XRDMeasurement/2.3/XRDMeasurement.xsd" status="Completed" recordIdentifier="{BD05B600-DF98-4976-ACFB-4734713EC65D}">
	<comment>
		<entry/>
	</comment>
	<sample type="To be analyzed">
		<id>GPSS_Li1p6Fe0p9Y0p2Cl4_102325_68fa7650028f64128e25ed80</id>
		<name></name>
		<preparedBy></preparedBy>
	</sample>
	<xrdMeasurement measurementType="Scan" status="Completed" sampleMode="Reflection">
		<usedWavelength intended="K-Alpha 1">
			<kAlpha1 unit="Angstrom">1.5405980</kAlpha1>
			<kAlpha2 unit="Angstrom">1.5444260</kAlpha2>
			<kBeta unit="Angstrom">1.3922500</kBeta>
			<ratioKAlpha2KAlpha1>0.5000</ratioKAlpha2KAlpha1>
		</usedWavelength>
		<incidentBeamPath>
			<radius unit="mm">145.00</radius>
			<xRayTube id="1010048" name="Empyrean Cu LFF HR (9430 033 7310x)">
				<tension unit="kV">40.0</tension>
				<current unit="mA">15.0</current>
				<anodeMaterial>Cu</anodeMaterial>
				<focus type="Line">
					<length unit="mm">12.0</length>
					<width unit="mm">0.4</width>
					<takeOffAngle unit="deg">6.0</takeOffAngle>
				</focus>
			</xRayTube>
			<sollerSlit id="21010002" name="Soller slits 0.04 rad.">
				<opening unit="rad">0.0400</opening>
			</sollerSlit>
			<mask id="22031000" name="Fixed mask 13 mm">
				<width unit="mm">9.00</width>
			</mask>
			<divergenceSlit id="22120001" name="Divergence slit 1°" xsi:type="fixedDivergenceSlitType">
				<distanceToSample unit="mm">50.00</distanceToSample>
				<height unit="mm">1.52</height>
			</divergenceSlit>
		</incidentBeamPath>
		<sampleMovement xsi:type="spinningSampleMovementType">
			<spinnerRevolutionTime unit="seconds">1.0</spinnerRevolutionTime>
		</sampleMovement>
		<diffractedBeamPath>
			<radius unit="mm">145.00</radius>
			<antiScatterSlit id="22090040" name="AS slit 9 mm (PIXcel)" xsi:type="fixedAntiScatterSlitType">
				<height unit="mm">9.00</height>
			</antiScatterSlit>
			<sollerSlit id="21020003" name="Large Soller slits 0.04 rad.">
				<opening unit="rad">0.0400</opening>
			</sollerSlit>
			<filter id="20030001" name="Large beta-filter Nickel">
				<material>Ni</material>
				<thickness unit="mm">0.020</thickness>
			</filter>
			<detector id="7010019" name="PIXcel1D-Medipix3 detector" xsi:type="rtmsDetectorType">
				<phd unit="keV">
					<lowerLevel>4.02</lowerLevel>
					<upperLevel>11.27</upperLevel>
				</phd>
				<mode>Scanning</mode>
				<activeLength unit="deg">5.542</activeLength>
			</detector>
		</diffractedBeamPath>
		<scan appendNumber="0" mode="Continuous" scanAxis="Gonio" status="Completed">
			<header>
				<startTimeStamp>2025-10-30T18:16:37-07:00</startTimeStamp>
				<endTimeStamp>2025-10-30T18:24:44-07:00</endTimeStamp>
				<author>
					<name>AutomatedUser</name>
				</author>
				<source>
					<applicationSoftware version="1.7b (136)">PANalytical Aeris Instrument Suite</applicationSoftware>
					<instrumentControlSoftware version="3.2.00000000 20240306">AERIS</instrumentControlSoftware>
					<instrumentID>950485</instrumentID>
				</source>
			</header>
			<dataPoints>
				<positions axis="2Theta" unit="deg">
					<startPosition>10.00943322</startPosition>
					<endPosition>99.99442286</endPosition>
				</positions>
				<positions axis="Omega" unit="deg">
					<startPosition>5.00471661</startPosition>
					<endPosition>49.99721143</endPosition>
				</positions>
				<commonCountingTime unit="seconds">12.495</commonCountingTime>
				<counts unit="counts">3017 2981 3023 3072 3031 3058 3036 3029 3034 3019 3080 2931 3027 3089 3044 3076 3005 3050 3005 2973 2934 2968 3034 2994 3083 3050 2984 2975 2977 3035 3036 3056 3085 3012 3062 3090 3100 3044 2975 3084 2971 3079 3079 3127 2960 3062 3049 3063 3126 3066 3087 3121 3101 3001 3184 3050 3172 3105 3146 3189 3068 3074 3040 3151 3145 3137 3222 3210 3116 3238 3100 3175 3106 3165 3144 3167 3222 3171 3082 3207 3161 3200 3162 3097 3207 3307 3163 3238 3150 3266 3194 3308 3070 3203 3080 3143 3112 3149 3251 3163 3189 3308 3194 3227 3180 3184 3325 3233 3207 3250 3283 3206 3213 3038 3181 3157 3227 3265 3137 3104 3206 3270 3231 3347 3228 3308 3230 3240 3333 3266 3209 3286 3291 3356 3270 3330 3243 3288 3225 3361 3212 3218 3244 3288 3106 3254 3341 3260 3264 3275 3351 3260 3330 3273 3256 3301 3207 3371 3200 3342 3315 3260 3286 3279 3309 3400 3308 3273 3240 3232 3280 3306 3286 3399 3289 3345 3356 3425 3367 3326 3352 3298 3333 3310 3339 3254 3269 3218 3266 3346 3233 3319 3238 3260 3314 3289 3204 3187 3285 3233 3320 3206 3295 3268 3281 3360 3274 3163 3316 3318 3256 3312 3229 3221 3299 3241 3347 3197 3244 3338 3248 3331 3370 3256 3185 3237 3213 3260 3360 3303 3274 3199 3088 3285 3304 3177 3204 3245 3270 3212 3307 3298 3284 3244 3290 3217 3176 3333 3329 3191 3270 3279 3312 3243 3279 3191 3417 3269 3174 3216 3246 3231 3242 3084 3268 3357 3175 3310 3278 3260 3122 3283 3229 3286 3205 3229 3177 3117 3235 3264 3210 3266 3049 3234 3137 3111 3142 3240 3042 3284 3216 3143 3192 3171 3181 3169 3169 3227 3313 3248 3225 3171 3245 3256 3220 3131 3235 3276 3256 3156 3268 3211 3184 3193 3227 3304 3163 3234 3250 3192 3358 3171 3204 3296 3314 3252 3281 3345 3260 3310 3322 3300 3433 3292 3341 3323 3241 3338 3219 3315 3185 3294 3414 3370 3333 3292 3304 3331 3243 3390 3370 3426 3438 3378 3394 3277 3293 3418 3480 3437 3530 3430 3424 3429 3485 3417 3483 3392 3463 3510 3483 3461 3443 3367 3450 3543 3417 3475 3574 3419 3628 3510 3612 3522 3535 3480 3460 3594 3590 3507 3544 3692 3625 3651 3596 3606 3503 3573 3527 3619 3664 3621 3522 3644 3740 3736 3647 3662 3731 3681 3763 3701 3751 3759 3828 3759 3753 3785 3818 3817 3864 4022 3895 4088 4040 4056 4103 3957 4126 4092 4130 4124 4163 4190 4176 4126 4327 4272 4275 4417 4478 4493 4464 4545 4447 4673 4781 4758 4862 4897 5057 5055 5068 5240 5447 5630 5651 5721 5820 5957 5981 6034 6026 5984 5881 5984 6120 5927 5990 5886 5962 5825 5790 5994 5913 5985 5855 5900 5944 5998 6097 5921 5978 5913 5930 5780 5595 5654 5524 5590 5326 5436 5450 5280 5206 5145 5331 5181 5090 5307 5253 5151 5090 5295 5176 5051 5251 5177 5044 4972 5199 4924 4845 4894 4744 4692 4622 4477 4407 4250 4293 4194 4171 3996 3872 3875 3726 3697 3753 3735 3673 3603 3626 3737 3633 3577 3616 3645 3650 3544 3493 3608 3582 3656 3683 3514 3544 3474 3551 3459 3528 3482 3548 3384 3641 3548 3480 3548 3460 3582 3461 3452 3540 3485 3525 3463 3625 3500 3632 3437 3573 3520 3519 3585 3482 3552 3495 3594 3422 3291 3454 3456 3324 3397 3470 3411 3351 3418 3317 3209 3353 3212 3341 3264 3284 3324 3283 3210 3170 3345 3195 3263 3329 3257 3353 3266 3285 3366 3261 3262 3194 3288 3319 3186 3217 3312 3249 3239 3189 3325 3272 3076 3276 3223 3205 3269 3247 3270 3167 3271 3133 3199 3210 3168 3276 3141 3212 3195 3155 3228 3196 3244 3148 3148 3204 3222 3319 3185 3242 3159 3274 3190 3308 3273 3288 3213 3134 3262 3325 3262 3200 3278 3307 3233 3202 3187 3258 3349 3272 3275 3238 3300 3286 3244 3364 3359 3227 3211 3299 3293 3429 3367 3328 3226 3265 3374 3357 3437 3423 3390 3236 3373 3373 3401 3401 3468 3346 3427 3394 3433 3378 3356 3509 3394 3397 3338 3426 3464 3383 3364 3341 3474 3356 3348 3357 3290 3302 3321 3167 3215 3191 3249 3176 3173 3225 3151 3230 3140 3192 3082 3148 3153 3217 3159 3073 3104 3104 3096 3178 3078 3081 3154 3065 3143 3074 3135 3113 3209 3152 3186 3186 3088 3141 3201 3212 3109 3195 3201 3138 3159 3087 3156 3158 3176 3076 3088 3165 3075 3043 3223 3077 3203 3122 3042 3112 3114 2993 3154 3013 3096 3052 3103 3090 3214 3056 3132 3126 2974 2922 3067 3081 3043 3127 3061 3067 3106 3034 3086 3012 3120 2985 3057 3047 3051 3021 3032 3119 3155 2970 2965 3086 3023 3078 3067 3206 3028 3061 3023 3077 3153 2969 3043 3097 2992 3134 3062 2952 3065 3001 3060 3015 2930 3038 3101 2994 3099 3091 3034 2982 3026 2949 3074 2995 2966 3058 2910 3143 2890 2954 2952 2940 2935 3048 2887 2978 3022 3031 2949 3011 2973 2988 2873 3036 3039 3002 3012 2905 3047 2938 3060 2916 2970 2901 3045 3014 2984 2979 3096 2992 3010 2990 3100 2992 3039 3077 2987 2889 2979 2958 3025 3067 2988 3057 2998 2949 2929 3009 2934 2922 3004 2951 3036 2946 2908 2985 2917 2928 2890 2913 2990 3015 2985 2953 2910 2905 2908 2968 2994 2909 2944 2865 2931 2959 2947 3064 3016 2918 3040 2885 3037 2888 2985 2987 2979 2881 2861 2960 2982 2857 2942 2922 2984 2927 2908 2928 2949 2878 2871 2934 2838 2865 2834 3024 2879 2862 2870 2975 2953 2786 2918 2881 2949 2901 2906 2888 2842 2939 2923 2993 3039 2893 2920 2862 2842 2954 2921 2814 2864 2910 2901 2831 2891 2850 2899 2945 2855 2916 2873 2918 2903 2909 2999 2925 3024 2943 2870 3034 2892 2976 2782 2810 2804 2953 2857 2901 2940 2870 2916 2880 2840 2891 2939 2808 2873 2908 2945 2841 2875 2862 2916 2908 3015 2956 2959 2852 2981 2924 2873 3044 2835 2869 2892 2823 2852 2896 2920 2902 2952 2843 2864 2930 2949 2851 2857 2923 2836 3010 2937 2770 3035 2909 2746 2848 2927 2930 2958 2943 2994 2834 2978 2950 2977 2859 2955 2964 2980 2855 2852 2861 2896 2928 2913 2965 2836 2942 2939 3004 2957 3012 3049 2989 3018 2894 2972 2951 2869 2972 2975 3079 2939 2924 2912 2986 2819 2901 2999 2954 2961 3005 2830 3010 2892 2963 2952 2984 3012 2957 2950 2972 3052 3002 2894 2859 2858 2972 2917 2899 3105 2936 2918 2883 2885 2959 2847 2948 2908 2819 2969 2922 2906 2870 2895 2947 3000 2924 2922 2868 2803 2876 2923 2803 2834 2927 2887 2767 2849 2829 2828 2940 2908 2952 2849 2807 2893 2834 2873 2929 2819 2843 2829 2842 2828 2851 2867 2904 2841 2859 2793 2878 2907 2812 2789 2805 2912 2790 2635 2796 2763 2856 2805 2797 2685 2773 2754 2669 2827 2652 2748 2737 2656 2717 2745 2704 2729 2783 2721 2836 2646 2729 2602 2683 2728 2702 2649 2720 2645 2682 2682 2745 2601 2760 2611 2730 2746 2636 2734 2710 2608 2649 2676 2734 2648 2715 2650 2648 2630 2572 2648 2528 2644 2656 2684 2651 2574 2694 2644 2600 2669 2691 2611 2692 2612 2579 2532 2729 2679 2593 2740 2610 2638 2631 2608 2683 2536 2652 2621 2623 2659 2570 2625 2599 2615 2510 2595 2575 2577 2630 2634 2580 2555 2650 2620 2687 2654 2545 2611 2613 2620 2748 2666 2598 2691 2527 2619 2569 2644 2600 2568 2588 2443 2515 2547 2564 2528 2495 2507 2547 2539 2519 2360 2493 2457 2452 2442 2461 2443 2505 2477 2415 2440 2500 2478 2485 2501 2495 2461 2482 2480 2434 2523 2461 2451 2466 2416 2366 2507 2454 2504 2463 2406 2533 2468 2416 2410 2379 2414 2425 2474 2540 2390 2482 2311 2399 2512 2409 2501 2543 2401 2501 2370 2392 2433 2450 2451 2454 2398 2453 2434 2368 2498 2481 2447 2413 2415 2445 2323 2416 2421 2466 2395 2454 2418 2469 2458 2396 2466 2398 2474 2489 2427 2494 2424 2417 2464 2528 2449 2357 2524 2456 2407 2466 2461 2494 2484 2474 2394 2481 2507 2528 2427 2455 2355 2450 2470 2468 2448 2411 2331 2543 2421 2447 2339 2417 2411 2437 2507 2447 2496 2501 2438 2468 2468 2457 2386 2353 2377 2313 2367 2356 2423 2456 2498 2454 2352 2419 2431 2410 2493 2414 2464 2511 2484 2460 2352 2411 2427 2429 2400 2421 2393 2412 2323 2512 2446 2467 2530 2387 2430 2370 2425 2460 2423 2437 2453 2486 2436 2442 2380 2434 2428 2410 2480 2418 2488 2482 2472 2371 2467 2487 2447 2467 2504 2450 2506 2518 2379 2563 2419 2475 2402 2524 2561 2483 2483 2484 2520 2464 2461 2503 2487 2408 2539 2548 2468 2493 2556 2535 2520 2495 2508 2494 2503 2531 2465 2569 2547 2493 2573 2505 2498 2510 2519 2562 2456 2546 2376 2480 2543 2505 2468 2428 2374 2549 2369 2423 2307 2496 2460 2359 2590 2411 2403 2464 2419 2401 2460 2471 2397 2399 2417 2363 2435 2371 2492 2296 2422 2380 2280 2347 2299 2344 2352 2335 2412 2368 2360 2341 2335 2301 2293 2348 2264 2307 2290 2249 2256 2338 2295 2308 2294 2216 2320 2297 2272 2228 2301 2378 2213 2237 2190 2284 2323 2364 2278 2168 2232 2278 2238 2309 2262 2198 2188 2312 2265 2235 2343 2340 2282 2193 2216 2210 2205 2278 2267 2238 2258 2205 2323 2204 2215 2278 2238 2179 2147 2157 2198 2252 2120 2188 2219 2208 2136 2201 2228 2215 2211 2278 2167 2206 2246 2243 2222 2175 2146 2190 2188 2166 2253 2187 2180 2200 2119 2216 2161 2166 2194 2147 2130 2170 2174 2137 2079 2130 2148 2146 2123 2144 2182 2264 2166 2168 2138 2110 2238 2108 2162 2193 2165 2223 2175 2205 2324 2166 2229 2161 2251 2242 2160 2271 2279 2326 2242 2305 2355 2320 2304 2287 2476 2416 2373 2387 2388 2364 2382 2496 2397 2453 2437 2436 2386 2525 2534 2475 2545 2366 2433 2526 2447 2479 2417 2578 2511 2378 2569 2422 2517 2454 2420 2480 2546 2470 2486 2616 2486 2468 2432 2550 2467 2519 2477 2533 2521 2464 2446 2403 2391 2460 2406 2426 2266 2262 2376 2359 2225 2316 2184 2194 2187 2243 2226 2236 2191 2104 2294 2171 2209 2206 2208 2162 2202 2165 2158 2119 2104 2177 2163 2164 2189 2094 2141 2136 2125 2194 2107 2169 2276 2148 2112 2166 2200 2097 2135 2116 2168 2134 2154 2212 2240 2215 2198 2169 2316 2269 2187 2277 2438 2289 2376 2375 2333 2512 2453 2528 2514 2497 2576 2500 2558 2579 2526 2614 2611 2738 2615 2722 2755 2730 2636 2829 2817 2990 2918 2999 2985 3051 2942 2992 3056 3099 3085 3122 3055 3117 2928 3124 3036 3027 2995 3085 3011 3001 2961 3010 2988 3016 2958 2935 2981 2878 2886 2796 2839 2770 2737 2703 2763 2641 2717 2631 2681 2541 2540 2385 2548 2520 2443 2458 2371 2423 2294 2295 2344 2285 2262 2276 2202 2271 2179 2222 2115 2091 2096 2153 2249 2077 2075 2122 2041 2132 2088 2081 2094 2051 2038 2125 2098 1976 2090 2005 2041 2030 2062 2064 1957 1951 1966 1962 2042 2077 1959 1958 1949 1907 1921 1980 2075 1962 2016 2005 1993 1944 2077 2003 2024 1960 2061 1918 1981 1950 1971 1965 1978 2059 1936 2087 1982 1943 2072 2013 1968 2079 2098 2024 2085 1993 1944 2056 1996 2025 2079 2074 2068 2067 2135 2329 2219 2261 2280 2374 2279 2203 2313 2312 2335 2492 2353 2468 2375 2405 2375 2483 2498 2393 2506 2474 2423 2525 2466 2463 2268 2482 2428 2432 2537 2397 2425 2376 2440 2487 2454 2487 2467 2396 2356 2348 2333 2281 2407 2230 2258 2256 2191 2080 2152 2064 2146 2001 2051 1992 2013 1977 1982 1973 1960 1927 1974 1925 1915 1911 1907 1872 1867 1936 1903 1873 1936 1871 1892 1864 2035 1910 1934 1843 1914 1910 1959 1944 1893 1950 1946 1922 1909 1950 1943 1871 1956 1857 1951 1864 1882 1886 1963 1901 1833 1865 1855 1879 1856 1873 1867 1856 1923 1903 1835 1815 1926 1830 1906 1942 1922 2012 1893 1972 1952 1890 1844 1920 1931 1910 1915 1928 2002 1969 1966 1996 1990 2059 2084 1950 2043 2119 2097 2033 2130 2059 2074 2075 1992 2077 2121 2140 2097 2137 2163 2142 2087 2087 2072 2014 2164 2057 2044 2015 2105 2041 2006 2039 2006 2200 2144 1997 2077 2097 2077 2039 2026 1991 1953 1988 2023 1960 1959 1924 1971 1912 1977 1894 1964 1862 1911 1923 1852 1916 1936 1875 1871 1847 1842 1838 1837 1915 1859 1841 1927 1891 1917 1897 1853 1951 1893 1935 1830 1864 1913 1831 1916 1850 1935 1873 1925 1884 1959 1881 1916 1977 1974 1954 1993 1988 1969 2036 2005 2003 2028 1998 1983 2035 2028 2010 1955 1977 2016 1916 2026 2016 2024 1961 2016 2086 2052 2002 2096 1985 2098 1958 2081 1985 2084 2025 2018 2056 2083 2132 2061 2010 2115 2127 2209 2201 2219 2225 2223 2268 2319 2394 2469 2433 2454 2589 2556 2686 2643 2673 2672 2798 2865 3018 2897 3048 3051 3212 3204 3267 3309 3412 3375 3471 3624 3489 3747 3752 3681 3892 3786 3973 3998 4131 4290 4335 4303 4368 4291 4519 4501 4479 4493 4496 4519 4541 4553 4555 4478 4471 4486 4495 4464 4475 4317 4304 4158 4342 4228 4132 3970 4142 3914 3951 3871 3775 3740 3643 3705 3565 3512 3490 3426 3413 3285 3206 3198 3108 3147 3127 2991 2918 2992 2906 3012 2891 2955 2870 2918 2889 2827 2907 2823 2752 2670 2623 2717 2566 2643 2689 2591 2645 2545 2442 2535 2482 2499 2447 2423 2514 2361 2341 2444 2290 2388 2405 2339 2264 2288 2394 2278 2310 2367 2244 2239 2334 2204 2195 2191 2202 2168 2190 2118 2108 2137 2119 2140 2062 2102 2094 2103 2017 2005 1992 1943 1990 1974 1950 2008 1906 2029 1902 1971 1992 2005 1896 1963 1936 1960 1901 1903 1930 1857 1832 1962 1844 1897 1845 1950 1894 1946 1855 1832 1871 1765 1984 1879 1890 1950 1883 1898 1880 1875 1877 1858 1834 1914 1834 1860 1843 1919 1871 1885 1936 1820 1953 1885 1875 1805 1897 1941 1927 1896 1847 1848 1906 1740 1830 1945 1881 1889 1858 1882 1858 1894 1817 1850 1775 1931 1756 1882 1866 1921 1835 1858 1913 1848 1911 1834 1784 1883 1836 1902 1877 1798 1974 1826 1835 1884 1780 1859 1827 1913 1850 1821 1879 1745 1776 1822 1857 1840 1819 1879 1926 1829 1851 1784 1811 1825 1873 1842 1738 1799 1805 1764 1815 1777 1800 1812 1778 1848 1767 1799 1758 1707 1778 1912 1900 1798 1776 1748 1778 1858 1772 1828 1835 1749 1772 1812 1804 1767 1705 1798 1773 1811 1764 1842 1825 1798 1698 1769 1862 1707 1765 1859 1815 1842 1742 1828 1849 1763 1855 1818 1782 1834 1819 1739 1771 1758 1827 1822 1766 1865 1855 1796 1791 1887 1883 1773 1858 1761 1863 1763 1890 1782 1867 1731 1815 1728 1888 1727 1735 1846 1797 1811 1850 1756 1821 1798 1848 1790 1778 1776 1750 1802 1750 1765 1864 1747 1778 1820 1795 1830 1767 1747 1740 1666 1888 1849 1787 1808 1807 1797 1770 1736 1793 1802 1774 1790 1792 1763 1770 1848 1723 1767 1770 1854 1741 1795 1807 1815 1871 1770 1731 1741 1807 1734 1882 1832 1766 1827 1811 1807 1815 1706 1827 1742 1832 1802 1700 1752 1772 1788 1782 1851 1826 1745 1788 1763 1759 1813 1795 1712 1684 1881 1784 1794 1798 1767 1715 1788 1794 1832 1744 1793 1793 1738 1768 1746 1790 1804 1829 1788 1805 1805 1732 1768 1784 1759 1767 1707 1730 1834 1779 1709 1789 1766 1729 1733 1850 1688 1695 1800 1716 1744 1769 1768 1770 1782 1771 1701 1738 1755 1760 1788 1814 1817 1803 1700 1740 1721 1702 1710 1718 1856 1717 1772 1794 1762 1781 1789 1729 1753 1819 1768 1769 1694 1798 1694 1762 1773 1708 1690 1658 1746 1770 1758 1767 1821 1695 1695 1704 1727 1708 1692 1575 1760 1691 1639 1770 1819 1729 1665 1709 1749 1682 1735 1670 1730 1740 1668 1726 1707 1773 1631 1666 1802 1647 1665 1741 1810 1759 1778 1731 1770 1742 1714 1734 1785 1686 1687 1766 1706 1814 1764 1738 1723 1718 1693 1715 1766 1824 1811 1779 1754 1766 1771 1822 1674 1718 1809 1727 1688 1737 1763 1739 1745 1787 1730 1768 1778 1746 1785 1728 1843 1833 1731 1716 1737 1739 1698 1880 1802 1784 1727 1742 1777 1825 1785 1880 1802 1821 1815 1958 1888 1942 2036 1906 1932 2014 2019 2003 2033 1953 1986 2001 1973 2008 2096 1971 2034 2108 2089 2053 1992 1998 2014 2112 2012 2061 1967 2074 2104 2059 2045 1981 2148 2065 2041 2027 1990 2010 1978 1977 2005 1937 1933 1950 1901 1936 1862 1826 1859 1935 1838 1761 1824 1818 1869 1728 1757 1782 1742 1712 1678 1733 1809 1756 1785 1771 1677 1788 1755 1707 1742 1744 1755 1688 1729 1662 1714 1750 1696 1668 1687 1767 1728 1695 1746 1751 1752 1745 1751 1762 1721 1654 1761 1764 1730 1761 1701 1751 1747 1738 1641 1748 1723 1663 1713 1635 1735 1741 1701 1685 1760 1701 1735 1703 1709 1682 1690 1666 1691 1712 1738 1811 1816 1669 1679 1691 1718 1733 1634 1690 1740 1725 1649 1717 1724 1669 1719 1720 1713 1674 1730 1699 1702 1663 1610 1727 1675 1693 1633 1759 1722 1713 1747 1768 1732 1700 1653 1762 1752 1702 1698 1715 1749 1751 1769 1735 1683 1724 1707 1684 1800 1721 1726 1671 1699 1721 1745 1723 1766 1675 1797 1737 1691 1746 1837 1816 1818 1837 1782 1702 1731 1802 1705 1748 1840 1813 1809 1757 1819 1859 1831 1815 1799 1745 1821 1784 1784 1717 1761 1773 1784 1753 1786 1829 1756 1754 1745 1807 1722 1801 1703 1646 1780 1738 1708 1784 1712 1742 1728 1742 1798 1771 1734 1706 1720 1748 1728 1728 1780 1740 1755 1774 1704 1810 1699 1765 1740 1763 1711 1807 1761 1786 1688 1703 1782 1756 1783 1722 1752 1708 1768 1755 1799 1803 1664 1747 1697 1716 1702 1742 1683 1774 1717 1704 1735 1690 1763 1668 1676 1718 1633 1718 1768 1637 1729 1765 1741 1687 1682 1731 1757 1755 1708 1798 1721 1741 1706 1723 1667 1787 1769 1746 1740 1790 1785 1688 1831 1694 1780 1859 1691 1758 1813 1788 1770 1732 1872 1862 1839 1834 1773 1704 1826 1747 1764 1734 1838 1798 1742 1760 1716 1780 1797 1747 1783 1701 1687 1661 1813 1692 1802 1697 1780 1746 1687 1745 1671 1726 1774 1762 1764 1692 1743 1690 1738 1779 1697 1686 1741 1703 1681 1764 1679 1635 1698 1627 1723 1748 1780 1719 1728 1767 1721 1751 1720 1765 1735 1743 1733 1741 1749 1650 1695 1733 1692 1815 1799 1774 1749 1863 1724 1734 1719 1809 1814 1738 1874 1813 1763 1837 1815 1807 1761 1799 1903 1879 1867 1840 1851 1890 1793 1896 1888 1842 1895 1934 1854 1905 1946 1957 1962 1949 1901 1902 1958 1922 1952 1974 1992 1935 1979 1949 2033 2009 1965 1990 1980 1933 1904 1984 1986 2011 1996 1987 1949 1951 2098 1994 1912 2029 1955 1995 1962 1974 2013 1955 2029 2031 1904 1991 1959 1923 1983 1989 1914 1916 1952 1854 1922 1868 1874 1876 1910 1766 1837 1913 1850 1833 1855 1796 1846 1870 1870 1830 1903 1848 1740 1833 1789 1818 1781 1774 1762 1723 1818 1744 1775 1770 1840 1749 1817 1688 1720 1800 1809 1750 1851 1782 1876 1855 1844 1860 1898 1838 1836 1868 1899 1852 1804 1815 1937 1867 1914 1855 1848 1883 1817 1909 1890 1943 1929 1866 1877 1879 1788 1893 1864 1865 1880 1857 1807 1888 1834 1800 1911 1796 1828 1851 1728 1714 1771 1737 1747 1767 1720 1749 1808 1839 1772 1721 1796 1756 1779 1764 1762 1647 1669 1728 1711 1810 1669 1711 1649 1705 1706 1670 1621 1647 1743 1781 1704 1610 1637 1674 1672 1691 1744 1729 1699 1780 1640 1688 1654 1683 1728 1722 1672 1673 1714 1740 1707 1719 1697 1683 1684 1620 1701 1704 1619 1695 1686 1747 1688 1628 1641 1710 1682 1732 1631 1705 1744 1672 1651 1697 1671 1748 1751 1707 1714 1615 1650 1620 1695 1680 1659 1686 1677 1723 1693 1648 1622 1785 1671 1714 1615 1739 1706 1624 1734 1707 1700 1665 1737 1781 1775 1635 1738 1777 1657 1693 1648 1795 1694 1641 1765 1715 1710 1708 1704 1758 1701 1779 1726 1795 1678 1727 1747 1743 1757 1777 1822 1765 1793 1806 1744 1824 1782 1831 1823 1746 1779 1792 1766 1801 1763 1786 1795 1794 1764 1722 1740 1866 1826 1777 1780 1813 1785 1924 1852 1937 1831 1883 1829 1844 1895 1792 1840 1925 1830 1839 1899 1847 1906 1855 1881 1834 1878 1852 1860 1920 1880 1942 1919 1924 2013 1989 1956 1953 1985 1910 2054 1947 1974 1941 1910 1975 1986 1944 1970 1949 1940 1972 1952 1939 1959 1939 1918 1904 2037 1989 1942 1959 1874 1808 1924 1912 1985 1856 1903 1857 1770 1880 1791 1839 1840 1840 1857 1826 1882 1809 1827 1878 1795 1869 1861 1838 1779 1905 1971 1885 2037 1982 1979 2068 2090 2061 2102 2086 2232 2077 2220 2190 2222 2389 2272 2369 2390 2339 2359 2486 2587 2496 2661 2638 2559 2620 2713 2639 2720 2723 2875 2694 2765 2784 2771 2849 2932 2808 2812 2801 2797 2868 2984 2902 2965 3002 2905 2963 2979 2856 2804 2939 2838 2762 2749 2766 2779 2608 2685 2655 2633 2711 2553 2556 2497 2459 2480 2399 2437 2333 2303 2281 2318 2258 2183 2249 2243 2192 2218 2214 2235 2119 2218 2207 2101 2173 2177 2141 2168 2075 2093 2069 1989 2034 2022 2126 2033 1974 2094 1911 2030 2007 2077 2122 1994 2028 1945 1935 1968 1920 1933 1912 2036 1950 1969 1868 1986 1952 1905 2015 2032 1991 2010 1997 1962 2038 1979 1980 2002 2066 2067 1964 1987 2004 1997 2001 1974 1963 2032 2089 1999 2044 1974 2036 2029 1952 2030 1979 1958 1972 1949 1946 1929 1966 1873 1991 1892 1922 1843 1879 1931 1804 1935 1859 1879 1820 1837 1834 1775 1856 1805 1791 1760 1763 1734 1665 1811 1780 1766 1751 1731 1732 1753 1761 1787 1750 1713 1763 1654 1713 1700 1761 1704 1752 1684 1727 1698 1681 1713 1722 1759 1625 1665 1727 1719 1721 1708 1718 1748 1762 1758 1738 1726 1747 1773 1760 1745 1675 1690 1684 1731 1776 1703 1734 1761 1704 1760 1799 1723 1709 1808 1754 1840 1760 1745 1808 1863 1818 1806 1772 1823 1926 1799 1922 1801 1787 1795 1840 1805 1864 1869 1895 1914 1844 1853 1817 1855 1865 1878 1902 1887 1823 1856 1905 1939 1859 1841 1839 1768 1812 1809 1823 1833 1782 1773 1822 1933 1857 1798 1791 1832 1776 1753 1806 1735 1787 1783 1790 1801 1827 1770 1770 1663 1709 1688 1746 1687 1708 1762 1719 1654 1637 1727 1850 1763 1748 1664 1700 1720 1741 1722 1708 1694 1771 1710 1702 1671 1681 1808 1784 1700 1718 1738 1674 1704 1795 1706 1781 1772 1770 1736 1788 1703 1736 1799 1741 1771 1676 1737 1689 1770 1674 1700 1706 1758 1758 1726 1798 1724 1771 1700 1722 1666 1727 1737 1836 1806 1762 1710 1823 1760 1706 1799 1724 1675 1773 1657 1696 1794 1722 1672 1713 1805 1738 1784 1707 1693 1808 1759 1738 1701 1774 1708 1769 1800 1759 1721 1748 1749 1702 1770 1800 1786 1766 1751 1799 1760 1727 1770 1816 1776 1710 1728 1752 1695 1710 1762 1810 1766 1791 1801 1754 1726 1796 1783 1768 1825 1736 1701 1698 1766 1698 1647 1714 1725 1739 1753 1664 1710 1725 1630 1659 1643 1797 1808 1651 1700 1699 1724 1668 1651 1632 1707 1648 1686 1661 1619 1617 1625 1675 1681 1634 1679 1712 1585 1652 1616 1576 1642 1564 1654 1583 1666 1635 1687 1670 1624 1635 1584 1716 1654 1717 1645 1657 1720 1648 1615 1708 1692 1684 1706 1677 1630 1610 1582 1524 1596 1662 1704 1629 1683 1686 1742 1640 1701 1604 1604 1603 1620 1614 1647 1688 1582 1681 1592 1687 1712 1649 1682 1653 1655 1671 1636 1613 1598 1676 1658 1675 1635 1628 1668 1653 1615 1640 1703 1661 1694 1617 1661 1619 1706 1620 1585 1721 1695 1601 1630 1659 1635 1688 1715 1665 1672 1658 1714 1598 1653 1671 1663 1598 1657 1633 1668 1633 1681 1666 1606 1654 1644 1635 1622 1626 1685 1679 1767 1626 1596 1625 1632 1575 1656 1682 1582 1632 1564 1646 1623 1646 1623 1732 1653 1618 1609 1651 1610 1742 1617 1606 1617 1611 1639 1687 1604 1664 1568 1661 1647 1677 1668 1655 1619 1563 1651 1625 1609 1712 1626 1737 1672 1616 1589 1660 1670 1642 1632 1633 1640 1624 1584 1726 1610 1567 1581 1689 1640 1625 1613 1603 1688 1589 1647 1502 1543 1600 1625 1652 1696 1664 1702 1749 1646 1625 1635 1653 1704 1696 1655 1721 1579 1660 1691 1695 1661 1593 1649 1664 1552 1625 1595 1619 1595 1708 1598 1639 1674 1606 1634 1659 1611 1691 1685 1617 1633 1615 1671 1603 1610 1663 1625 1682 1676 1685 1665 1697 1572 1647 1604 1593 1672 1603 1590 1697 1721 1699 1661 1626 1658 1641 1652 1625 1677 1749 1667 1658 1540 1714 1608 1624 1668 1633 1699 1624 1632 1634 1604 1630 1590 1677 1642 1591 1746 1698 1633 1742 1699 1678 1662 1591 1687 1679 1670 1632 1687 1671 1654 1624 1557 1688 1675 1622 1674 1699 1711 1653 1672 1623 1691 1652 1632 1654 1620 1663 1713 1712 1674 1685 1648 1555 1645 1628 1699 1709 1695 1645 1682 1743 1670 1698 1615 1616 1645 1706 1694 1715 1685 1678 1618 1600 1623 1610 1738 1670 1605 1652 1661 1646 1617 1678 1624 1597 1654 1680 1630 1630 1603 1638 1590 1642 1667 1658 1650 1691 1630 1729 1604 1714 1636 1627 1729 1741 1615 1620 1658 1666 1704 1716 1632 1715 1635 1666 1738 1651 1719 1681 1692 1635 1670 1677 1633 1664 1686 1705 1591 1641 1678 1701 1726 1669 1669 1658 1647 1647 1660 1633 1680 1674 1689 1661 1748 1669 1649 1702 1625 1681 1647 1626 1679 1673 1607 1661 1665 1631 1666 1720 1719 1715 1813 1705 1710 1688 1705 1639 1646 1730 1683 1715 1755 1795 1687 1787 1778 1796 1845 1753 1859 1642 1720 1764 1717 1786 1758 1810 1813 1776 1771 1749 1812 1746 1861 1833 1787 1830 1845 1971 1813 1916 1859 1811 1815 1849 1780 1826 1856 1848 1815 1811 1826 1882 1866 1892 1767 1857 1865 1918 1876 1870 1836 1873 1838 1861 1881 1879 1876 1750 1853 1830 1849 1804 1810 1846 1889 1833 1794 1816 1826 1887 1823 1832 1748 1859 1690 1813 1759 1846 1797 1790 1766 1725 1749 1715 1680 1681 1771 1752 1760 1737 1682 1686 1693 1696 1734 1737 1660 1729 1719 1672 1677 1626 1635 1643 1601 1636 1691 1701 1631 1674 1603 1697 1696 1636 1543 1665 1712 1674 1652 1715 1646 1640 1576 1727 1690 1674 1626 1650 1653 1658 1683 1571 1735 1607 1629 1656 1628 1707 1588 1652 1626 1704 1622 1609 1643 1601 1586 1639 1706 1672 1695 1664 1649 1646 1651 1645 1592 1636 1688 1620 1550 1691 1649 1598 1564 1638 1591 1651 1607 1614 1634 1638 1655 1682 1760 1656 1616 1627 1675 1692 1734 1713 1677 1658 1704 1702 1606 1552 1626 1627 1602 1648 1736 1696 1605 1560 1633 1595 1618 1708 1717 1606 1598 1633 1554 1634 1650 1600 1648 1644 1627 1714 1609 1708 1538 1630 1630 1682 1711 1683 1699 1614 1715 1620 1675 1726 1634 1637 1582 1739 1630 1677 1722 1649 1618 1731 1658 1722 1691 1720 1757 1696 1753 1656 1731 1713 1797 1732 1804 1770 1823 1828 1726 1797 1819 1787 1818 1861 1770 1823 1886 1842 1809 1865 1883 1924 1876 1931 1855 1972 1878 1999 1988 1894 1954 2052 1949 2070 2023 1953 2004 2041 2070 2109 2095 2144 2141 2039 2015 2094 2121 2042 2053 2073 2083 2151 2168 2084 2068 2171 2108 2100 2094 1968 1984 2095 1991 2030 1939 2029 2032 2013 1961 1943 1931 1905 1879 1882 1935 1907 1900 1898 1780 1867 1895 1895 1866 1763 1884 1886 1848 1897 1849 1753 1788 1827 1853 1845 1717 1864 1696 1728 1794 1844 1865 1769 1763 1785 1759 1693 1750 1735 1698 1702 1802 1722 1742 1804 1701 1752 1760 1684 1727 1684 1768 1760 1725 1766 1689 1714 1738 1692 1672 1793 1738 1662 1682 1660 1755 1685 1761 1729 1712 1747 1772 1672 1771 1754 1727 1708 1668 1746 1753 1719 1781 1831 1762 1674 1738 1788 1767 1831 1806 1804 1816 1855 1865 1903 1848 1906 1935 1938 1895 1997 1951 1989 1979 1969 2042 2141 2121 2079 2173 2152 2176 2189 2187 2276 2297 2201 2247 2203 2221 2161 2187 2194 2113 2150 2175 2131 2185 2172 2105 2112 2164 2142 2068 2105 2090 2054 2015 1991 1974 1961 1960 1895 1960 1946 1957 1935 1897 1885 1787 1861 1855 1860 1902 1833 1882 1773 1805 1807 1775 1854 1809 1828 1677 1762 1767 1766 1789 1718 1722 1780 1749 1764 1728 1819 1737 1716 1788 1717 1693 1750 1700 1767 1727 1778 1687 1690 1670 1711 1644 1720 1730 1730 1671 1696 1672 1690 1654 1654 1655 1603 1667 1689 1632 1644 1698 1672 1668 1708 1683 1588 1675 1717 1614 1667 1645 1681 1713 1640 1745 1608 1615 1707 1674 1648 1647 1640 1659 1638 1657 1621 1714 1725 1692 1680 1594 1686 1580 1642 1574 1667 1663 1632 1627 1667 1639 1685 1679 1596 1658 1628 1624 1607 1697 1619 1577 1588 1639 1640 1674 1683 1671 1693 1661 1635 1624 1633 1622 1646 1610 1744 1696 1677 1655 1714 1606 1651 1667 1722 1618 1622 1657 1704 1737 1669 1616 1692 1686 1748 1745 1755 1717 1769 1752 1767 1787 1789 1765 1816 1730 1772 1858 1725 1772 1788 1808 1669 1791 1750 1782 1771 1814 1728 1685 1808 1787 1688 1659 1745 1651 1749 1666 1723 1766 1709 1719 1585 1693 1719 1645 1691 1608 1798 1653 1673 1723 1677 1660 1617 1719 1693 1718 1701 1642 1616 1709 1634 1672 1583 1667 1637 1584 1705 1656 1654 1595 1624 1620 1608 1592 1566 1643 1686 1650 1616 1645 1643 1604 1644 1599 1573 1616 1592 1664 1586 1611 1620 1598 1638 1596 1648 1688 1599 1643 1659 1576 1632 1586 1624 1594 1640 1667 1642 1598 1605 1634 1661 1686 1638 1662 1604 1588 1555 1747 1650 1643 1624 1595 1509 1563 1647 1669 1597 1608 1623 1616 1639 1573 1625 1673 1607 1638 1736 1685 1691 1597 1578 1581 1677 1673 1744 1567 1556 1637 1582 1682 1668 1625 1600 1671 1642 1619 1646 1611 1623 1685 1621 1661 1647 1619 1682 1617 1626 1684 1556 1646 1636 1672 1664 1659 1604 1608 1606 1633 1571 1599 1581 1596 1581 1614 1619 1631 1669 1677 1613 1676 1697 1597 1586 1599 1589 1589 1544 1614 1527 1652 1659 1615 1640 1674 1608 1589 1565 1621 1726 1568 1693 1560 1639 1603 1617 1581 1616 1642 1639 1667 1591 1652 1607 1621 1654 1589 1638 1603 1686 1659 1664 1556 1655 1674 1673 1663 1662 1691 1641 1715 1626 1662 1614 1659 1558 1655 1609 1555 1630 1681 1553 1693 1664 1615 1539 1632 1665 1621 1634 1611 1607 1707 1646 1607 1660 1569 1626 1623 1674 1619 1665 1558 1682 1624 1656 1613 1649 1585 1638 1651 1609 1584 1584 1677 1587 1673 1613 1675 1580 1597 1614 1594 1596 1611 1692 1699 1588 1634 1605 1661 1699 1621 1700 1647 1539 1613 1633 1656 1663 1638 1687 1607 1660 1626 1601 1599 1629 1595 1651 1675 1567 1627 1621 1683 1674 1594 1606 1577 1670 1639 1593 1644 1679 1642 1611 1684 1665 1643 1576 1632 1641 1641 1627 1612 1696 1647 1632 1663 1615 1600 1668 1586 1624 1682 1633 1669 1576 1679 1667 1626 1533 1640 1677 1599 1622 1683 1632 1697 1650 1674 1672 1665 1629 1731 1688 1653 1591 1654 1780 1698 1636 1637 1671 1717 1742 1658 1706 1706 1700 1750 1678 1699 1697 1680 1645 1686 1697 1692 1635 1648 1720 1682 1641 1658 1659 1706 1634 1696 1690 1704 1678 1560 1632 1654 1592 1710 1641 1621 1609 1624 1690 1655 1642 1670 1600 1614 1610 1664 1606 1611 1628 1630 1587 1631 1695 1567 1685 1595 1682 1627 1664 1654 1606 1633 1702 1663 1599 1671 1622 1673 1632 1669 1618 1620 1603 1618 1649 1579 1630 1687 1612 1624 1621 1607 1584 1675 1657 1663 1660 1582 1688 1579 1661 1605 1642 1573 1695 1598 1651 1637 1604 1603 1584 1584 1615 1542 1591 1610 1602 1618 1609 1596 1571 1609 1609 1629 1644 1605 1596 1693 1561 1654 1613 1739 1630 1651 1646 1646 1559 1623 1675 1620 1544 1739 1620 1694 1576 1599 1616 1612 1669 1600 1601 1663 1626 1595 1630 1600 1579 1680 1552 1572 1585 1657 1585 1633 1611 1644 1616 1649 1669 1648 1641 1655 1619 1644 1612 1648 1638 1671 1589 1602 1637 1582 1556 1614 1655 1648 1691 1603 1561 1642 1553 1637 1625 1692 1608 1539 1624 1632 1615 1655 1502 1678 1694 1625 1622 1616 1613 1632 1649 1700 1633 1634 1668 1593 1610 1660 1608 1582 1558 1578 1582 1611 1597 1579 1636 1618 1667 1702 1649 1635 1696 1649 1647 1665 1613 1626 1681 1534 1650 1602 1687 1634 1624 1699 1557 1623 1650 1598 1604 1608 1645 1644 1644 1639 1614 1647 1682 1586 1594 1711 1660 1584 1704 1653 1591 1579 1643 1616 1653 1640 1582 1623 1756 1673 1592 1534 1652 1676 1576 1668 1688 1647 1652 1649 1673 1609 1611 1601 1700 1654 1656 1587 1643 1631 1673 1674 1730 1633 1713 1620 1708 1681 1758 1563 1700 1724 1653 1624 1693 1712 1713 1740 1726 1729 1688 1742 1681 1731 1669 1652 1744 1715 1774 1708 1711 1745 1762 1671 1803 1781 1787 1726 1701 1724 1818 1725 1725 1771 1751 1728 1694 1716 1724 1742 1788 1711 1724 1730 1726 1734 1782 1626 1723 1724 1658 1637 1720 1730 1683 1695 1670 1644 1687 1657 1712 1642 1736 1638 1730 1644 1667 1647 1699 1615 1730 1743 1710 1757 1740 1667 1757 1684 1678 1699 1705 1708 1722 1707 1643 1725 1666 1728 1704 1617 1661 1732 1664 1667 1690 1728 1695 1642 1717 1658 1679 1658 1636 1653 1714 1688 1653 1647 1616 1744 1628 1670 1702 1592 1744 1664 1602 1655 1646 1665 1634 1702 1692 1641 1663 1653 1653 1670 1597 1652 1650 1718 1668 1653 1681 1661 1662 1621 1631 1644 1645 1621 1602 1626 1631 1670 1662 1663 1713 1663 1666 1581 1618 1664 1630 1685 1678 1647 1636 1702 1659 1696 1730 1680 1707 1679 1719 1587 1534 1623 1691 1692 1670 1672 1612 1628 1677 1600 1669 1677 1658 1658 1625 1619 1669 1699 1731 1687 1669 1609 1674 1570 1571 1711 1690 1708 1647 1620 1624 1655 1542 1711 1557 1653 1628 1682 1678 1660 1712 1662 1678 1613 1706 1710 1591 1653 1653 1623 1681 1690 1728 1634 1560 1696 1606 1605 1638 1584 1643 1608 1656 1603 1551 1605 1646 1575 1570 1594 1607 1679 1638 1657 1642 1651 1604 1649 1714 1665 1581 1641 1651 1599 1677 1707 1648 1647 1646 1670 1593 1628 1676 1614 1655 1590 1583 1583 1666 1641 1635 1608 1634 1528 1619 1659 1580 1667 1558 1577 1550 1683 1643 1657 1671 1666 1591 1678 1606 1700 1647 1641 1603 1623 1670 1637 1642 1660 1668 1641 1635 1586 1606 1594 1657 1674 1618 1643 1617 1691 1594 1627 1631 1694 1588 1629 1710 1604 1664 1644 1664 1634 1630 1729 1623 1628 1700 1605 1642 1705 1704 1657 1608 1620 1793 1623 1673 1655 1630 1671 1633 1643 1683 1602 1610 1592 1592 1582 1611 1567 1660 1719 1606 1645 1617 1623 1606 1597 1569 1592 1583 1671 1589 1665 1621 1651 1667 1659 1614 1658 1607 1644 1617 1631 1648 1584 1623 1672 1625 1712 1602 1619 1652 1671 1580 1647 1621 1606 1614 1688 1510 1557 1643 1589 1663 1627 1587 1644 1682 1600 1729 1625 1613 1623 1686 1632 1675 1664 1669 1602 1600 1664 1626 1642 1593 1666 1661 1636 1641 1662 1665 1701 1641 1582 1571 1625 1610 1581 1656 1625 1547 1617 1562 1665 1688 1649 1614 1663 1649 1683 1625 1651 1604 1684 1696 1665 1629 1647 1714 1562 1675 1680 1619 1572 1617 1689 1632 1614 1645 1697 1667 1614 1587 1630 1697 1683 1578 1586 1623 1664 1586 1584 1672 1666 1641 1644 1657 1697 1645 1708 1634 1607 1659 1614 1674 1644 1576 1648 1565 1600 1721 1651 1584 1647 1595 1672 1521 1624 1624 1639 1555 1629 1648 1550 1652 1548 1674 1711 1556 1660 1603 1599 1679 1567 1662 1725 1636 1553 1581 1606 1592 1574 1619 1653 1648 1660 1617 1589 1581 1727 1626 1645 1580 1663 1615 1656 1637 1598 1608 1660 1593 1564 1755 1608 1601 1624 1633 1646 1593 1648 1608 1644 1702 1653 1604 1604 1634 1666 1628 1641 1636 1689 1588 1621 1589 1615 1628 1654 1622 1706 1635 1639 1597 1643 1668 1673 1587 1589 1602 1641 1623 1605 1625 1674 1579 1627 1588 1627 1585 1659 1665 1641 1599 1615 1591 1631 1666 1604 1674 1693 1620 1630 1590 1692 1607 1581 1630 1640 1599 1661 1657 1596 1709 1653 1611 1622 1681 1688 1723 1705 1572 1594 1734 1634 1571 1642 1668 1631 1658 1593 1595 1604 1685 1699 1511 1626 1626 1675 1661 1668 1636 1677 1680 1716 1620 1703 1602 1673 1555 1608 1639 1726 1682 1650 1669 1703 1716 1656 1691 1669 1639 1687 1640 1656 1698 1672 1794 1724 1722 1777 1742 1779 1714 1746 1673 1724 1720 1734 1701 1755 1726 1778 1737 1632 1705 1749 1733 1747 1679 1727 1736 1784 1778 1705 1650 1769 1720 1698 1755 1723 1746 1678 1722 1711 1733 1754 1676 1721 1736 1799 1688 1736 1735 1665 1745 1782 1593 1719 1758 1679 1711 1715 1744 1787 1689 1714 1740 1706 1719 1679 1644 1699 1716 1662 1740 1722 1667 1690 1700 1728 1668 1702 1731 1721 1738 1701 1763 1675 1649 1690 1691 1646 1675 1675 1595 1683 1700 1692 1653 1758 1660 1624 1782 1736 1711 1658 1655 1681 1687 1663 1716 1657 1709 1695 1665 1643 1720 1724 1751 1730 1702 1720 1693 1723 1695 1734 1699 1712 1689 1672 1674 1712 1712 1773 1649 1720 1718 1714 1766 1722 1773 1704 1678 1712 1826 1671 1643 1756 1716 1625 1689 1666 1730 1708 1732 1747 1684 1686 1658 1755 1711 1696 1707 1664 1671 1609 1712 1669 1704 1696 1717 1728 1762 1718 1732 1738 1624 1689 1703 1675 1733 1683 1624 1666 1712 1647 1684 1747 1650 1716 1657 1656 1681 1718 1741 1647 1698 1699 1648 1808 1755 1738 1826 1724 1680 1776 1687 1811 1763 1680 1779 1797 1753 1853 1795 1754 1803 1851 1832 1818 1915 1807 1820 1808 1827 1827 1752 1720 1762 1810 1745 1750 1771 1684 1724 1776 1787 1688 1747 1764 1745 1750 1875 1696 1823 1764 1801 1817 1717 1741 1826 1768 1706 1733 1751 1802 1744 1657 1725 1765 1699 1676 1730 1747 1751 1687 1707 1795 1721 1785 1812 1790 1703 1700 1686 1740 1816 1741 1808 1824 1787 1745 1720 1827 1710 1768 1780 1924 1850 1834 1912 1864 1901 1812 1916 1897 1873 1933 1907 1881 1865 1868 1936 1930 1899 1981 1963 2008 1983 1877 1946 1918 1893 1822 1926 1929 1794 1913 1833 1806 1879 1917 1945 1868 1887 1843 1894 1883 1887 1858 1924 1780 1846 1846 1767 1850 1778 1885 1829 1741 1831 1750 1842 1744 1811 1778 1773 1815 1848 1741 1710 1674 1756 1714 1743 1862 1742 1798 1700 1778 1742 1687 1737 1731 1776 1748 1749 1624 1711 1772 1763 1806 1823 1733 1731 1772 1793 1739 1729 1806 1784 1764 1762 1772 1721 1784 1739 1770 1766 1696 1679 1787 1787 1735 1754 1853 1717 1773 1775 1760 1708 1774 1799 1705 1776 1808 1718 1745 1743 1714 1722 1719 1808 1741 1767 1703 1732 1776 1799 1792 1755 1739 1690 1671 1702 1712 1725 1703 1672 1679 1650 1589 1722 1685 1744 1761 1710 1704 1755 1669 1718 1714 1714 1609 1669 1763 1748 1671 1774 1666 1705 1584 1653 1686 1598 1700 1724 1652 1727 1669 1737 1733 1788 1744 1721 1742 1792 1665 1685 1701 1663 1719 1739 1733 1755 1741 1744 1756 1797 1762 1761 1735 1708 1775 1741 1746 1768 1771 1666 1756 1854 1774 1770 1783 1733 1712 1774 1764 1677 1766 1742 1875 1709 1760 1844 1670 1727 1771 1808 1805 1708 1780 1772 1726 1799 1842 1787 1749 1616 1763 1701 1775 1686 1800 1728 1766 1779 1699 1704 1752 1753 1715 1744 1793 1725 1756 1737 1738 1710 1705 1743 1669 1738 1780 1722 1757 1750 1755 1811 1692 1792 1737 1743 1811 1716 1752 1774 1780 1733 1796 1756 1750 1833 1685 1772 1717 1744 1703 1684 1726 1738 1738 1716 1698 1690 1706 1681 1721 1618 1667 1679 1663 1629 1731 1696 1668 1656 1675 1689 1680 1734 1627 1736 1638 1688 1708 1619 1659 1595 1727 1662 1700 1711 1709 1658 1713 1642 1615 1632 1676 1703 1697 1706 1622 1667 1628 1688 1688 1582 1701 1633 1692 1647 1665 1692 1675 1634 1676 1683 1696 1703 1641 1588 1684 1673 1644 1631 1628 1637 1617 1672 1643 1645 1623 1757 1671 1701 1695 1717 1624 1632 1712 1687 1658 1630 1658 1683 1650 1677 1612 1621 1677 1656 1654 1651 1626 1629 1657 1661 1671 1662 1619 1631 1657 1624 1651 1700 1664 1694 1664 1596 1620 1713 1728 1606 1772 1692 1695 1674 1634 1645 1697 1666 1680 1723 1669 1754 1707 1710 1678 1568 1672 1629 1674 1644 1624 1661 1638 1609 1653 1625 1594 1677 1641 1621 1632 1651 1628 1589 1632 1604 1646 1665 1698 1646 1612 1656 1571 1664 1617 1665 1645 1646 1610 1671 1636 1626 1627 1621 1661 1622 1642 1584 1708 1632 1627 1608 1593 1682 1591 1630 1600 1655 1619 1674 1693 1660 1626 1762 1613 1601 1697 1595 1660 1619 1607 1599 1701 1639 1661 1611 1643 1602 1609 1710 1667 1628 1628 1600 1674 1672 1576 1656 1667 1635 1630 1686 1691 1733 1614 1593 1694 1652 1593 1621 1600 1621 1614 1675 1598 1665 1690 1619 1699 1635 1637 1647 1631 1597 1664 1610 1636 1572 1597 1597 1764 1661 1570 1638 1643 1756 1671 1744 1642 1636 1623 1622 1660 1714 1597 1719 1597 1620 1672 1615 1650 1652 1622 1630 1682 1655 1679 1715 1585 1646 1636 1729 1685 1691 1670 1642 1700 1662 1656 1672 1632 1690 1569 1716 1698 1663 1642 1701 1588 1713 1526 1636 1647 1670 1663 1627 1608 1627 1661 1614 1619 1581 1637 1675 1620 1693 1633 1665 1692 1726 1636 1719 1667 1597 1646 1568 1600 1691 1640 1650 1761 1662 1629 1661 1632 1634 1700 1709 1685 1631 1598 1733 1699 1718 1629 1671 1599 1680 1664 1648 1677 1653 1674 1658 1634 1604 1686 1661 1610 1655 1596 1624 1662 1678 1650 1673 1623 1698 1680 1657 1703 1651 1794 1642 1719 1710 1645 1679 1643 1700 1664 1680 1618 1749 1722 1701 1631 1609 1721 1638 1667 1613 1740 1678 1643 1799 1703 1652 1672 1678 1748 1686 1719 1740 1672 1604 1689 1683 1646 1737 1696 1663 1700 1686 1598 1650 1619 1650 1647 1651 1640 1625 1672 1612 1682 1699 1699 1620 1667 1709 1675 1662 1685 1669 1667 1606 1599 1692 1681 1611 1607 1678 1579 1743 1637 1679 1666 1626 1628 1682 1589 1651 1691 1672 1680 1703 1622 1726 1664 1663 1748 1612 1627 1722 1640 1707 1678 1655 1672 1569 1706 1707 1632 1740 1713 1656 1712 1694 1611 1651 1613 1654 1698 1675 1640 1740 1779 1706 1712 1673 1642 1708 1650 1603 1670 1645 1594 1668 1689 1719 1649 1680 1702 1704 1679 1724 1654 1668 1599 1581 1660 1634 1588 1674 1696 1647 1666 1665 1684 1690 1786 1657 1735 1631 1673 1709 1603 1673 1656 1646 1624 1604 1660 1657 1745 1652 1690 1686 1666 1682 1623 1686 1675 1659 1703 1667 1683 1653 1672 1689 1620 1560 1661 1596 1628 1647 1669 1629 1649 1591 1620 1705 1627 1635 1664 1646 1679 1664 1649 1712 1670 1608 1625 1672 1634 1670 1646 1711 1702 1649 1733 1685 1653 1716 1647 1692 1698 1667 1703 1694 1598 1706 1639 1633 1603 1604 1698 1671 1666 1634 1695 1690 1720 1572 1618 1693 1706 1695 1680 1713 1664 1596 1610 1749 1658 1687 1655 1685 1699 1632 1620 1628 1746 1749 1726 1756 1662 1638 1676 1729 1710 1693 1727 1691 1722 1762 1704 1734 1717 1681 1710 1726 1786 1756 1811 1671 1735 1773 1706 1761 1791 1780 1796 1800 1795 1788 1782 1769 1741 1805 1750 1790 1883 1753 1789 1766 1799 1740 1856 1747 1728 1808 1843 1789 1810 1755 1801 1833 1885 1841 1808 1790 1773 1876 1787 1751 1852 1789 1838 1817 1901 1790 1873 1795 1858 1861 1787 1832 1764 1772 1769 1805 1782 1761 1805 1719 1807 1741 1747 1779 1776 1717 1744 1768 1737 1700 1803 1815 1782 1703 1779 1696 1741 1757 1708 1736 1782 1699 1754 1671 1730 1744 1742 1779 1784 1765 1715 1760 1750 1674 1723 1668 1688 1692 1758 1733 1740 1767 1694 1656 1777 1832 1695 1790 1708 1774 1756 1774 1746 1745 1769 1777 1750 1786 1734 1725 1678 1744 1831 1708 1743 1749 1713 1834 1727 1869 1775 1780 1756 1807 1711 1769 1777 1812 1796 1722 1749 1754 1679 1629 1766 1750 1696 1800 1739 1681 1768 1782 1777 1686 1620 1730 1700 1738 1611 1701 1703 1652 1690 1651 1723 1649 1780 1665 1638 1679 1794 1678 1682 1723 1676 1729 1635 1774 1673 1651 1724 1624 1645 1682 1695 1595 1709 1681 1746 1694 1677 1663 1712 1701 1642 1689 1688 1728 1737 1684 1646 1768 1651 1793 1739 1787 1655 1712 1638 1689 1755 1715 1731 1753 1654 1720 1653 1737 1678 1754 1671 1719 1774 1698 1714 1656 1682 1645 1687 1726 1699 1697 1723 1675 1759 1687 1653 1696 1672 1654 1735 1706 1645 1664 1734 1657 1671 1692 1630 1690 1723 1732 1632 1693 1703 1644 1666 1634 1703 1635 1713 1721 1726 1713 1775 1684 1753 1792 1734 1648 1790 1673 1722 1713 1770 1772 1723 1663 1782 1815 1752 1709 1648 1749 1760 1735 1713 1632 1812 1738 1805 1855 1710 1734 1726 1676 1685 1755 1737 1737 1726 1691 1689 1730 1749 1682 1760 1708 1666 1673 1726 1618 1693 1679 1696 1695 1721 1654 1669 1688 1757 1712 1705 1716 1681 1695 1717 1726 1700 1671 1729 1649 1698 1569 1612 1714 1595 1633 1688 1676 1717 1687 1653 1730 1709 1700 1669 1697 1686 1742 1680 1728 1709 1716 1635 1589 1624 1627 1653 1710 1729 1642 1634 1663 1666 1671 1669 1607 1610 1747 1683 1607 1618 1714 1585 1634 1630 1627 1749 1681 1570 1675 1594 1651 1709 1664 1700 1720 1661 1664 1657 1694 1612 1687 1656 1592 1685 1620 1681 1574 1614 1646 1702 1626 1662 1606 1646 1691 1645 1667 1652 1654 1681 1695 1635 1601 1664 1683 1710 1680 1694 1625 1698 1761 1655 1682 1630 1611 1673 1689 1660 1643 1624 1659 1706 1618 1706 1631 1699 1610 1646 1704 1634 1675 1643 1605 1634 1614 1648 1597 1679 1618 1646 1660 1633 1664 1689 1703 1665 1687 1595 1678 1628 1664 1609 1655 1670 1692 1673 1634 1681 1690 1670 1667 1607 1602 1663 1657 1642 1724 1677 1654 1616 1677 1711 1614 1583 1687 1696 1626 1687 1694 1596 1670 1557 1683 1585 1716 1693 1715 1623 1663 1668 1720 1607 1727 1647 1653 1672 1639 1704 1590 1609 1651 1618 1675 1569 1665 1664 1612 1602 1613 1651 1572 1628 1689 1684 1677 1692 1664 1698 1665 1650 1614 1652 1685 1707 1682 1644 1629 1637 1595 1628 1717 1687 1596 1695 1698 1688 1590 1690 1628 1678 1674 1655 1695 1702 1622 1602 1706 1625 1604 1625 1617 1691 1651 1736 1698 1647 1640 1748 1617 1748 1703 1654 1630 1704 1650 1643 1646 1601 1659 1641 1636 1638 1706 1660 1646 1664 1676 1594 1644 1602 1688 1602 1674 1658 1619 1658 1668 1631 1725 1602 1651 1697 1627 1661 1678 1738 1684 1702 1719 1687 1638 1605 1622 1704 1648 1650 1634 1635 1687 1635 1624 1628 1647 1671 1628 1660 1609 1646 1707 1766 1682 1620</counts>
			</dataPoints>
		</scan>
	</xrdMeasurement>
</xrdMeasurements>
