<?xml version="1.0"?>
<xrdMeasurements xmlns="http://www.xrdml.com/XRDMeasurement/2.3" xmlns:xsi="http://www.w3.org/2001/XMLSchema-instance" xsi:schemaLocation="http://www.xrdml.com/XRDMeasurement/2.3 http://www.xrdml.com/XRDMeasurement/2.3/XRDMeasurement.xsd" status="Completed" recordIdentifier="{7D1D487A-E91F-43B3-A4DA-BF1E2DACA205}">
	<comment>
		<entry/>
	</comment>
	<sample type="To be analyzed">
		<id>GPSS_Li1p875Mg0p7Y0p2Nb0p025Cl4_121225_693c5ab8f4d05ae3d6974f23</id>
		<name></name>
		<preparedBy></preparedBy>
	</sample>
	<xrdMeasurement measurementType="Scan" status="Completed" sampleMode="Reflection">
		<usedWavelength intended="K-Alpha 1">
			<kAlpha1 unit="Angstrom">1.5405980</kAlpha1>
			<kAlpha2 unit="Angstrom">1.5444260</kAlpha2>
			<kBeta unit="Angstrom">1.3922500</kBeta>
			<ratioKAlpha2KAlpha1>0.5000</ratioKAlpha2KAlpha1>
		</usedWavelength>
		<incidentBeamPath>
			<radius unit="mm">145.00</radius>
			<xRayTube id="1010048" name="Empyrean Cu LFF HR (9430 033 7310x)">
				<tension unit="kV">40.0</tension>
				<current unit="mA">15.0</current>
				<anodeMaterial>Cu</anodeMaterial>
				<focus type="Line">
					<length unit="mm">12.0</length>
					<width unit="mm">0.4</width>
					<takeOffAngle unit="deg">6.0</takeOffAngle>
				</focus>
			</xRayTube>
			<sollerSlit id="21010002" name="Soller slits 0.04 rad.">
				<opening unit="rad">0.0400</opening>
			</sollerSlit>
			<mask id="22031000" name="Fixed mask 13 mm">
				<width unit="mm">9.00</width>
			</mask>
			<divergenceSlit id="22120001" name="Divergence slit 1°" xsi:type="fixedDivergenceSlitType">
				<distanceToSample unit="mm">50.00</distanceToSample>
				<height unit="mm">1.52</height>
			</divergenceSlit>
		</incidentBeamPath>
		<sampleMovement xsi:type="spinningSampleMovementType">
			<spinnerRevolutionTime unit="seconds">1.0</spinnerRevolutionTime>
		</sampleMovement>
		<diffractedBeamPath>
			<radius unit="mm">145.00</radius>
			<antiScatterSlit id="22090040" name="AS slit 9 mm (PIXcel)" xsi:type="fixedAntiScatterSlitType">
				<height unit="mm">9.00</height>
			</antiScatterSlit>
			<sollerSlit id="21020003" name="Large Soller slits 0.04 rad.">
				<opening unit="rad">0.0400</opening>
			</sollerSlit>
			<filter id="20030001" name="Large beta-filter Nickel">
				<material>Ni</material>
				<thickness unit="mm">0.020</thickness>
			</filter>
			<detector id="7010019" name="PIXcel1D-Medipix3 detector" xsi:type="rtmsDetectorType">
				<phd unit="keV">
					<lowerLevel>4.02</lowerLevel>
					<upperLevel>11.27</upperLevel>
				</phd>
				<mode>Scanning</mode>
				<activeLength unit="deg">5.542</activeLength>
			</detector>
		</diffractedBeamPath>
		<scan appendNumber="0" mode="Continuous" scanAxis="Gonio" status="Completed">
			<header>
				<startTimeStamp>2025-12-16T11:25:45-08:00</startTimeStamp>
				<endTimeStamp>2025-12-16T11:33:52-08:00</endTimeStamp>
				<author>
					<name>AutomatedUser</name>
				</author>
				<source>
					<applicationSoftware version="1.7b (136)">PANalytical Aeris Instrument Suite</applicationSoftware>
					<instrumentControlSoftware version="3.2.00000000 20240306">AERIS</instrumentControlSoftware>
					<instrumentID>950485</instrumentID>
				</source>
			</header>
			<dataPoints>
				<positions axis="2Theta" unit="deg">
					<startPosition>10.00943322</startPosition>
					<endPosition>99.99442286</endPosition>
				</positions>
				<positions axis="Omega" unit="deg">
					<startPosition>5.00471661</startPosition>
					<endPosition>49.99721143</endPosition>
				</positions>
				<commonCountingTime unit="seconds">12.495</commonCountingTime>
				<counts unit="counts">2770 2763 2831 2769 2716 2794 2763 2727 2776 2883 2736 2718 2715 2691 2786 2837 2741 2749 2728 2689 2799 2760 2753 2771 2750 2854 2723 2647 2812 2681 2736 2783 2751 2756 2711 2788 2794 2809 2750 2889 2854 2783 2787 2679 2825 2740 2783 2727 2752 2712 2764 2839 2681 2790 2867 2746 2747 2831 2739 2843 2793 2815 2723 2758 2778 2784 2663 2743 2732 2890 2712 2773 2685 2782 2804 2780 2723 2778 2802 2727 2748 2817 2746 2812 2807 2726 2842 2797 2791 2830 2813 2791 2831 2844 2708 2746 2811 2863 2628 2813 2829 2845 2903 2760 2767 2837 2773 2802 2741 2818 2773 2934 2810 2831 2801 2840 2789 2906 2818 2833 2790 2862 2806 2852 2823 2867 2811 2846 2837 2869 2785 2877 2742 2896 2784 2900 2706 2773 2840 2741 2817 2785 2861 2866 2732 2813 2866 2820 2728 2793 2856 2816 2777 2805 2816 2887 2757 2820 2753 2777 2770 2882 2805 2813 2764 2750 2808 2736 2846 2762 2840 2852 2824 2769 2832 2766 2724 2841 2822 2678 2768 2789 2850 2787 2749 2684 2792 2818 2769 2855 2707 2908 2868 2810 2725 2697 2804 2852 2783 2806 2780 2818 2761 2797 2810 2729 2658 2779 2779 2773 2751 2786 2724 2837 2715 2830 2724 2790 2729 2760 2739 2676 2739 2750 2840 2750 2766 2756 2825 2834 2705 2794 2625 2703 2732 2739 2737 2785 2679 2713 2706 2702 2635 2767 2720 2658 2619 2680 2626 2735 2769 2710 2602 2719 2670 2724 2702 2682 2626 2696 2750 2781 2688 2727 2700 2644 2712 2744 2614 2743 2720 2706 2793 2610 2628 2632 2685 2668 2692 2690 2688 2698 2702 2706 2623 2613 2676 2689 2715 2668 2750 2730 2687 2653 2594 2670 2630 2722 2620 2698 2672 2791 2784 2648 2730 2561 2731 2683 2743 2584 2696 2680 2766 2698 2753 2727 2762 2761 2737 2747 2756 2709 2694 2838 2745 2736 2802 2794 2810 2820 2810 2772 2788 2718 2747 2675 2796 2905 2861 2755 2725 2816 2866 2840 2738 2893 2894 2880 2905 2897 2863 2818 2896 2809 2918 2953 2862 2812 2825 3028 2784 2930 2835 2946 2900 2937 2869 2972 2909 2968 2979 3041 2988 2990 3051 2944 2962 2999 3055 2977 2988 3045 3012 3026 3060 3004 3040 3035 3136 3178 2981 3029 3028 3074 3117 3120 3183 3147 3190 3107 3151 3200 3034 3228 3151 3221 3144 3172 3295 3192 3215 3263 3257 3224 3407 3316 3366 3317 3387 3441 3531 3573 3604 3415 3581 3524 3532 3570 3394 3565 3510 3467 3453 3499 3349 3512 3398 3357 3505 3402 3523 3530 3355 3562 3547 3558 3562 3562 3659 3623 3524 3607 3635 3487 3582 3668 3504 3567 3402 3365 3493 3541 3509 3482 3457 3367 3333 3414 3291 3340 3428 3310 3512 3250 3427 3421 3366 3463 3395 3448 3301 3408 3371 3314 3327 3396 3466 3349 3420 3311 3395 3271 3351 3366 3351 3238 3416 3262 3330 3390 3171 3375 3216 3254 3274 3262 3226 3250 3267 3189 3280 3215 3130 3211 3116 3174 3295 3190 3089 3101 3219 3231 3099 3157 3246 3226 3169 3129 3186 3098 3173 3142 3079 3096 3060 3029 3047 2975 3014 2981 2972 2932 2894 3055 2929 2983 2949 2969 3013 2824 2905 2967 3042 2756 2867 2889 2895 2822 2975 2836 2889 2815 2839 2757 2831 2857 2830 2924 2831 2916 2771 2921 2881 2902 2841 2865 2738 2820 2825 2862 2729 2774 2764 2850 2861 2768 2816 2731 2695 2749 2738 2790 2772 2789 2817 2758 2726 2759 2701 2714 2639 2834 2682 2672 2707 2697 2736 2654 2620 2677 2576 2674 2569 2642 2618 2680 2664 2589 2624 2569 2647 2669 2669 2573 2554 2562 2605 2634 2590 2527 2578 2584 2558 2567 2514 2584 2521 2575 2639 2615 2649 2625 2567 2601 2540 2711 2511 2619 2571 2594 2558 2615 2655 2572 2592 2758 2610 2755 2623 2636 2671 2686 2682 2775 2630 2677 2677 2766 2631 2665 2596 2549 2552 2538 2694 2666 2678 2538 2554 2589 2646 2601 2592 2588 2638 2625 2579 2603 2558 2568 2650 2619 2467 2625 2509 2647 2550 2655 2526 2527 2548 2430 2646 2613 2587 2612 2556 2480 2655 2475 2620 2541 2544 2566 2675 2523 2625 2554 2606 2622 2562 2496 2577 2519 2561 2579 2475 2484 2574 2517 2585 2525 2565 2515 2487 2513 2561 2533 2511 2485 2500 2541 2491 2527 2584 2573 2494 2444 2521 2533 2499 2512 2444 2398 2530 2449 2476 2438 2337 2389 2447 2446 2468 2442 2370 2398 2414 2383 2455 2375 2459 2415 2339 2422 2383 2451 2383 2471 2385 2418 2353 2402 2442 2399 2401 2357 2443 2397 2357 2403 2249 2369 2379 2370 2381 2426 2326 2377 2337 2340 2320 2338 2306 2410 2386 2398 2314 2247 2345 2351 2386 2308 2315 2418 2366 2366 2292 2410 2339 2421 2339 2341 2273 2336 2274 2270 2353 2353 2326 2203 2411 2249 2457 2319 2317 2354 2246 2283 2289 2331 2296 2415 2243 2379 2239 2350 2350 2285 2242 2327 2200 2257 2381 2296 2333 2338 2312 2292 2269 2259 2167 2336 2245 2320 2289 2336 2187 2289 2234 2135 2268 2332 2329 2220 2334 2305 2244 2276 2371 2215 2174 2239 2239 2186 2232 2354 2256 2296 2275 2234 2320 2271 2165 2141 2281 2289 2266 2293 2115 2134 2200 2222 2291 2169 2229 2324 2170 2215 2180 2138 2259 2231 2232 2208 2177 2257 2199 2160 2238 2125 2223 2159 2175 2198 2276 2252 2232 2181 2285 2165 2149 2115 2149 2243 2223 2119 2210 2137 2159 2285 2186 2165 2168 2224 2163 2198 2187 2209 2159 2193 2188 2110 2224 2120 2085 2125 2141 2110 2201 2164 2158 2205 2118 2110 2145 2147 2258 2159 2184 2159 2238 2252 2160 2170 2116 2240 2151 2222 2098 2112 2148 2078 2147 2068 2116 2092 2166 2129 2126 2138 2192 2106 2131 2052 2111 2020 2076 2062 2088 2095 2072 2180 2083 2092 2218 2072 2108 2084 2082 2107 2119 2086 2113 2122 2142 2105 2081 2088 2169 2069 2119 2117 2167 2146 2135 2062 2127 2103 2180 2015 2187 2152 2159 2164 2062 2200 2058 2137 2148 2085 2122 2156 2187 2120 2120 2202 2151 2148 2142 2112 2140 2127 2120 2113 2101 2131 2206 2143 2108 2118 2148 2159 2182 2206 2077 2161 2092 2049 2167 2099 2168 2089 2096 2248 2111 2161 2173 2148 2085 2111 2179 2082 2157 2180 2001 2166 2169 2039 2214 2102 2116 2128 2151 2140 2165 2084 2162 2046 2077 2090 2221 1916 2154 2070 2000 2091 1959 2156 2078 2129 2103 2091 2121 2091 2093 2163 2110 2116 2148 2120 2142 2057 2140 2084 2107 2108 2179 2085 2064 2063 2158 2034 2008 2143 2118 2059 2040 2065 2001 2131 2063 1982 2072 2030 2037 2100 2009 1955 2123 1946 2071 2036 2118 1982 1996 1944 2105 2027 2112 1976 1974 2030 1963 2021 2042 1995 1945 2026 2012 1991 1883 1959 1987 1984 1933 1940 1909 1938 1973 1956 1989 1956 1933 1915 1979 1890 1981 1896 1843 1879 1950 1746 1877 1965 1889 1938 1933 1887 1874 1921 1947 1862 1808 1912 1858 1873 1862 1851 1864 1825 1801 1862 1805 1937 1903 1868 1804 1906 1812 1774 1792 1781 1829 1763 1788 1785 1850 1805 1800 1787 1821 1849 1838 1825 1867 1896 1897 1846 1936 1868 1815 1844 1789 1779 1848 1778 1811 1782 1808 1784 1774 1763 1701 1697 1740 1745 1786 1719 1719 1700 1705 1779 1753 1709 1741 1723 1628 1824 1688 1689 1695 1676 1624 1661 1617 1794 1667 1576 1647 1651 1581 1628 1746 1694 1710 1632 1586 1568 1623 1709 1652 1659 1687 1620 1551 1626 1633 1586 1635 1599 1602 1585 1624 1693 1590 1602 1650 1639 1584 1536 1616 1556 1612 1510 1568 1457 1601 1538 1610 1572 1506 1534 1540 1485 1519 1486 1626 1566 1497 1515 1565 1498 1555 1503 1520 1487 1507 1570 1572 1454 1580 1526 1501 1533 1499 1563 1545 1528 1477 1518 1512 1428 1442 1502 1486 1585 1508 1566 1537 1563 1585 1471 1565 1501 1409 1461 1389 1500 1416 1477 1469 1475 1435 1410 1558 1497 1555 1480 1479 1508 1523 1431 1448 1491 1418 1459 1489 1512 1514 1446 1502 1532 1497 1472 1527 1494 1425 1441 1405 1498 1496 1435 1425 1439 1452 1457 1499 1513 1485 1542 1515 1402 1498 1486 1444 1477 1466 1469 1479 1445 1520 1492 1522 1471 1446 1550 1538 1367 1460 1490 1392 1538 1428 1499 1487 1454 1538 1462 1436 1483 1484 1453 1480 1544 1455 1502 1535 1485 1502 1566 1559 1464 1523 1461 1449 1573 1487 1450 1489 1501 1413 1438 1490 1383 1501 1552 1580 1538 1520 1492 1583 1522 1451 1498 1501 1493 1476 1555 1536 1530 1458 1453 1569 1485 1583 1526 1552 1440 1574 1589 1549 1547 1595 1610 1570 1602 1569 1591 1499 1523 1650 1550 1633 1568 1578 1558 1560 1523 1529 1511 1578 1564 1594 1464 1527 1557 1433 1542 1467 1609 1518 1489 1485 1559 1491 1518 1449 1427 1490 1565 1424 1526 1562 1474 1447 1466 1460 1460 1560 1525 1503 1404 1475 1456 1459 1508 1465 1483 1433 1458 1422 1405 1429 1385 1499 1500 1516 1408 1477 1417 1396 1408 1483 1421 1521 1419 1344 1389 1374 1382 1334 1360 1378 1390 1369 1364 1442 1386 1337 1397 1341 1341 1346 1317 1341 1263 1322 1309 1353 1335 1403 1294 1403 1334 1437 1303 1335 1317 1323 1373 1272 1300 1268 1331 1395 1282 1293 1371 1258 1288 1242 1239 1287 1303 1258 1361 1203 1282 1235 1234 1272 1228 1243 1280 1199 1320 1265 1213 1270 1240 1272 1282 1263 1206 1210 1222 1180 1183 1238 1136 1230 1248 1211 1251 1230 1189 1200 1194 1200 1202 1179 1230 1152 1201 1249 1234 1180 1174 1218 1227 1166 1193 1218 1190 1219 1223 1204 1186 1228 1155 1233 1293 1213 1233 1288 1325 1259 1379 1281 1281 1298 1355 1342 1323 1360 1345 1373 1307 1342 1415 1453 1340 1356 1370 1421 1309 1318 1361 1275 1270 1265 1252 1271 1301 1273 1244 1295 1258 1334 1258 1279 1214 1305 1250 1214 1186 1239 1198 1162 1230 1203 1225 1251 1222 1203 1170 1229 1173 1228 1155 1191 1256 1158 1234 1207 1136 1172 1117 1238 1208 1175 1156 1166 1183 1209 1186 1193 1160 1157 1226 1190 1127 1181 1125 1149 1178 1173 1192 1237 1173 1174 1181 1194 1210 1154 1154 1205 1145 1177 1106 1184 1150 1185 1110 1143 1193 1170 1159 1206 1205 1260 1246 1270 1429 1366 1486 1606 1659 1788 1895 1967 2239 2304 2711 2936 3087 3457 3514 3580 3670 3740 3690 3642 3515 3488 3241 3124 3080 2875 2684 2475 2295 2225 2122 2044 2042 2055 1993 1950 1902 1958 2006 1971 1926 2091 2124 2130 2178 2212 2158 2365 2493 2464 2471 2501 2585 2507 2574 2525 2462 2576 2325 2343 2282 2281 2295 2190 2160 2222 2177 2100 2155 2090 2173 2130 2142 2179 2158 2162 2085 2132 2091 2001 2005 1960 1956 1884 1825 1862 1775 1676 1664 1562 1557 1550 1471 1361 1422 1274 1332 1269 1179 1214 1200 1169 1150 1108 1148 1182 1116 1121 1174 1185 1192 1137 1151 1185 1154 1118 1181 1161 1164 1152 1120 1040 1115 1073 1022 1098 1087 1083 1102 1053 1049 1014 1012 1063 1023 1010 992 1007 960 996 1013 995 955 950 934 932 952 959 939 887 923 961 899 966 899 990 958 976 910 959 981 989 954 1044 1027 1087 1171 1249 1270 1243 1351 1464 1535 1562 1600 1670 1687 1624 1715 1671 1623 1562 1552 1518 1486 1353 1338 1328 1189 1277 1242 1275 1198 1175 1154 1202 1131 1154 1179 1153 1209 1141 1139 1171 1218 1085 1153 1196 1108 1086 1083 1051 1030 1047 1095 1043 1086 1030 1055 1053 1081 1027 1099 1119 1122 1099 1127 1122 1084 1192 1205 1217 1229 1186 1148 1159 1179 1178 1230 1118 1169 1131 1068 1109 1006 1051 989 1050 976 1009 960 964 899 939 895 966 893 855 867 857 927 870 897 881 822 835 892 898 786 842 802 859 849 884 882 828 839 810 853 836 912 860 869 889 907 936 861 898 896 884 923 920 945 962 988 1004 1042 950 1059 1048 1079 1087 1092 1090 1043 1024 1131 1099 1095 989 1041 1084 1005 1059 1051 1010 1033 1038 1010 1060 1047 985 961 975 909 948 956 940 948 956 952 920 919 900 916 943 914 951 900 987 933 872 962 888 872 921 937 923 845 893 871 888 818 931 935 886 835 922 949 889 935 882 958 906 880 881 906 932 885 894 893 881 881 854 938 915 877 830 816 885 807 906 885 854 964 899 909 954 931 950 929 937 946 947 968 980 944 948 928 927 974 930 901 943 888 874 920 890 919 908 901 880 900 878 873 934 879 909 879 886 921 932 937 960 929 878 948 1021 1007 1029 1046 1000 1156 1114 1206 1254 1266 1414 1519 1631 1750 1921 2039 2191 2269 2417 2618 2790 2956 3045 3190 3213 3301 3232 3195 3176 3087 3066 2913 2811 2748 2618 2431 2473 2226 2207 2127 2055 1988 1980 1889 1877 1878 1886 1853 1965 1861 1859 1923 1972 1993 1988 1931 1914 1996 1929 1985 2030 1961 2024 2070 2114 2134 2100 2119 2190 2179 2230 2143 2123 2223 2170 2163 2090 2042 2159 2017 2140 2015 2015 1904 1978 1921 1891 1821 1806 1812 1763 1624 1638 1574 1490 1522 1472 1463 1335 1291 1262 1194 1201 1170 1194 1131 1126 1062 984 1084 999 974 972 944 991 995 1000 950 994 1032 929 956 971 961 971 1025 973 988 933 952 931 994 1048 991 1005 976 1008 958 958 947 919 889 924 905 827 840 795 801 761 833 748 835 739 743 787 775 768 765 729 811 730 767 732 744 720 708 700 741 775 761 702 745 695 769 765 738 755 746 728 730 791 702 725 782 737 774 737 773 735 686 762 754 784 735 720 759 741 745 682 732 676 771 720 789 717 687 729 760 786 737 774 737 764 683 709 719 739 776 740 759 778 742 778 774 785 802 771 831 761 755 753 774 749 751 774 744 805 764 742 733 713 705 740 781 695 681 715 742 690 713 726 739 734 687 702 728 734 748 678 719 710 688 678 701 652 664 713 714 737 682 732 677 684 680 687 631 699 652 712 673 623 656 644 692 684 637 681 666 689 686 680 657 657 686 680 626 692 605 619 632 631 668 597 612 641 675 649 664 604 615 643 601 649 640 633 655 615 631 625 625 600 655 616 670 629 611 612 612 657 659 635 602 599 615 622 583 567 610 621 627 611 590 657 609 615 634 614 601 578 609 610 645 597 595 608 635 545 563 601 580 627 570 572 621 646 588 620 606 561 680 576 601 596 627 638 649 610 592 539 598 619 579 588 562 621 639 591 608 567 598 563 574 588 569 613 545 602 597 555 585 608 575 595 574 587 598 577 634 623 551 588 604 590 594 549 584 571 574 613 591 570 576 582 585 563 618 563 578 612 613 578 621 549 577 591 593 540 545 584 615 571 569 556 551 578 589 568 595 571 544 640 573 596 601 553 554 588 553 547 559 576 590 580 576 621 554 573 549 560 547 581 622 569 592 571 557 555 555 566 617 567 605 599 574 578 583 558 578 555 540 629 573 571 544 575 590 532 577 585 627 561 559 585 609 525 578 575 524 539 585 611 590 545 523 529 566 597 568 533 529 514 571 650 599 558 564 569 547 555 518 557 591 560 584 568 603 568 599 587 549 593 625 552 592 594 583 545 568 611 599 641 639 572 637 617 591 585 618 530 592 588 564 557 539 544 583 554 572 548 601 569 588 563 570 536 566 583 576 584 542 587 576 553 563 606 569 601 617 609 620 567 605 576 544 545 585 591 565 543 559 517 590 576 569 611 582 564 641 589 611 624 660 634 704 711 727 733 774 772 803 844 873 920 982 912 950 980 969 965 1000 927 949 957 953 892 890 852 850 881 864 830 756 786 756 801 749 742 699 726 739 738 714 768 648 722 667 707 681 707 671 695 684 661 701 658 630 588 664 631 647 658 632 619 645 652 648 624 646 623 629 670 613 608 647 634 658 620 585 602 611 663 642 618 621 629 609 533 586 554 599 561 525 549 534 544 545 544 516 547 538 552 498 552 507 541 547 566 547 551 533 595 536 524 591 535 540 562 515 543 552 505 498 477 515 531 537 523 523 501 465 546 521 524 515 488 511 518 536 487 534 519 500 499 572 565 489 505 502 572 517 515 522 564 517 490 543 538 505 500 562 514 530 509 531 508 556 496 486 523 533 503 532 594 502 575 561 558 544 541 566 560 529 596 522 555 569 590 563 540 576 538 594 593 576 568 544 537 552 540 544 500 581 512 548 536 535 556 554 504 557 531 515 519 523 549 491 551 527 533 533 519 485 518 541 532 535 550 555 505 527 561 609 530 567 596 588 596 621 623 597 572 605 600 592 598 567 548 599 539 565 639 571 517 562 558 576 542 556 517 515 547 535 524 497 518 526 514 571 533 522 524 534 536 509 535 541 506 448 504 565 516 532 513 525 520 500 534 502 548 513 549 541 545 542 521 557 550 554 528 558 501 561 535 538 548 568 570 611 546 534 545 531 568 547 543 551 567 572 579 560 562 504 545 558 566 482 536 515 545 532 524 506 513 529 518 554 519 568 501 531 523 534 539 529 462 530 520 482 511 520 557 555 499 499 489 480 489 530 502 566 491 500 531 442 514 513 501 513 489 530 508 530 559 533 530 532 471 495 546 510 504 506 535 535 550 521 550 561 598 549 555 549 594 558 642 667 653 675 624 637 709 679 693 729 730 742 707 737 720 711 716 742 660 655 701 708 662 679 611 685 685 678 655 681 661 672 594 572 609 601 563 617 602 587 555 610 565 627 601 643 573 593 630 597 611 605 571 597 604 585 605 619 610 593 605 613 647 627 602 624 634 625 539 591 617 601 570 589 553 612 613 616 589 548 564 573 557 590 566 580 608 549 578 539 557 523 591 530 537 565 584 542 584 549 553 524 564 518 539 534 536 480 515 521 523 477 490 503 547 514 503 466 531 524 521 474 538 477 489 458 497 510 458 468 471 535 459 496 508 511 509 496 495 499 511 444 450 484 427 405 466 482 464 472 479 476 449 472 485 487 463 515 450 466 479 476 465 458 483 485 482 470 449 470 456 507 477 467 441 473 480 485 440 457 436 499 485 466 508 484 463 482 476 499 453 496 446 460 479 433 493 427 440 454 471 435 457 472 462 476 452 484 418 505 441 449 469 458 489 465 482 454 477 500 459 506 442 430 441 489 466 442 495 464 441 419 461 484 442 511 486 424 469 482 503 444 496 467 473 482 522 501 488 455 466 472 484 467 484 429 474 476 432 519 448 503 486 524 496 501 532 511 512 473 482 477 496 490 472 479 501 482 510 496 510 498 512 515 474 517 482 513 519 514 581 546 516 509 548 456 500 574 555 548 538 523 550 550 607 579 564 578 586 608 593 590 591 531 578 563 560 586 594 604 600 519 578 569 559 646 527 561 548 559 591 579 583 541 598 630 619 659 632 715 723 746 724 757 726 737 715 727 755 749 777 773 778 716 723 711 723 753 707 630 712 701 673 686 676 707 698 673 666 657 666 641 688 646 666 653 684 709 653 674 647 639 694 739 745 754 830 831 938 957 924 960 1030 1099 1207 1294 1227 1357 1479 1503 1605 1684 1772 1808 1881 1872 1912 1904 1748 1754 1646 1691 1605 1596 1574 1525 1615 1537 1516 1325 1350 1223 1257 1141 1103 1156 1032 1091 1038 1070 1007 984 979 951 945 979 893 931 828 844 874 887 800 858 833 828 810 820 868 811 828 836 830 788 856 872 877 909 878 874 918 964 1004 989 976 974 999 1021 1005 1004 949 976 957 934 917 892 922 871 842 799 845 799 772 823 823 745 742 744 740 734 683 721 688 692 665 674 618 663 661 677 683 616 642 642 597 612 558 575 588 581 563 557 595 577 548 525 525 519 558 521 507 535 535 487 485 497 479 451 467 492 519 514 527 454 471 505 465 521 442 516 496 462 492 475 477 449 451 490 459 443 457 458 420 431 469 461 401 414 486 426 429 471 455 440 451 421 420 398 445 436 415 437 410 381 403 430 455 423 456 407 409 437 428 441 459 436 440 427 415 417 402 420 411 413 408 423 406 432 414 428 425 415 462 412 405 398 445 401 463 406 439 429 446 384 460 484 459 418 484 454 473 476 518 487 461 533 531 538 532 557 519 517 586 503 556 500 509 496 515 506 544 487 507 512 495 457 516 519 512 468 471 496 485 470 502 471 490 480 442 474 442 500 458 433 467 470 447 427 454 459 479 460 488 398 456 441 455 452 436 475 413 408 455 461 438 438 468 433 471 428 402 414 446 442 470 417 452 409 404 404 461 456 435 425 463 475 423 414 417 410 407 394 464 441 419 455 448 468 415 473 436 435 440 439 436 470 438 429 397 416 441 454 437 422 431 427 477 399 412 397 432 391 405 401 389 387 386 381 414 387 410 386 409 445 429 412 403 392 422 421 444 402 418 397 434 399 402 367 413 371 412 405 378 374 402 404 410 413 406 422 403 454 396 466 415 477 444 426 452 421 453 457 453 472 486 468 471 480 536 510 459 477 460 466 460 463 488 424 468 511 429 415 478 451 488 408 462 420 453 417 390 478 413 443 408 458 438 394 399 432 412 386 392 425 376 460 367 389 400 352 389 399 424 401 396 398 395 369 402 398 395 399 396 398 381 399 403 381 342 377 394 380 404 367 376 356 348 364 370 337 365 364 380 374 354 368 352 371 384 358 343 392 350 368 338 390 347 334 386 363 389 371 352 363 370 390 372 395 393 373 382 382 390 403 377 379 411 388 360 347 385 358 391 398 378 352 417 346 385 376 355 331 339 307 348 380 352 372 396 364 368 352 377 385 381 351 335 358 365 346 376 355 362 359 350 359 355 342 351 395 330 361 365 346 345 355 359 382 367 376 348 385 366 372 365 359 367 368 369 351 355 349 339 363 371 343 352 390 321 388 335 361 344 353 359 345 383 367 370 361 325 365 322 362 369 347 339 334 364 363 367 315 374 329 388 363 348 315 340 373 381 344 391 400 334 366 389 367 393 343 340 374 345 376 354 348 357 297 386 374 363 339 381 384 356 368 328 336 337 354 313 368 338 378 335 373 337 363 346 327 329 318 378 370 362 397 331 350 353 340 357 358 372 385 346 371 354 391 364 365 353 334 363 364 351 359 373 358 335 345 358 328 349 377 378 329 349 318 323 352 349 347 382 364 312 349 355 361 349 353 348 377 341 362 376 335 329 367 368 376 373 367 370 358 359 394 340 361 347 357 354 358 355 334 395 398 345 391 323 365 385 376 387 368 408 380 383 357 354 369 371 369 388 400 401 361 334 373 366 366 374 363 371 321 345 362 339 331 312 358 366 352 346 404 399 363 363 361 336 389 340 360 336 362 362 343 330 376 336 337 328 388 359 387 350 383 355 332 362 341 363 357 372 337 383 411 378 407 373 414 375 388 345 370 386 388 419 353 414 353 373 399 392 390 370 376 348 375 412 333 383 351 402 378 404 388 350 413 375 381 368 401 391 374 382 426 397 392 385 371 423 405 448 423 447 468 451 494 485 527 520 544 579 566 569 603 660 665 736 692 678 706 685 729 704 773 703 693 632 622 642 635 595 661 639 614 644 648 616 616 583 566 537 526 559 561 524 557 535 520 510 540 503 509 481 510 520 519 489 475 495 526 503 537 482 516 470 475 498 514 507 479 442 470 475 513 492 512 478 472 502 475 472 502 525 495 491 500 575 537 514 524 550 552 540 579 578 546 591 584 550 585 561 582 601 562 527 522 565 486 551 554 529 492 481 479 545 487 496 468 508 476 490 453 424 414 437 463 456 437 460 410 429 410 383 429 333 386 396 385 392 406 385 369 378 340 389 345 373 386 407 390 360 382 401 400 366 345 387 353 341 377 350 371 374 372 336 336 320 356 359 336 331 314 368 337 339 318 341 317 319 324 350 339 322 378 357 334 321 351 327 320 325 318 367 304 341 299 319 304 306 319 296 297 319 330 301 323 316 289 310 336 327 323 305 344 323 328 355 327 307 335 367 321 344 325 311 303 324 317 308 327 333 292 312 330 315 330 302 324 347 364 305 338 345 311 295 332 330 363 331 332 330 340 372 324 344 306 341 336 380 368 374 373 357 391 420 387 424 439 446 449 486 431 526 545 564 568 599 616 588 657 623 666 660 650 679 680 668 715 671 670 649 681 671 713 621 644 602 590 575 578 591 576 586 573 531 537 549 536 512 486 519 456 459 438 411 431 455 421 463 445 424 387 398 420 395 419 406 409 415 439 403 426 402 423 388 407 353 401 383 372 354 380 395 401 382 370 353 378 377 391 390 375 372 415 426 413 426 394 385 379 401 441 476 409 428 454 474 404 437 454 451 428 423 420 397 440 437 384 421 421 438 427 417 419 430 426 418 386 355 365 382 376 361 339 398 371 359 339 350 368 376 384 383 369 387 354 364 370 347 360 362 374 384 324 345 354 353 372 365 367 325 384 355 365 371 328 320 371 337 342 353 319 302 329 322 333 294 323 321 329 313 319 319 330 295 292 314 320 297 315 282 302 287 288 342 291 355 295 360 295 306 325 322 317 356 281 332 330 317 357 363 357 373 366 342 377 377 396 382 356 374 390 391 374 383 396 385 359 380 374 373 369 324 349 333 307 339 359 368 366 380 342 343 340 337 335 309 343 335 369 327 322 306 305 331 336 282 307 342 312 330 282 346 315 293 330 296 304 294 313 314 307 277 307 304 320 294 283 293 302 314 302 336 286 295 294 290 318 300 295 294 278 295 288 304 260 257 282 301 280 292 331 271 250 284 283 301 285 296 292 293 294 266 293 310 301 266 328 307 331 274 297 296 285 304 282 281 320 318 347 289 275 268 333 256 293 272 312 317 280 339 282 331 287 331 314 304 296 315 281 319 305 276 301 301 335 308 336 270 294 306 318 293 313 324 308 343 297 292 364 331 306 315 322 337 328 289 312 309 308 301 362 310 341 307 311 320 331 366 351 328 327 340 345 323 356 346 332 306 358 309 335 327 293 310 305 328 333 344 357 321 292 306 292 305 284 299 310 284 310 315 343 330 315 303 303 314 285 261 294 259 322 281 276 285 304 324 296 299 311 317 308 293 296 259 293 260 295 302 289 293 290 262 278 298 286 257 256 270 281 302 288 298 278 279 268 292 263 287 260 274 274 259 279 272 317 282 244 284 270 298 263 275 286 282 241 268 234 272 260 283 318 284 259 300 287 275 288 290 302 281 281 265 294 270 317 259 300 295 234 274 293 272 294 275 279 310 290 283 314 281 283 292 296 318 286 288 278 304 302 292 281 314 302 291 295 307 276 287 281 282 259 276 241 284 301 293 263 241 287 249 273 300 288 274 257 276 280 283 296 248 265 249 240 296 289 277 263 260 280 309 308 272 267 291 286 285 246 266 271 306 275 275 275 269 289 278 276 264 283 303 276 262 270 291 281 313 296 273 276 309 286 316 311 343 301 296 314 295 282 275 317 290 302 299 260 288 278 331 299 272 296 272 281 288 285 287 261 272 281 320 294 282 290 297 272 264 293 278 283 256 271 262 289 264 298 289 264 278 266 229 280 262 284 279 258 287 298 292 276 277 287 259 282 305 262 258 272 271 277 280 334 279 315 271 278 263 297 281 273 285 295 282 288 271 281 299 246 301 307 289 282 276 302 290 285 294 302 262 263 275 289 283 297 283 289 316 319 299 284 287 277 331 293 309 310 301 290 288 304 299 310 298 311 295 330 284 314 294 279 307 261 311 312 293 306 279 331 278 285 267 302 289 289 296 334 331 297 310 285 300 275 274 291 301 300 281 279 282 302 267 300 279 291 267 289 282 284 300 320 304 296 281 283 278 298 261 297 290 287 292 321 293 282 260 277 273 275 259 278 264 241 297 274 226 235 257 265 277 270 278 300 275 274 264 260 269 297 231 262 260 276 296 317 287 309 262 286 257 256 240 288 275 278 274 276 289 287 292 273 272 258 241 258 280 258 282 246 230 269 244 250 233 264 266 246 274 292 273 256 271 240 269 198 278 227 261 262 273 280 245 276 246 272 281 258 265 248 243 271 293 261 244 267 237 243 262 260 248 261 240 291 278 267 285 286 260 277 278 279 272 257 277 245 232 274 259 256 282 261 276 257 256 258 292 296 289 265 267 279 275 277 262 272 239 230 238 259 247 245 257 270 265 264 256 251 300 272 268 279 283 279 273 278 264 260 268 263 270 236 240 266 226 241 262 241 229 257 237 277 259 247 240 236 233 275 280 306 298 282 300 262 266 298 274 267 244 233 270 269 280 290 263 247 239 279 256 270 274 245 291 260 267 242 286 264 248 249 270 275 282 263 276 258 284 248 317 286 272 248 282 307 272 322 313 303 311 290 296 268 297 306 333 290 312 325 339 321 351 354 330 341 350 306 343 339 362 346 375 347 391 392 356 391 353 338 386 364 365 356 354 354 358 345 328 330 335 345 321 337 309 334 339 346 325 320 330 291 321 320 307 301 316 261 303 289 293 285 321 302 303 320 285 338 314 298 275 298 247 304 291 264 278 247 299 287 243 275 269 292 319 272 286 261 259 249 244 293 266 298 290 290 279 267 299 290 279 276 277 295 288 273 249 314 275 246 311 292 278 285 272 270 298 249 244 290 273 275 307 324 319 310 279 334 323 294 322 282 317 284 295 272 278 295 318 287 300 299 278 289 301 301 293 299 301 309 282 304 287 353 296 298 302 279 300 305 276 275 296 277 280 305 298 267 267 283 260 290 297 293 301 302 296 272 256 275 283 265 304 278 291 258 263 239 243 261 277 249 268 279 260 273 243 234 270 264 246 280 273 280 261 261 264 250 265 259 259 282 260 236 266 258 246 275 273 234 296 258 304 228 285 241 236 259 275 240 247 246 282 265 291 316 275 278 282 288 241 285 272 259 256 249 265 274 235 282 278 271 273 234 294 275 287 287 290 247 242 276 260 265 237 235 240 259 284 276 260 266 263 234 308 269 274 286 261 251 270 267 240 263 266 278 303 280 288 281 285 264 287 273 275 277 295 275 291 247 281 284 266 242 259 281 266 319 274 278 292 288 309 240 291 325 297 272 246 250 280 273 262 258 239 264 259 232 290 248 269 279 287 315 291 271 274 278 288 243 282 261 295 241 262 292 266 258 297 276 265 276 291 311 257 264 277 309 281 277 282 294 280 287 243 275 296 284 268 267 295 277 303 249 280 236 298 280 272 267 267 245 281 293 269 272 279 235 275 275 256 286 281 262 277 250 294 299 259 248 243 298 235 300 278 272 280 259 283 277 249 265 294 261 270 238 249 269 274 291 240 279 272 262 214 239 272 244 264 263 269 276 304 282 278 262 288 246 265 278 246 303 245 261 260 260 261 262 234 248 270 274 293 275 275 264 243 281 265 301 280 276 285 267 268 260 271 239 277 237 261 292 276 239 249 286 260 269 260 260 233 303 260 264 248 260 248 283 232 288 265 261 263 241 296 248 273 267 265 263 278 278 287 298 290 310 302 294 257 264 276 250 289 285 277 275 279 295 261 259 220 306 249 245 285 291 256 269 246 271 261 241 267 259 279 281 261 245 295 313 305 296 287 262 295 262 267 280 295 271 278 289 256 234 284 308 282 240 278 276 272 302 256 280 285 266 264 244 267 276 287 240 264 282 259 295 278 267 270 248 272 237 245 278 282 276 264 245 282 239 258 285 263 258 274 278 264 307 239 269 239 264 283 264 258 229 248 279 244 273 288 282 289 271 275 269 301 219 274 306 240 263 265 269 291 309 243 276 286 283 264 299 258 271 263 267 247 276 267 260 243 278 282 279 324 282 283 308 276 271 306 261 278 261 320 280 281 287 266 268 262 301 311 293 321 299 286 307 271 290 292 320 291 285 278 284 319 307 303 323 279 306 316 288 282 301 273 273 293 281 323 332 271 286 300 299 302 297 300 323 284 329 317 297 305 345 297 313 322 325 321 322 297 355 340 322 338 361 339 344 352 402 364 353 387 374 333 400 402 400 451 407 351 432 386 412 417 388 378 403 382 383 397 394 420 400 396 405 389 381 382 366 365 368 341 376 377 379 377 374 341 350 311 351 365 326 359 321 324 341 320 348 308 310 312 331 357 294 339 292 330 313 309 300 343 357 318 330 315 304 335 311 322 280 315 345 278 279 284 272 297 274 291 248 306 319 315 300 264 294 271 270 293 282 304 277 282 299 263 300 288 275 335 289 285 276 280 294 278 287 290 279 345 326 320 336 297 315 299 292 333 301 289 299 379 332 333 285 337 367 348 320 342 312 374 356 288 317 319 325 347 345 348 311 306 312 349 338 344 311 304 310 325 321 312 314 307 322 284 320 308 294 312 314 339 319 321 342 283 354 339 257 339 282 315 323 320 311 299 333 313 283 332 339 312 368 318 314 339 311 329 328 318 325 318 313 328 324 353 310 317 315 361 355 337 333 315 300 308 363 344 325 339 345 343 362 345 384 354 322 346 365 381 373 401 366 358 363 425 396 383 419 395 404 425 392 416 423 422 404 440 431 467 488 446 464 513 480 491 458 471 509 514 478 458 507 475 438 485 460 444 457 453 460 446 406 452 460 459 429 404 456 443 434 444 427 411 429 425 436 385 364 371 390 353 383 358 371 339 378 370 370 322 368 333 336 355 317 349 324 320 310 308 343 317 304 333 295 337 344 311 308 316 319 312 328 288 306 310 287 307 273 285 282 274 308 292 285 268 312 290 288 307 326 315 274 327 285 270 288 300 277 299 281 301 287 299 270 292 318 318 361 308 321 319 334 316 301 355 349 340 324 328 330 296 340 321 337 338 320 324 353 350 323 328 305 366 344 324 359 361 338 322 351 326 342 390 318 321 326 317 345 342 319 334 343 348 366 350 346 363 299 331 313 368 296 316 312 320 326 326 356 326 299 345 279 334 304 318 324 309 315 283 311 305 303 315 327 323 329 299 353 274 290 297 299 281 284 287 279 303 334 286 285 326 310 307 318 284 273 285 298 262 284 277 273 277 259 299 246 278 267 292 245 290 262 246 283 264 280 244 323 297 296 274 299 288 264 270 290 275 294 283 282 248 289 263 276 265 261 278 278 292 278 290 284 246 229 257 289 271 263 281 274 278 242 264 282 245 289 261 247 282 273 276 268 278 283 283 309 319 288 257 265 292 290 334 263 281 327 325 311 288 290 299 266 309 284 271 303 287 296 286 305 276 325 275 301 273 304 290 262 294 279 284 283 302 272 262 293 289 307 275 265 263 279 287 269 279 280 264 277 269 275 304 274 284 279 283 259 282 266 273 288 293 286 284 301 273 289 274 286 298 279 282 241 236 276 266 263 273 246 272 299 285 245 267 260 265 247 265 275 275 243 268 289 283 217 234 248 295 245 279 248 222 236 241 279 280 242 275 274 236 273 260 220 257 238 264 265 302 244 266 264 247 267 247 281 288 301 292 243 292 305 280 281 265 259 236 264 261 244 238 258 245 247 233 238 266 270 269 261 270 269 226 277 273 285 234 270 232 239 256 246 220 216 237 228 243 235 240 266 238 243 236 228 208 249 242 226 279 280 242 259 243 277 244 262 221 260 257 222 246 274 267 245 285 233 219 242 247 248 242 248 256 235 240 219 278 239 241 235 228 257 270 235 273 263 248 269 208 266 219 264 237 238 245 232 249 265 231 262 242 235 237 226 207 243 185 221 230 249 238 223 242 209 239 249 256 214 275 220 231 240 249 227 248 262 266 231 232 225 229 257 211 237 245 260 272 259 258 236 231 261 273 235 231 240 259 274 236 225 233 270 247 259 239 231 243 227 238 250 217 281 263 261 222 224 238 237 257 235 245 261 243 289 270 236 269 228 257 225 243 260 277 242 262 268 269 237 240 249 245 264 245 210 250 248 235 258 272 236 247 273 265 247 248 277 244 250 272 224 282 246 273 261 311 248 271 230 257 259 264 245 263 284 263 298 264 269 283 284 247 297 272 297 288 244 241 292 278 245 248 263 214 276 259 272 231 277 216 235 258 235 282 245 270 259 267 230 261 263 274 231 215 245 237 238 265 245 283 241 261 250 271 231 299 257 232 204 241 231 264 245 241 260 239 257 267 256 261 272 233 259 219 238 262 227 243 223 269 223 258 237 232 278 212 263 243 248 221 242 219 235 216 237 207 249 268 230 247 267 267 271 223 259 226 247 264 228 248 233 235 245 265 233 235 264 285 244 260 221 237 243 239 225 262 250 262 289 249 215 233 220 257 244 257 282 224 237 251 249 262 260 263 267 273 264 236 265 240 239 246 230 270 257 249 251 240 236 269 245 275 239 286 283 244 249 272 238 269 268 296 243 277 239 250 225 247 218 229 256 259 232 247 273 250 242 221 248 233 276 274 247 265 234 234 239 221 247 239 263 246 283 273 223 261 232 232 270 245 240 202 261 231 285 270 281 248 239 256 275 275 244 257 284 220 249 237 242 248 227 231 241 265 223 274 249 231 232 244 225 229 236 239 230 246 282 236 240 244 282 247 267 222 244 248 246 243 264 283 237 233 260 247 266 293 285 296 279 295 280 293 312 288 297 277 318 331 290 281 270 314 310 292 290 314 332 338 337 354 382 347 362 366 384 375 379 369 387 378 403 414 392 388 377 368 385 361 385 381 358 376 369 385 350 334 365 351 370 351 322 332 355 333 361 309 350 353 336 368 319 327 338 351 344 333 332 340 331 314 338 314 309 309 283 289 315 292 304 277 303 263 262 279 304 268 249 314 295 273 258 271 257 263 274 269 272 280 257 242 235 242 263 261 288 282 231 285 231 259 258 241 279 256 232 250 233 209 240 261 258 223 226 266 256 262 272 245 235 222 229 212 282 210 245 222 265 267 281 263 263 263 282 260 246 257 265 243 257 260 235 276 228 271 284 285 281 279 279 290 291 273 285 284 316 284 274 283 274 273 277 329 290 273 271 281 310 229 332 302 300 292 290 281 271 313 314 272 289 296 288 284 274 301 296 340 296 277 270 282 267 325 291 294 249 274 284 282 260 282 291 300 289 288 260 234 263 285 283 267 256 286 264 296 283 262 273 271 291 283 263 245 266 267 265 242 228 275 259 299 256 278 238 239 263 235 245 224 231 264 279 226 262 221 279 273 259 267 236 258 259 262 268 269 265 274 277 250 246 249 267 276 283 236 237 245 264 260 222 258 242 249 266 236 236 233 242 242 234 246 233 268 251 205 256 258 260 235 224 218 283 224 250 246 233 222 216 258 235 266 266 242 248 256 234 244 246 223 236 206 249 267 278 235 220 211 237 226 261 233 231 225 225 219 241 228 209 232 227 226 210 248 240 235 265 229 209 202 186 239 232 221 229 229 241 248 237 237 216 263 258 215 239 209 231 206 222 281 236 211 229 220 225 210 194 237 201 245 213 242 236 235 258 235 236 239 222 206 211 206 236 224 232 209 257 198 229 228 208 233 243 238 248 206 246 238 231 199 256 223 233 246 238 232 219 241 220 247 209 224 245 239 224 207 201 269 215 210 207 207 232 256 206 203 225 227 244 245 271 224 242 225 261 243 246 217 220 222 215 239 229 244 216 198 237 215 216 221 203 235 245 238 232 218 203 241 212 244 238 236 218 219 215 246 249 239 240 219 243 218 216 234 285 205 208 239 212 244 225 216 267 200 192 193 267 188 235 222 227 256 242 242 238 248 210 228 226 233 227 213 210 208 214 235 261 232 228 221 219 274 225 208 223 231 235 222 258 234 232 237 244 225 199 207 231 214 262 240 204 251 226 209 221 224 229 226 236 200 261 240 210 234 184 224 223 209 242 248 269 229 223 199 224 235 233 240 210 201 217 231 256 241 260 233 224 260 225 204 225 233 204 260 206 239 215 236 228 224 245 214 248 223 213 206 251 215 215 206 215 217 231 235 202 237 233 258 247 247 211 244 232 228 271 216 203 246 215 262 204 224 259 224 217 204 230 203 203 242 226 216 210 217 249 238 261 217 244 246 226 220 257 239 256 268 262 264 273 243 262 226 264 238 261 272 239 242 258 274 237 276 268 240 245 265 260 235 271 261 261 248 292 275 283 279 248 270 275 267 279 247 266 226 261 282 274 280 313 279 286 266 286 273 271 291 232 296 280 273 236</counts>
			</dataPoints>
		</scan>
	</xrdMeasurement>
</xrdMeasurements>
