<?xml version="1.0"?>
<xrdMeasurements xmlns="http://www.xrdml.com/XRDMeasurement/2.3" xmlns:xsi="http://www.w3.org/2001/XMLSchema-instance" xsi:schemaLocation="http://www.xrdml.com/XRDMeasurement/2.3 http://www.xrdml.com/XRDMeasurement/2.3/XRDMeasurement.xsd" status="Completed" recordIdentifier="{3680D914-DC2D-4182-8879-AFB4A9F3E435}">
	<comment>
		<entry/>
	</comment>
	<sample type="To be analyzed">
		<id>GPSS_Li1p6Fe0p8Mn0p4Cl4_111125_691433ae47a6a0fd7c6576f8</id>
		<name></name>
		<preparedBy></preparedBy>
	</sample>
	<xrdMeasurement measurementType="Scan" status="Completed" sampleMode="Reflection">
		<usedWavelength intended="K-Alpha 1">
			<kAlpha1 unit="Angstrom">1.5405980</kAlpha1>
			<kAlpha2 unit="Angstrom">1.5444260</kAlpha2>
			<kBeta unit="Angstrom">1.3922500</kBeta>
			<ratioKAlpha2KAlpha1>0.5000</ratioKAlpha2KAlpha1>
		</usedWavelength>
		<incidentBeamPath>
			<radius unit="mm">145.00</radius>
			<xRayTube id="1010048" name="Empyrean Cu LFF HR (9430 033 7310x)">
				<tension unit="kV">40.0</tension>
				<current unit="mA">15.0</current>
				<anodeMaterial>Cu</anodeMaterial>
				<focus type="Line">
					<length unit="mm">12.0</length>
					<width unit="mm">0.4</width>
					<takeOffAngle unit="deg">6.0</takeOffAngle>
				</focus>
			</xRayTube>
			<sollerSlit id="21010002" name="Soller slits 0.04 rad.">
				<opening unit="rad">0.0400</opening>
			</sollerSlit>
			<mask id="22031000" name="Fixed mask 13 mm">
				<width unit="mm">9.00</width>
			</mask>
			<divergenceSlit id="22120001" name="Divergence slit 1°" xsi:type="fixedDivergenceSlitType">
				<distanceToSample unit="mm">50.00</distanceToSample>
				<height unit="mm">1.52</height>
			</divergenceSlit>
		</incidentBeamPath>
		<sampleMovement xsi:type="spinningSampleMovementType">
			<spinnerRevolutionTime unit="seconds">1.0</spinnerRevolutionTime>
		</sampleMovement>
		<diffractedBeamPath>
			<radius unit="mm">145.00</radius>
			<antiScatterSlit id="22090040" name="AS slit 9 mm (PIXcel)" xsi:type="fixedAntiScatterSlitType">
				<height unit="mm">9.00</height>
			</antiScatterSlit>
			<sollerSlit id="21020003" name="Large Soller slits 0.04 rad.">
				<opening unit="rad">0.0400</opening>
			</sollerSlit>
			<filter id="20030001" name="Large beta-filter Nickel">
				<material>Ni</material>
				<thickness unit="mm">0.020</thickness>
			</filter>
			<detector id="7010019" name="PIXcel1D-Medipix3 detector" xsi:type="rtmsDetectorType">
				<phd unit="keV">
					<lowerLevel>4.02</lowerLevel>
					<upperLevel>11.27</upperLevel>
				</phd>
				<mode>Scanning</mode>
				<activeLength unit="deg">5.542</activeLength>
			</detector>
		</diffractedBeamPath>
		<scan appendNumber="0" mode="Continuous" scanAxis="Gonio" status="Completed">
			<header>
				<startTimeStamp>2025-11-13T15:44:09-08:00</startTimeStamp>
				<endTimeStamp>2025-11-13T15:52:16-08:00</endTimeStamp>
				<author>
					<name>AutomatedUser</name>
				</author>
				<source>
					<applicationSoftware version="1.7b (136)">PANalytical Aeris Instrument Suite</applicationSoftware>
					<instrumentControlSoftware version="3.2.00000000 20240306">AERIS</instrumentControlSoftware>
					<instrumentID>950485</instrumentID>
				</source>
			</header>
			<dataPoints>
				<positions axis="2Theta" unit="deg">
					<startPosition>10.00943322</startPosition>
					<endPosition>99.99442286</endPosition>
				</positions>
				<positions axis="Omega" unit="deg">
					<startPosition>5.00471661</startPosition>
					<endPosition>49.99721143</endPosition>
				</positions>
				<commonCountingTime unit="seconds">12.495</commonCountingTime>
				<counts unit="counts">3043 3033 3072 3072 3033 3150 3074 3002 3091 3015 3116 3083 3107 3151 3152 3126 3023 3067 3118 3022 3115 3094 3186 3117 3021 3055 3020 3062 3218 3094 3139 3179 3151 3101 3103 3010 3030 3093 3138 3201 3076 3179 3029 3096 3044 3198 3158 3113 3128 2997 3146 3057 3044 3112 3164 3088 3111 3086 3069 3099 3233 3079 3201 3087 3070 3258 3204 3103 3159 3066 3086 3095 3188 3162 3112 3208 3112 3242 3238 3243 3180 3010 3141 3185 3095 3295 3252 3212 3193 3251 3219 3166 3205 3278 3035 3189 3175 3206 3252 3219 3221 3119 3141 3241 3263 3151 3216 3255 3400 3124 3236 3180 3237 3302 3309 3276 3241 3273 3202 3209 3325 3291 3300 3315 3235 3251 3215 3372 3185 3235 3212 3235 3387 3382 3256 3243 3295 3228 3245 3413 3253 3280 3260 3374 3352 3232 3387 3184 3254 3230 3311 3386 3285 3241 3260 3246 3238 3361 3144 3213 3243 3325 3260 3340 3226 3246 3342 3276 3349 3258 3282 3329 3354 3192 3221 3202 3233 3348 3246 3450 3238 3420 3280 3346 3293 3370 3371 3347 3260 3228 3162 3244 3345 3217 3342 3257 3344 3329 3120 3360 3176 3330 3321 3329 3199 3212 3224 3336 3246 3331 3278 3150 3188 3327 3250 3289 3275 3327 3316 3220 3277 3269 3243 3286 3286 3218 3216 3191 3239 3207 3258 3206 3174 3196 3229 3241 3204 3258 3155 3232 3229 3159 3248 3114 3160 3144 3358 3228 3245 3193 3238 3154 3218 3225 3185 3115 3148 3187 3201 3147 3022 3180 3234 3200 3179 3189 3138 3152 3168 3139 3112 3080 3171 3157 3085 3170 3179 3196 3284 3145 3237 3133 3144 3301 3313 3206 3133 3186 3085 3057 3143 3147 3232 3200 3153 3116 3156 3175 3224 3137 3180 3076 3150 3178 3064 3126 3197 3146 3242 3080 3160 3198 3185 3190 3152 3231 3219 3244 3234 3184 3134 3098 3154 3173 3204 3139 3225 3024 3187 3248 3114 3182 3144 3222 3139 3265 3211 3103 3166 3158 3237 3239 3185 3230 3245 3257 3237 3299 3209 3179 3227 3282 3238 3292 3348 3224 3127 3228 3200 3190 3318 3377 3143 3243 3182 3263 3236 3346 3315 3333 3289 3191 3253 3298 3176 3223 3389 3276 3351 3268 3208 3367 3255 3214 3389 3360 3260 3240 3364 3344 3347 3277 3436 3335 3388 3296 3326 3398 3326 3438 3357 3360 3387 3331 3365 3362 3496 3368 3409 3492 3414 3533 3369 3523 3467 3505 3446 3561 3562 3570 3635 3710 3711 3706 3661 3912 3694 3821 3801 3886 3911 3885 3886 4006 3896 4107 4098 4095 4107 4254 4195 4250 4320 4355 4348 4525 4310 4514 4347 4479 4448 4568 4703 4620 4745 4687 4776 4841 4930 4869 4945 4912 4801 4752 4762 4762 4650 4702 4534 4564 4467 4416 4325 4361 4331 4432 4268 4411 4363 4379 4443 4421 4343 4497 4436 4373 4433 4467 4638 4545 4612 4571 4816 4747 4809 4747 4639 4733 4710 4674 4503 4546 4320 4240 4230 4155 4072 4007 3850 3819 3802 3719 3711 3533 3643 3564 3645 3610 3509 3633 3526 3564 3528 3481 3497 3482 3491 3533 3441 3386 3428 3425 3412 3510 3412 3378 3380 3490 3360 3410 3410 3287 3298 3297 3343 3368 3297 3311 3302 3367 3315 3366 3285 3386 3284 3389 3418 3320 3328 3330 3351 3263 3411 3406 3248 3384 3416 3263 3345 3284 3366 3322 3309 3289 3330 3346 3327 3278 3366 3149 3402 3235 3384 3254 3303 3177 3261 3254 3248 3272 3184 3430 3131 3245 3234 3241 3227 3320 3209 3124 3137 3127 3119 3258 3117 3295 3267 3265 3252 3251 3156 3216 3215 3213 3272 3097 3283 3329 3256 3198 3236 3227 3208 3163 3178 3220 3186 3056 3249 3133 3112 3319 3235 3253 3241 3195 3149 3183 3192 3256 3086 3195 3199 3270 3111 3148 3118 3194 3069 3183 3228 3057 3198 3127 3181 3080 3290 3199 3097 3160 3210 3083 3237 3243 3176 3124 3023 3238 3148 3123 3112 3168 3129 3108 3232 3137 3152 3205 3183 3166 3159 3071 3242 3159 3066 3092 3197 3217 3189 3079 3035 3095 3098 3152 3066 3119 3076 3033 3151 3099 3141 3075 3096 3112 3175 3109 3251 3062 3117 3107 3074 3160 3173 3036 3170 3159 3201 3017 3115 2974 3137 3068 3015 3046 3050 3142 3158 3133 3162 3091 3228 3066 3037 2961 3120 3126 3035 3186 3096 3031 3089 3086 3192 3081 2955 3082 3126 3034 3075 3031 3082 3139 3023 3109 2999 3070 2990 3000 2971 2997 3068 3082 3040 3111 3075 3066 3039 3040 3097 3022 3147 3077 3103 3153 3072 3148 2990 2968 3071 2968 3019 3004 3082 3008 3130 3142 3065 3026 3206 2923 3002 3000 3006 3031 2980 3056 3028 3001 2984 3048 2915 3098 2946 2975 3016 2976 3221 2987 3023 3037 3028 2999 3043 2921 2966 3106 3012 3096 3020 3050 3094 3041 3028 2987 3047 3079 3021 2992 3009 3007 3001 2966 3021 2988 2984 3004 3000 2977 3022 3041 3024 3039 3066 3160 3073 3151 2978 2980 2952 2937 3048 2942 2930 2992 3001 2941 3043 2996 3050 3051 2984 3020 3033 2953 2954 2985 2930 2976 2989 2966 3030 2925 3013 2992 2991 2943 3067 2988 2943 3086 2966 3004 2977 3037 3004 3089 3039 2892 3062 3057 3015 2906 3019 2897 2970 2997 2969 2947 2981 2914 2933 2991 2971 2942 2886 2981 3030 2897 2979 2939 2959 2943 2945 3049 2972 2929 2897 2847 2923 2955 3022 2863 2931 2926 2932 2878 2904 2926 2879 2920 2933 3054 2899 2943 2899 2849 2976 2890 2932 3009 2955 3038 2838 2926 2961 2950 2907 2909 2966 2914 2866 2861 2844 3024 2875 2934 2935 2896 2917 2855 2941 2891 2955 2972 3039 2894 2845 2813 2797 2852 2922 2898 2944 2915 2875 2925 2952 2830 2923 2884 2845 2913 2941 2887 2955 2891 2869 2888 2932 3002 2923 2884 2959 2855 2895 2948 2898 2862 2959 2863 2973 2931 2862 2861 2851 2895 2868 2857 2849 2832 2902 2990 2906 2939 2858 2867 2782 2903 2930 2887 2894 2816 2941 2860 2940 2903 2886 2805 2895 2972 2829 2908 2900 2881 2902 2959 2918 2892 2888 2888 2893 2966 2949 2801 2898 2930 2888 2916 2918 2840 2924 2894 2947 2958 2874 2960 2861 2974 2896 2924 2842 2913 2894 2892 2954 2826 2955 2932 2892 2917 2941 2840 2916 2863 2864 2917 2876 2822 2799 2812 2916 2891 2858 2989 2900 2860 2928 2956 2938 2852 2848 2964 2834 2891 2861 2846 2905 2982 2835 2939 2789 2871 2870 2929 2880 2958 2974 2943 2859 2977 2962 2953 2956 2803 2976 2882 2838 2871 2985 2812 2883 2935 2811 2838 2896 2820 2877 2898 2908 2974 2895 2824 2906 2882 2872 2849 2891 2922 2845 2864 2879 2912 2922 2789 2941 2929 2888 2897 2802 2918 2807 2751 2826 2928 2938 2904 2854 2925 2898 2733 2785 2827 2887 2820 2928 2886 2770 2856 2800 2843 2750 2771 2826 2776 2793 2865 2985 2926 2809 2873 2922 2851 2841 2859 2799 2768 2725 2807 2812 2802 2741 2817 2724 2803 2705 2780 2824 2755 2760 2816 2794 2747 2794 2751 2777 2799 2738 2694 2716 2761 2709 2681 2883 2734 2760 2662 2706 2785 2808 2709 2723 2701 2768 2683 2785 2793 2778 2698 2757 2795 2728 2824 2709 2772 2735 2742 2660 2768 2638 2800 2796 2746 2621 2618 2748 2686 2692 2669 2667 2690 2683 2727 2720 2676 2639 2672 2690 2611 2668 2782 2777 2604 2750 2712 2594 2687 2635 2683 2782 2629 2644 2705 2691 2693 2629 2580 2699 2709 2651 2615 2732 2612 2560 2721 2543 2669 2722 2641 2709 2629 2733 2609 2685 2627 2689 2671 2682 2611 2624 2613 2632 2680 2749 2630 2668 2636 2617 2608 2598 2727 2671 2691 2599 2620 2697 2624 2668 2613 2539 2645 2661 2611 2671 2604 2605 2628 2559 2661 2570 2665 2574 2725 2680 2636 2601 2627 2630 2626 2625 2546 2560 2562 2556 2693 2591 2610 2531 2646 2661 2587 2539 2610 2683 2546 2619 2681 2559 2505 2544 2542 2549 2524 2528 2581 2521 2527 2506 2586 2652 2611 2539 2524 2563 2526 2586 2635 2612 2666 2562 2583 2507 2699 2612 2655 2571 2579 2529 2558 2583 2587 2634 2572 2595 2521 2607 2610 2680 2674 2663 2517 2626 2511 2663 2675 2644 2565 2592 2611 2581 2517 2582 2652 2510 2608 2485 2590 2468 2587 2577 2578 2565 2642 2465 2581 2599 2564 2572 2556 2540 2600 2547 2573 2625 2610 2582 2574 2595 2504 2715 2594 2568 2534 2545 2600 2588 2596 2524 2533 2557 2564 2635 2587 2605 2563 2607 2515 2615 2567 2620 2570 2611 2576 2537 2618 2560 2544 2565 2532 2601 2623 2538 2534 2576 2565 2600 2505 2573 2547 2625 2679 2679 2624 2459 2551 2611 2494 2557 2545 2597 2601 2565 2625 2645 2507 2737 2513 2583 2580 2534 2591 2611 2574 2558 2611 2645 2555 2586 2559 2525 2665 2617 2538 2504 2587 2537 2597 2486 2548 2542 2557 2592 2688 2551 2531 2560 2584 2530 2533 2543 2619 2619 2537 2523 2492 2621 2648 2554 2529 2606 2554 2505 2570 2542 2582 2533 2588 2478 2515 2510 2641 2570 2586 2554 2481 2620 2663 2611 2532 2569 2642 2502 2608 2500 2627 2612 2619 2552 2531 2531 2590 2531 2579 2473 2548 2550 2444 2546 2606 2546 2511 2527 2557 2651 2493 2506 2541 2493 2480 2541 2496 2496 2530 2553 2617 2468 2498 2565 2562 2532 2545 2509 2552 2508 2450 2506 2567 2487 2604 2569 2474 2442 2480 2488 2509 2523 2486 2471 2503 2566 2414 2413 2488 2463 2454 2371 2540 2529 2530 2464 2452 2466 2564 2416 2467 2510 2589 2513 2467 2430 2569 2496 2480 2548 2478 2537 2496 2495 2444 2518 2546 2489 2547 2506 2435 2486 2466 2465 2496 2462 2374 2476 2458 2484 2479 2541 2509 2534 2482 2459 2510 2515 2545 2440 2540 2588 2546 2605 2591 2585 2697 2519 2518 2525 2622 2547 2634 2564 2666 2638 2741 2727 2663 2731 2863 2876 2786 2873 2936 2920 2971 3016 2915 3033 2980 3072 3061 3106 3244 3233 3122 3261 3333 3288 3074 3348 3302 3211 3323 3179 3252 3253 3358 3204 3185 3192 3141 3072 3100 3032 2847 2863 2978 2850 2924 2767 2805 2704 2632 2724 2696 2733 2647 2732 2657 2616 2686 2529 2646 2560 2661 2630 2491 2597 2584 2582 2535 2521 2516 2573 2710 2538 2628 2497 2565 2581 2589 2584 2470 2539 2553 2559 2464 2499 2523 2627 2543 2505 2545 2506 2472 2483 2495 2467 2480 2513 2547 2462 2536 2514 2440 2428 2483 2552 2525 2531 2557 2471 2469 2478 2529 2618 2644 2669 2760 2547 2753 2656 2665 2692 2830 2827 2784 2876 2923 2853 2899 3027 2926 3049 3101 3186 3298 3251 3371 3352 3462 3502 3492 3548 3678 3628 3755 3753 3721 3725 3734 3801 3716 3720 3748 3666 3545 3554 3607 3531 3467 3314 3220 3200 3228 3138 3064 3152 2931 3004 2959 2863 2901 2988 2850 2860 2858 2903 2793 2818 2766 2895 2911 2749 2769 2863 2825 2928 2803 2875 2790 2839 2668 2699 2637 2656 2579 2464 2479 2468 2481 2472 2464 2322 2378 2333 2408 2418 2440 2417 2364 2372 2358 2298 2379 2406 2383 2306 2397 2409 2411 2279 2420 2330 2341 2390 2402 2401 2400 2330 2310 2358 2332 2295 2339 2420 2341 2262 2360 2358 2397 2423 2349 2278 2372 2300 2300 2288 2455 2305 2316 2196 2239 2382 2248 2275 2293 2231 2244 2293 2225 2386 2343 2248 2311 2336 2319 2228 2241 2290 2338 2300 2312 2330 2237 2228 2239 2300 2239 2321 2229 2255 2237 2289 2190 2200 2341 2310 2228 2343 2281 2250 2188 2308 2223 2234 2255 2222 2173 2273 2289 2306 2231 2252 2202 2262 2157 2243 2341 2290 2178 2296 2220 2214 2280 2309 2317 2303 2239 2227 2271 2207 2265 2248 2189 2278 2273 2269 2299 2302 2195 2243 2246 2273 2274 2206 2302 2160 2253 2274 2195 2215 2200 2219 2362 2139 2263 2300 2220 2188 2299 2244 2203 2294 2248 2264 2297 2189 2243 2139 2245 2206 2256 2267 2244 2216 2231 2255 2252 2169 2320 2222 2232 2271 2180 2171 2301 2214 2158 2176 2171 2275 2275 2183 2222 2261 2289 2168 2165 2250 2189 2263 2313 2219 2215 2259 2269 2286 2260 2288 2247 2314 2297 2161 2228 2251 2241 2160 2176 2166 2171 2292 2288 2208 2257 2137 2246 2203 2172 2238 2178 2187 2264 2157 2196 2181 2193 2169 2228 2193 2341 2194 2185 2177 2211 2162 2212 2195 2239 2245 2210 2209 2209 2297 2263 2232 2160 2165 2220 2153 2144 2224 2202 2206 2264 2205 2148 2137 2223 2236 2163 2196 2240 2196 2251 2258 2192 2254 2173 2244 2174 2247 2225 2228 2321 2144 2268 2262 2259 2232 2140 2274 2281 2231 2334 2312 2301 2260 2263 2251 2280 2195 2263 2340 2169 2288 2254 2289 2288 2254 2310 2218 2240 2185 2209 2280 2313 2272 2265 2362 2312 2321 2260 2322 2237 2279 2313 2364 2325 2314 2395 2330 2327 2250 2331 2330 2359 2328 2362 2444 2264 2381 2397 2404 2355 2428 2471 2378 2473 2514 2571 2534 2546 2485 2576 2534 2558 2657 2736 2812 2831 2762 2968 2990 3158 3095 3333 3169 3407 3454 3665 3767 3704 3975 4052 4284 4391 4677 4749 4901 5059 5368 5462 5484 5892 5915 6102 6226 6516 6649 6712 6919 7199 7364 7407 7431 7410 7583 7461 7498 7416 7500 7414 7332 6986 6967 6806 6630 6538 6267 6129 5846 5467 5296 5185 4983 4953 4685 4602 4392 4277 4138 3982 3907 4000 3925 3870 3892 3826 3788 3690 3758 3871 3771 3713 3797 3695 3703 3815 3787 3587 3595 3469 3496 3397 3429 3385 3320 3268 3229 3143 3064 3019 2896 2916 2859 2781 2766 2785 2758 2730 2723 2656 2649 2785 2735 2656 2663 2640 2708 2643 2592 2598 2662 2588 2588 2607 2571 2517 2532 2598 2601 2586 2465 2630 2479 2562 2452 2494 2432 2571 2496 2390 2411 2363 2464 2413 2411 2372 2485 2403 2441 2405 2375 2301 2377 2341 2389 2296 2419 2351 2300 2361 2325 2323 2288 2294 2301 2267 2313 2335 2195 2282 2236 2221 2292 2316 2235 2171 2263 2260 2298 2203 2303 2300 2293 2263 2273 2251 2256 2271 2279 2241 2306 2362 2199 2221 2186 2232 2223 2306 2264 2258 2174 2189 2262 2226 2179 2182 2178 2152 2175 2169 2132 2221 2167 2134 2167 2207 2295 2169 2136 2219 2236 2188 2222 2217 2090 2225 2176 2206 2178 2198 2238 2130 2183 2144 2100 2195 2260 2185 2147 2201 2182 2220 2167 2136 2204 2151 2171 2234 2165 2253 2093 2157 2185 2084 2113 2117 2158 2128 2290 2135 2147 2237 2062 2156 2203 2166 2074 2102 2034 2212 2130 2145 2244 2127 2132 2127 2184 2200 2233 2120 2119 2198 2093 2155 2155 2167 2144 2130 2115 2052 2138 2207 2107 2161 2155 2174 2040 2168 2146 2240 2107 2183 2105 2180 2184 2133 2136 2138 2100 2132 2134 2199 2204 2207 2171 2127 2147 2144 2131 2150 2185 2184 2238 2178 2239 2208 2151 2185 2248 2151 2191 2180 2190 2142 2191 2188 2262 2201 2098 2127 2217 2159 2241 2264 2186 2301 2211 2145 2223 2274 2112 2164 2225 2205 2223 2176 2166 2143 2184 2247 2118 2147 2269 2209 2072 2223 2178 2234 2169 2244 2009 2226 2187 2117 2159 2157 2239 2150 2195 2159 2217 2197 2126 2164 2070 2057 2228 2154 2153 2097 2113 2060 2192 2139 2163 2120 2075 2107 2139 2177 2165 2159 2193 2107 2104 2211 2106 2092 2073 2150 2090 2058 2086 2160 2134 2160 2146 2105 2091 2073 2120 2108 2048 2137 2076 2071 2166 2153 2086 2131 2165 2067 2093 2146 2097 2111 2066 2164 2098 2209 2073 2113 2068 2003 2056 2077 2122 2119 2122 2051 1983 2162 2108 2038 2054 2138 2065 2063 2000 2066 2108 2079 2082 2127 2092 2094 2031 2052 2118 2036 2060 2119 2082 2076 2055 2137 2078 2078 2162 2155 2095 1966 2045 2028 2098 2093 2100 2108 2129 2051 2149 2051 2008 2120 2015 2106 2049 2121 2114 2065 2054 1966 2086 2039 2027 2105 2049 2038 2058 2079 2046 2029 2074 2100 2150 2083 2017 2049 1998 2081 2042 2091 2067 2125 1960 2058 2080 2047 2051 2003 2008 1998 2000 1995 2069 2006 2022 1995 2083 2042 2099 2020 2075 2021 2005 2079 1960 2087 2061 2085 2003 2037 2102 2083 2010 2083 2094 2126 2119 1984 2126 2092 2056 2060 2062 2054 2020 2092 2095 2044 2137 2061 2080 2054 2005 2077 1992 1976 2119 2098 2076 1929 2055 2046 2065 1987 2134 1998 2045 2014 1970 2004 1988 1969 2074 2028 2087 2009 2040 2055 2039 2010 2076 2014 2111 2061 2004 2047 2008 2150 2052 2081 2052 2115 2068 2006 2063 2119 1962 2093 1991 2055 2033 2078 2023 2025 1958 1958 2063 1986 2061 2023 2026 2035 2047 1972 2091 1975 1987 2044 2049 1980 2026 2022 2011 2070 2060 2103 2088 2032 2003 1968 2060 2019 2023 2020 2034 2106 1952 2071 2107 2104 2031 2062 2047 1970 2024 2001 2075 1977 1992 1999 2033 2010 1992 2116 2062 2006 2000 1959 2039 2038 1995 2042 2015 2041 2024 2035 1985 2055 2010 1992 2087 2112 2010 2027 1910 1976 2059 2073 2048 2039 1992 2035 2029 2011 1992 1993 1964 2011 2012 1999 1996 1903 2055 2166 1988 1955 2031 2009 1947 1964 2091 1979 1964 2075 2087 2074 1991 1988 1978 2018 2017 2085 2021 2023 1995 2074 2078 1993 2014 2127 2046 2010 2023 2086 2053 2004 2060 1989 1978 2007 2044 2010 2084 2035 1960 2134 2020 1964 2026 2030 2071 2046 2039 1994 1965 2107 1953 1945 1968 1996 1966 2089 2068 2034 1956 2065 2039 2010 2040 2025 2074 2008 2030 2039 2041 2028 1948 1990 2032 2022 1975 2064 1917 2062 2048 2050 2027 2031 2017 2034 2069 2021 2058 2034 1970 1970 2083 2118 2049 2043 1924 1945 1982 1994 1978 2007 2023 2002 2063 2159 2010 1981 1959 2020 2012 2017 1987 2020 1981 2032 2064 1987 2105 1991 2045 2119 2027 2014 2004 2007 2010 1950 1992 2022 2023 2003 2051 2054 1977 2020 2080 1960 2027 1980 1967 2005 2034 2051 1953 2045 2093 2022 2043 2067 2058 1932 2017 2013 1977 1980 2020 2007 2060 2020 1982 2013 1982 1958 1998 2087 2046 2027 2077 1998 2005 1981 1982 2023 2069 2059 1996 2051 2023 1960 2013 2072 2070 1974 1968 1980 2035 2007 2056 2056 2046 2009 2067 2033 2016 2081 2035 2039 2007 2089 2055 2058 2097 1994 2048 1938 1982 2029 1953 2045 2057 2043 2057 2044 2093 2029 1995 2047 2074 1938 2034 2012 2020 2030 2006 1924 1964 1943 1986 1969 1955 1930 2005 2012 2063 2060 1922 2042 1968 1972 2080 2027 2008 2037 2036 2013 2051 2006 2020 2007 1991 1963 2063 2019 1934 1997 2005 1953 1940 2056 2085 1989 2051 2035 2120 1989 2109 2117 2047 1998 2008 2138 2012 2024 1944 2012 2137 2083 2048 2105 1996 2087 2086 1988 2111 2086 2139 2048 2102 2131 2127 2201 2123 2172 2089 2240 2240 2281 2215 2335 2203 2188 2279 2272 2378 2330 2307 2431 2387 2373 2304 2355 2362 2458 2425 2409 2526 2501 2557 2500 2439 2561 2466 2411 2537 2534 2465 2433 2444 2432 2452 2477 2425 2410 2430 2306 2311 2264 2278 2307 2333 2228 2198 2209 2203 2271 2214 2112 2175 2176 2183 2090 2081 2177 2055 2103 2131 2028 2153 2194 2161 2095 2119 2097 2001 2063 2127 2105 2068 2141 2085 2087 2113 1998 2164 2102 2187 2005 2206 2077 2056 2095 2204 2120 2103 2128 2049 2114 2086 2120 2099 2138 2122 2067 2239 2090 2106 2074 2128 2094 2094 2099 2063 2022 2165 2112 2055 2065 2066 2111 2068 2001 2155 2095 2005 2074 2046 2122 2034 2117 2113 2066 2048 2130 2068 2031 2000 1964 2088 2034 2158 2173 2148 2053 2080 2058 2079 2047 2101 1976 2078 2132 2139 2022 2162 2112 2031 2064 2028 2088 2060 2098 2003 2086 2050 2053 1985 2051 2066 2123 1981 2022 2142 2063 2062 2040 2061 1979 1948 1988 2038 1952 1926 2066 2038 2126 2080 2056 2030 2044 2033 2001 1954 2017 2015 2022 2048 1979 2000 2048 2014 2005 1960 2009 1935 1995 2023 2115 1948 2028 1996 1993 1975 1995 1975 1976 2017 2084 1960 2004 2123 1975 2036 2066 1957 2043 2063 2095 2029 2042 1960 2035 2008 1975 2100 2048 2002 2015 2059 1999 2035 1965 2082 2074 2009 2093 1967 1993 2048 2045 2001 1990 1983 2162 1983 2091 2011 2038 2086 2043 2042 1976 2084 1964 1978 2060 2094 2077 2035 2068 2017 1923 2007 2044 2060 2005 2073 2080 2001 2034 2055 1933 1948 1995 2121 2037 2019 2101 2028 2019 2054 2042 1970 1961 2017 2068 2107 1970 2022 2038 1980 2056 2010 2066 2087 2011 1940 2052 2033 1980 2043 2066 2069 2054 1966 2067 2017 2030 2029 2090 2152 2020 1997 1979 1991 2063 2075 2014 2080 2076 2119 2031 2082 2101 2028 2146 2051 1964 2084 2012 2050 2064 2004 2097 1993 2100 2035 2050 2112 2096 2150 2037 2133 2089 2012 2127 2042 2078 2076 2144 2174 2094 2064 2082 2091 2126 2053 2086 2153 2121 2165 2114 2089 2224 2234 2301 2274 2274 2254 2353 2357 2430 2472 2448 2467 2557 2560 2639 2611 2743 2711 2847 2941 2777 2956 3025 3087 3096 3028 3291 3236 3288 3224 3365 3540 3522 3531 3654 3663 3740 4029 3975 3988 3858 4091 4135 4149 4148 4384 4169 4227 4173 4284 4319 4455 4442 4399 4329 4314 4140 4261 4250 4008 3853 3913 3822 3797 3685 3752 3778 3669 3517 3587 3395 3415 3238 3192 3089 3038 2885 2890 2921 2707 2713 2651 2709 2636 2596 2586 2577 2506 2510 2453 2444 2461 2385 2510 2481 2543 2491 2507 2376 2468 2471 2518 2460 2637 2435 2491 2483 2533 2517 2465 2491 2529 2544 2542 2548 2589 2510 2484 2516 2485 2472 2440 2458 2485 2460 2542 2447 2505 2423 2434 2478 2435 2473 2483 2502 2439 2422 2354 2449 2414 2434 2431 2494 2464 2511 2518 2484 2556 2554 2517 2653 2505 2566 2630 2564 2575 2639 2578 2555 2527 2598 2539 2431 2471 2517 2514 2471 2522 2356 2238 2369 2442 2303 2353 2294 2229 2234 2169 2169 2147 2154 2208 2126 2215 2113 2182 2066 2113 2187 2170 2086 2142 2085 2102 2046 2099 2160 2115 2087 2117 2114 2057 2042 2086 2150 2073 2077 2111 2032 2103 2121 2016 2106 2071 2161 2009 2045 2125 2127 1994 2062 2101 1999 2098 2020 2042 2037 2101 2090 2119 2119 2009 2123 2101 1989 2162 2152 2049 2199 2082 2157 2076 2191 2279 2186 2148 2095 2182 2243 2260 2161 2215 2226 2211 2211 2300 2217 2237 2333 2261 2241 2251 2257 2270 2291 2381 2354 2348 2244 2333 2360 2287 2321 2413 2348 2274 2279 2260 2347 2249 2364 2172 2355 2276 2293 2327 2324 2254 2149 2256 2347 2187 2179 2318 2179 2123 2063 2174 2089 2092 2163 2144 2088 2090 2138 2124 2114 2108 2041 2103 2054 2120 2004 2100 2080 2023 2147 2032 2097 1985 2079 2008 2035 2080 2029 2023 2038 2006 2052 2061 1973 1956 2029 2068 2069 2039 2010 1985 2051 2040 2020 1957 1997 2056 2009 2078 1975 1998 1984 2015 2045 2043 2035 2036 2029 2114 1970 1988 2052 2049 2108 2105 2049 2079 2013 2113 2100 2044 2137 2017 2065 2080 2001 2021 2015 2073 2117 2137 2066 2157 2084 2088 2146 2087 2064 2096 2143 2098 2105 2142 2121 2155 2095 2083 2178 2064 2060 2077 2104 2080 2089 2006 2056 2045 2121 1988 1995 2007 2059 1997 2005 2015 2033 1952 2014 1981 1959 2060 1992 2014 1958 1941 1984 1996 1928 1909 1955 1964 1938 1986 2005 1939 2016 1945 2056 1962 2007 1940 1941 1957 2004 1972 1969 1980 1938 2031 1910 1915 2001 1958 1991 1996 1950 2027 1998 2033 2034 2051 2001 1991 1920 1946 1834 1967 1905 1961 1986 1922 2006 1995 1945 1976 1961 1952 2041 1932 1995 1950 1984 1961 1972 1965 1971 1974 1882 1978 1972 2065 1954 1992 1976 1922 1939 1977 1874 1920 1902 1968 1894 1964 1949 1884 1891 1996 1996 2023 1995 1865 1980 1997 1964 1883 1948 1917 1900 1928 1947 1926 1918 1935 1944 2040 2002 1964 1956 1905 1931 1959 2022 1975 1870 1967 1988 1952 1892 1907 1884 1910 1924 1928 1957 1929 2009 1980 2035 1924 1962 1982 1973 1919 1947 1999 1937 1918 1911 1946 1950 1955 1897 1947 1985 1928 1885 1940 2026 1926 1825 1905 1894 1977 1963 1896 1932 1831 1995 1932 1963 1924 1916 1948 1944 1907 1954 1881 1959 2000 2013 1925 1949 1973 2011 1978 1952 2052 1977 1931 1904 1919 1953 1933 1917 1924 1979 1916 1952 1971 1907 1972 1867 1930 1961 1942 2002 1948 1914 1911 1972 1922 1904 1879 1921 1942 1972 1953 1908 1994 1927 1984 1930 1965 1964 1921 1862 1978 1916 1904 1880 2042 1924 1939 1954 1892 1874 1978 1900 1913 1892 1914 1864 1868 1931 1861 1869 1902 1969 1925 1901 1948 1996 1989 1964 1884 1914 1941 1963 1989 1957 1942 1959 1921 1908 1941 1916 1971 1904 1936 1944 1989 1935 1900 1959 1958 1983 1934 1839 1992 1962 1925 1932 1948 1967 1975 1926 1918 1889 1891 1919 1949 1987 1942 1902 1890 1976 1893 1936 1896 1922 1869 1870 1954 1914 1978 1998 1910 1896 1889 1919 1880 1890 1875 1961 1989 1923 1915 1991 1937 1921 1962 1865 1972 1978 1967 2021 1920 2011 1899 1965 2016 1925 1929 2015 2003 2026 1925 1914 1955 1981 1960 1920 1965 1988 1880 1910 2000 1918 1992 1899 1984 1955 1910 1920 1949 1940 1977 1984 1898 1970 1921 2037 1931 1917 1944 1981 1950 1988 1955 1993 1997 1880 1853 1927 1892 1987 1907 2006 1962 1891 1903 1983 1862 1973 1990 1964 1987 1892 1894 1959 2003 2027 1905 1994 1994 1876 1891 2037 2042 1905 1955 1982 2079 1971 1911 1959 1902 1991 1990 2003 1922 1975 1937 1962 1977 1989 2025 2020 1973 1947 1996 1957 1966 2042 1991 2000 2074 2028 1910 2004 2004 1981 1994 2027 1952 2073 2074 2044 1987 1989 1964 2016 1943 2015 1980 2042 2045 1931 1957 2017 2051 2005 2001 1988 2030 1951 2057 2051 1951 1984 2061 1965 2041 1986 2047 1980 1957 2050 2061 2063 2037 2144 1997 2172 2150 2053 2100 2004 2080 2134 2118 2086 2141 2134 2138 2073 2175 2157 2058 2034 2194 2194 2171 2137 2166 2106 2184 2161 2105 2169 2077 2126 2201 2194 2261 2141 2116 2151 2159 2216 2218 2128 2153 2107 2085 2052 2049 2135 2027 2151 2082 2051 2054 2120 2101 2078 2050 2120 1976 2041 2039 1998 1997 1976 2030 2112 2002 2046 2074 2032 1978 1974 2027 1980 1999 2007 1942 1980 1956 1986 1974 1926 2058 2021 1988 2041 1993 2033 2081 2054 2103 2025 2058 1976 2021 2018 2031 2115 2028 2069 2104 2113 2001 2094 2117 2067 2035 2098 2078 1981 1975 2046 1967 2036 2079 2048 2035 2015 2038 1937 2023 2002 1894 1991 1997 2033 1932 1932 1979 1952 2012 1960 1837 1901 1907 1959 1938 1996 1946 1965 1959 1987 1967 1929 1876 1973 1875 1978 1994 1918 1978 1985 1952 1943 1910 2018 1953 2023 2002 1936 2002 1908 1877 1984 1979 1929 1965 1950 1904 1898 1932 2015 1996 1959 1970 1957 1950 1975 2035 1941 2009 1940 1962 1883 1956 1982 2004 1923 1963 2002 1990 1922 1986 1887 1927 2024 1963 1974 1962 1929 1886 1843 2011 2003 2003 1950 1958 2022 1954 1929 1892 1957 1936 1957 1941 1918 1945 1907 1953 1947 2013 1924 1992 1984 2034 1846 1939 1943 1997 1967 1902 2035 1964 1969 1935 1955 1929 1936 2016 2000 1954 1987 2004 2028 2078 2083 2061 2036 2043 2052 2037 2002 2082 2159 2112 2095 2111 2054 2127 2055 2131 2094 2161 2189 2312 2219 2221 2173 2175 2192 2178 2303 2247 2308 2291 2346 2354 2305 2301 2384 2335 2353 2402 2381 2338 2452 2454 2380 2448 2482 2376 2440 2488 2417 2509 2403 2489 2459 2482 2546 2463 2444 2430 2510 2425 2442 2434 2346 2276 2347 2404 2339 2361 2332 2274 2310 2351 2273 2286 2309 2300 2221 2208 2206 2140 2185 2160 2128 2235 2243 2071 2147 2049 2084 2122 1966 2133 2108 1943 2124 2080 2106 2034 2052 2007 2079 2017 1995 2067 2059 2039 2026 2046 1965 2114 2112 2049 2058 2049 1982 1997 2164 2114 2058 2084 2093 2037 2095 2116 2041 2107 2123 2082 2084 2076 2072 2030 2095 1977 2085 2008 2068 2030 2044 2015 1968 2123 2038 2086 1995 2143 2014 2037 1983 2052 1957 1973 2048 1997 2040 2030 2087 1969 2036 1956 1988 1967 1951 1997 1960 2079 2029 1977 1996 2006 1938 1916 1883 1980 1962 1911 1928 2063 1974 2055 2009 1983 1929 2007 1969 2011 1991 2071 2020 1978 2045 1942 1961 2023 1968 2039 2055 1989 2063 2029 1971 2061 2071 1970 2052 2013 2062 2006 2008 2007 2003 2076 2076 1990 2129 2115 2059 2140 2103 1976 2083 1989 2153 2116 2102 2098 2185 2169 2101 2129 2089 2061 2077 2122 2121 2129 2084 2121 2076 2138 2094 2099 2130 2159 2217 2169 2149 2146 2198 2048 2078 2016 2084 2007 2056 2125 2097 2044 2108 2087 2072 2081 2129 2029 2014 2027 2040 2114 2033 1996 2034 2042 2011 1978 2010 1970 2003 2013 2025 2033 1957 1976 1937 1991 1955 2050 2006 1928 2006 1943 2042 2078 1990 2005 1980 1928 2032 1971 2007 1984 1925 1940 1951 1936 1963 1984 1924 1929 1973 1968 1927 2016 2043 1975 1900 1920 1940 1996 2010 2018 1953 1947 1983 1956 1944 2040 1974 1963 1911 1890 1937 1930 1931 1977 1921 2013 1994 1948 1949 1909 1884 1933 1915 1928 1932 1934 2020 1997 1908 1921 1964 1940 1945 1895 1930 1936 1961 1881 1996 1949 2033 1973 1911 1967 1952 2052 1937 1977 1901 1936 1871 1975 1904 1884 1976 1935 1961 1956 2024 1935 2049 1943 1889 2018 1925 1917 1983 1939 1906 1917 1978 1993 1949 1946 2008 1965 1960 1967 2030 1992 1931 1903 1997 2016 1942 1919 1914 1833 2007 1927 1997 1947 1982 1935 1940 1952 1938 1872 1982 1912 1982 1838 1957 1873 1868 1932 1894 1950 1940 1925 1837 1910 1994 1932 1964 1959 1891 1938 1913 1898 1929 1931 1957 1985 1982 1901 1879 1981 1887 1993 2020 2019 1931 1934 1895 1920 1968 1974 1951 1970 1956 2003 1841 1938 1887 1945 1975 1945 1899 1910 1916 1842 1889 1993 1897 1921 1953 1957 1940 1914 1883 1884 1952 1885 1920 1963 1897 1942 1902 1909 1928 1955 1943 1933 1887 1975 1967 1941 1961 1951 1954 1966 1958 1890 2037 1963 1944 1903 1843 1902 1894 2014 1939 1958 1975 1957 1909 2006 1970 1885 1864 1947 1863 1994 1964 2000 1949 1935 1964 2010 1909 1923 1903 1936 1972 1890 1921 1977 1927 1978 1968 1852 1929 1977 1899 1948 1938 1925 2020 1994 1997 1927 1975 1962 1929 1858 1878 1979 1888 1935 1869 1907 1940 1942 1930 1993 1930 1855 1958 1968 2023 1950 1910 1958 1938 1916 1944 1912 1920 2005 2009 1882 1876 1935 1920 1876 1846 1895 1912 1950 1925 1915 1964 1945 1957 1877 1949 1941 1894 1998 1930 1890 1928 1945 1933 1866 1938 1952 1937 1911 1989 1897 1903 2007 1989 1831 1914 1927 1955 1952 1902 1900 1915 1922 1912 1884 2014 1908 1902 2009 1857 1940 1878 1956 1872 1924 1971 1964 1898 1921 1995 1956 1938 1920 1917 1919 1921 1895 1982 1934 1869 1901 1898 1920 1929 1922 1900 1986 1849 1917 1925 1901 1937 1909 1952 1876 2058 1858 1976 1967 1936 1898 1973 1926 1907 1882 1883 1880 1917 1951 1908 1959 1937 1961 1873 1868 1970 1915 1929 1936 1906 1970 1909 1980 1960 1923 1932 1945 1921 2005 1945 1998 1952 1880 1952 2007 1907 1962 1962 1937 1990 1913 1986 1979 1841 1906 1976 1960 2008 2015 1943 1916 1915 1991 1976 1980 1950 2036 1992 1970 1984 2006 1995 1930 1956 2017 1897 2016 1986 1941 1949 1976 2001 2010 1937 1987 2029 1968 2026 2021 2014 1951 2048 2060 2013 2008 2040 1980 2010 2073 2048 2027 1963 2096 2004 1998 1943 2030 1942 1940 1993 1939 2019 1954 1964 2028 1931 2002 1909 1916 1949 2029 1940 1973 1850 1954 1924 1997 1990 1970 1912 1961 1943 1963 1932 1950 1948 1961 1877 1976 1971 1957 1893 1997 1995 1900 1964 1957 1921 1902 1978 1919 1998 1983 1941 1944 2001 1922 1931 2012 1909 2034 1950 1957 1929 1958 1991 1973 1968 1950 1916 1936 1925 1974 1909 1973 1986 1971 2096 1967 1948 1965 1932 1959 1919 1998 1967 1984 1997 2012 1902 2031 1950 1889 1959 1965 1908 1995 1963 1873 1907 1986 1955 1890 1912 1903 1944 1875 1953 1972 1987 1912 1951 1963 1940 1865 1941 1959 2026 1905 1879 1892 1890 1971 1976 1952 1939 1926 1922 1918 1902 1935 1927 1889 2036 2029 1983 1883 1925 1904 1904 2034 1910 1937 1919 1978 1963 1936 1944 1894 1975 1881 1938 1927 1928 1997 1966 2023 1944 1951 1943 1952 2002 1975 1952 1909 1971 1900 1970 1961 1881 1966 1865 1983 1962 2065 1920 1957 1890 1970 1962 2023 1919 1954 1859 1991 1938 1929 1961 1906 2022 1990 1881 2019 2014 1895 1967 1996 1821 1897 1963 1986 1912 1976 1990 1933 2047 1937 1992 1877 1910 2002 1959 1988 2001 1934 2005 1986 1972 1883 2025 1948 1891 2038 1956 1967 2011 1923 2010 2019 1911 1947 1969 1979 1964 1937 1910 1963 1918 1920 1953 2002 1984 1996 1979 1973 1997 1975 2037 1991 1966 2043 2007 1972 2021 2011 2064 2048 2121 2006 2000 2096 2024 2103 2055 2065 2096 2069 2065 2085 2077 2162 2155 2055 2144 2128 2050 2079 2097 2079 2164 2081 2122 2146 2080 2073 2177 2192 2103 2107 2235 2050 2113 2177 2101 2242 2142 2129 2170 2119 2226 2133 2225 2185 2208 2085 2091 2065 2146 2090 2191 2140 2079 2105 2237 2116 2088 2063 2078 2065 2048 2109 2067 2074 2068 2150 2111 2047 2039 2104 2067 2023 2067 1966 2045 2066 2066 2077 2005 2023 1954 1928 2028 2044 1987 2066 1991 1978 2013 1979 2040 2063 1941 1931 1981 2016 2047 2098 2007 2031 2045 2020 1991 2081 1984 2002 1971 2029 2071 1938 1900 2007 2028 1970 2011 2056 1985 1962 2025 1975 2001 1957 1950 1967 1984 1968 2111 1939 2074 2011 2013 2076 2039 2031 2009 2090 1947 2003 1960 1996 1944 2076 1940 2064 1951 1908 1930 1977 1985 1983 2013 2057 1930 1900 1967 1974 1969 2009 1949 1891 1912 1987 1938 1993 2017 1935 1965 1954 1933 1924 1946 1888 2002 2038 1967 1916 1980 1984 1978 1917 1981 1891 2000 1919 1925 1973 1944 1989 1888 1932 1942 2031 1956 2011 1842 1994 1980 1916 1945 1957 1877 2019 1991 1965 2082 2058 1997 1965 1879 1893 1984 1949 1988 1890 2052 1995 1908 2028 1893 1986 1967 1915 1998 1963 1930 1966 1934 2006 1987 1956 1948 1925 1957 1858 1891 1912 1916 2033 1926 1980 1927 1996 1979 2084 1882 2004 1915 1992 1925 1992 1954 2017 1931 1914 1926 1864 1940 1929 1956 1912 1988 1891 1905 1935 1939 1920 1940 1987 1850 1912 1915 1999 1912 1868 1921 1947 1953 1888 1966 2016 1894 1895 1913 1944 1949 1958 1915 1934 1864 1945 1849 1895 2023 1944 1983 1895 1874 1887 1994 1892 1934 1833 1899 1953 1961 1920 1979 1878 1869 1957 1884 1942 1902 1929 1911 2020 1897 1894 1969 1934 1941 1832 1872 1947 1956 1929 1933 1903 1961 1942 1923 1881 1925 1958 1967 2024 1982 1927 1873 1881 1904 1956 1895 1965 1879 1940 1861 1921 1978 1998 1995 1922 1891 1954 1908 1970 1917 1977 1886 2018 1940 1959 1869 2008 1979 1969 1951 1921 2031 1996 1948 1834 1929 1928 1978 1967 1985 1919 1903 1916 1943 2018 1895 1936 1989 1967 1911 1985 1904 2029 2000 1913 1956 1968 1998 1955 1957 1897 1899 1983 1953 1971 2006 1882 1956 1940 2036 1923 1977 1865 1931 1974 1920 1997 1941 1907 1856 1921 1938 1969 1953 1951 1954 1934 2030 1887 1957 1945 1867 1879 1866 1926 1869 1904 1931 1934 1905 1942 1894 1966 1983 1916 2044 1963 1890 1972 1892 1915 1942 1914 1995 1890 1978 1897 1943 1933 1914 1961 1957 1946 1983 1925 2019 1923 1962 1978 1996 1937 1984 1916 2032 1926 1967 1911 2003 1973 1887 1847 1940 1953 1907 1962 1949 1949 1948 1913 1978 1900 1953 1972 1991 1955 1913 1958 1905 1905 1914 1915 1986 1970 2001 1916 1993 1912 1947 1933 1892 2003 1952 2053 1856 1890 1931 1914 1954 1932 1947 1933 1916 1968 1894 1931 1948 1943 1886 1869 1961 1914 1916 1981 1951 1962 1956 1925 2034 1967 1940 1992 1914 1902 1857 1897 1979 1937 1909 1921 1937 1896 2027 1957 1975 1982 2033 1940 1902 1901 1944 1878 1951 1979 2010 1989 1992 1933 1966 1948 1985 1942 1964 1939 1958 1915 1923 1977 1939 1927 1896 1968 2027 1992 1883 1950 1976 1903 1974 1854 1905 1889 1943 1982 1957 1931 2046 1898 1938 1907 1934 1931 1907 1975 1902 1893 1969 1974 2036 2012 1974 2002 1966 1900 1907 2025 1978 1877 1934 1935 1979 1965 1980 1963 1881 1993 1921 2040 1993 1968 2003 1878 2047 1992 2004 2030 1953 2021 1946 1938 1965 2002 1965 1980 2001 2021 1955 2034 2013 1957 2004 2009 1917 2051 1991 1937 1910 1933 1986 2007 1916 1943 1988 1957 2021 1998 2021 1932 2031 1969 1959 1962 2050 1949 2028 1960 2013 1958 2002 1946 1986 2025 2065 2006 2002 2047 1968 2080 2064 2009 2063 2037 2045 2104 2022 2101 1989 2068 1995 1995 2039 1997 2004 2011 1984 2000 2021 2050 1956 1965 2000 1979 1980 2012 1969 2036 2022 2079 1985 2028 2022 1933 2123 2000 2116 2090 2030 2022 1954 2055 1983 2099 2018 2038 2037 2058 2011 2111 1995 1996 2043 2026 1999 2011 2022 2017 2039 1953 2023 2036 2053 1924 1960 1970 1980 2121 1996 2012 2017 2042 1983 1962 2025 2030 2006 1953 1956 1989 2029 1993 2037 2002 2045 1978 2018 1992 2031 1977 1975 2011 1979 1934 2103 2009 1982 2042 1997 1978 1991 2008 2039 2002 1957 2089 1986 1998 2019 1965 1972 1967 2021 2024 1986 2024 2045 1994 1946 1897 2003 1916 1943 1941 1985 1998 2019 1987 2005 1971 1968 2016 1955 1979 1991 2073 2044 1993 1938 1963 1964 1952 2004 2049 2127 2068 2029 1887 1975 1971 2036 1996 1957 2053 2038 1942 2009 2068 2041 2020 2020 1986 2037 2028 2030 2003 2050 1970 2017 1992 2019 2041 1951 1966 1938 2010 2054 2020 1977 2016 2084 1951 2037 2020 2062 1994 2073 2018 1897 1984 1961 2032 1986 1998 2027 2047 1944 2007 1969 1979 2061 2047 1989 2028 1997 2036 1914 2000 1909 1977 1951 1957 1990 1976 2022 2012 2064 1997 2003 2008 2049 2096 2052 2109 1970 2174 1955 2016 2082 2083 2080 2059 2099 2011 2132 2094 2113 2032 2114 2124 2181 2144 2124 2176 1996 2145 2142 2220 2178 2219 2165 2245 2113 2200 2161 2202 2170 2221 2114 2262 2297 2227 2148 2234 2215 2299 2302 2283 2189 2216 2230 2248 2353 2304 2237 2271 2262 2237 2287 2217 2278 2293 2338 2347 2312 2357 2380 2335 2371 2388 2384 2453 2464 2494 2365 2428 2420 2304 2378 2383 2421 2364 2368 2331 2307 2338 2303 2361 2410 2373 2379 2325 2322 2328 2384 2251 2260 2289 2335 2287 2247 2241 2269 2229 2267 2278 2189 2242 2155 2181 2230 2201 2073 2195 2272 2246 2147 2160 2194 2075 2142 2065 2055 2233 2155 2082 2047 2075 2124 2132 2090 2088 2084 2081 2033 2044 2076 2134 2133 2038 2096 2066 2043 1989 1990 2069 2148 1990 2146 1942 2045 2006 1953 2032 2082 2053 2036 2052 2028 1962 2047 2033 2056 1966 2020 2030 2051 1959 2052 2012 2054 2070 2135 2075 2146 1995 2038 2032 2013 2083 2051 2093 2032 2114 2054 2095 2046 2076 2153 2123 2085 2161 2063 2095 2058 2030 2125 2013 2020 2126 2121 1986 2047 2124 2080 2048 2074 2048 2046 2129 2007 2010 2075 2126 2089 2096 2097 2044 2017 2003 2006 2032 2091 2070 2104 2098 2036 2045 2013 2101 2078 2089 2086 2025 2043 2081 2124 2059 2085 2071 2080 2074 2014 2093 2081 2004 2044 2081 2116 2101 2119 2034 2061 2103 2042 2057 2054 2038 1987 2072 2052 2178 2107 1973 2032 2028 2015 1987 1944 2066 2058 2088 1986 2067 1957 2161 1917 2153 1982 2099 2065 1919 2011 2115 2048 2064 2064 2130 2063 2010 2133 2049 2013 2013 2013 2060 2076 2019 2065 2066 2048 2107 2051 2080 2063 2002 2035 2079 2050 2063 2091 2064 2056 2109 2024 2066 2049 2051 2034 2021 2082 2035 1920 1998 2031 2023 1996 2026 2063 1939 2050 1987 2138 2034 2037 2061 2019 2060 1960 1944 1972 1945 2056 2036 2039 2000 1994 2067 1979 1972 1991 2001 2087 2058 2018 1964 1998 2039 1998 2065 1960 1996 1948 2060 1992 1999 1976 2082 1928 1981 1980 1962 1952 1956 1974 2003 1966 1988 1962 2019 1985 2018 2021 1984 1993 1940 2039 2031 1963 1924 1928 1945 1946 2024 1961 2036 1890 1959 1969 1981 1972 2097 1969 2029 1968 1981 1954 1998 2032 1939 2001 1969 2030 1899 1909 1932 1914 1965 2009 1951 1984 1942 1977 2070 2017 1950 1927 1946 1987 2001 1969 1957 1993 2023 1971 2027 1953 1988 1990 2027 1946 1981 1934 1968 1895 1953 1989 2022 1951 1970 1974 1943 1975 2001 1978 1991 1977 1971 2028 2001 2083 1942 2018 1993 1996 1964 1962 1941 2003 1975 1979 1973 1988 1928 1963 1932 2013 2065 1958 1960 1976 1986 1894 1932 1935 1905 1944 1928 1993 1965 1996 1918 1993 2012 1962 1979 1934 1912 1979 2042 2034 1917 1920 1987 1959 1903 1890 2036 1983 2031 1995 1971 1942 1991 1988 1986 1971 1966 1870 2013 2007 1977 1963 2007 2000 1991 1877 1920 1944 1963 1943 2049 1944 1969 1949 1960 1937 2006 1978 1946 1975 2042 1992 1899 1994 1961 2005 2031 1927 1940 2053 1937 1962 1931 1928 1943 1961 1910 1993 1895 1972 1954 1960 2020 1954 1959 2016 2000 2052 2020 1951 1912 1874 1922 2021 1889 2017 1982 1980 1976 1989 1973 1939 1962 1962 1992 1940 1880 1904 1964 1883 1891 1953 1999 1893 1964 1925 1952 2107 1935 1941 1882 2021 1952 1956 1919 1933 1859 2013 1910 1932 1898 2076 1962 1963 1994 1958 1927 2030 1875 1994 1957 2004 1954 2000 1946 1982 1907 2029 1959 2025 1983 1972 2045 1991 1981 1965 1934 1901 1896 2025 2017 2015 1904 1896 2015 1950 2022 1933 1970 2049 2079 1985 2011 1948 2033 2008 1935 1985 2032 1977 1932 1904 2037 1975 2005 2019 2007 1971 1979 1933 2024 2021 2024 2025 1970 2027 1991 1973 2066 1890 1990 1924 2014 1965 1928 2015 2052 1920 1984 1962 1948 1984 2022 2026 1948 2117 2072 2002 1932 2101 1953 2035 1980 1951 1978 1986 1972 2034 2062 2031 2061 2022 1989 2023 2032 2049 2059 2031 2100 2019 2022 1919 1971 1981 2004 2091 1980 2041 1968 1980 1995 1989 1922 1996 2021 1990 1995 1975 1964 2063 2036 2039 2040 2056 2015 2113 1972 2029 2010 1976 2012 1979 2074 1952 1962 1964 2000 2011 1986 1934 1963 2018 2042 2027 1974 1991 1979 1909 2026 1960 2032 2019 2001 1899 1943 1990 2021 2031 2006 2042 1963 2038 2010 2007 2012 1954 1952 1915 1934 1957 2068 1995 1903 1928 1975 1999 1998 1934 1966 1999 1956 1912 1917 1927 1908 2032 1954 1954 2002 1955 1952 2038 2033 1980 2125 1962 2007 1933 1991 1915 2048 1964 1986 2006 2016 1961 1960 2032 1943 1997 1926 1957 1904 1946 1938 1937 2038 2011 2017 2002 1957 1950 1978 1972 2005 1949 2036 2077 2035 2031 2030 1958 2032 1993 1985 2046 2020 1915 1965 1975 1937 1946 1976 1957 1991 1983 2023 1908 2018 1971 1988 1931 1959 2062 1985 1964 2017 1927 1930 1967 2054 1992 2067 1991 2083 1965 2033 1945 1989 1934 1957 1949 1946 2050 2001 1991 1964 1969 2089 1927 1991 2008 1968 2110 1974 1976 1995 1971 2027 2037 1987 1966 1992 2126 2081 2003 2049 2121 1927 1952 2035 1994 2003 2088 2006 1995 2066 2111 2044 2127 1938 2065 2088 2128 2124 2079 2016 2045 2056 2094 2066 2127 2044 1979 2100 2119 2085 2164 2082 2063 2089 2098 2108 2159 2146 2193 2093 2198 2109 2096 2182 2132 2137 2131 2230 2064 2120 2159 2195 2146 2189 2148 2237 2137 2081 2155 2220 2240 2176 2263 2266 2246 2140 2250 2245 2245 2185 2265 2144 2257 2201 2190 2248 2301 2294 2286 2200 2163 2149 2159 2244 2229 2218 2242 2260 2268 2219 2199 2206 2192 2197 2208 2158 2204 2247 2221 2212 2063 2231 2195 2228 2193 2222 2200 2171 2124 2188 2134 2127 2203 2165 2137 2165 2153 2137 2131 2048 2162 2189 2067 2116 2126 2108 2123 2100 2114 2063 2045 2143 2095 2138 2210 2111 2086 2099 2053 2052 2045 2037 1964 2020 2080 2052 2102 2141 2020 2036 2022 1998 2095 1991 1973 2035 2010 2066 2068 2018 2024 2027 1965 2025 2044 2068 2007 2038 2042 2026 2105 2110 2025 2001 2008 2052 2028 2063 1970 2069 2019 1978 1952 1880 2131 2019 2015 2075 2021 2055 1955 2041 2045 1937 2030 2123 2032 2134 2115 2037 2021 2007 2088 2121 2047 1979 1997 2065 2056 2078 2097 2049 2069 2077 2058 2035 2128 2016 2078 2088 2126 2057 2014 2019 2005 2058 2016 2058 2017 2072 2111 2097 2089 1989 2047 1942 2011 2059 2011 2054 2024 2012 1993 2020 2011 2046 2016 2058 1946 2016 2047 2019 2068 2016 2136 1992 2027 1991 2035 1980 2013 2065 1974 2018 2074 2033 1974 1976 2020 1972 1964 2105 1922 1988 2029 2010 1976 2080 2065 1992 2137 1909 2118 2016 1935 2000 2069 2014 2017 2017 2018 1984 1998 2002 1944 2036 1980 1980 2083 1954 1961 2034 1923 1951 2109 2003 1962 1995 2027 2053 1890 1963 1937 1971 2053 1966 1986 2004 2067 1988 2120 2096 1979 2048 1927 2007 2099 2051 2001 2053 2032 2084 2050 2003 1959 1979 2080 1994 2011 2072 1997 2005 2043 1994 2019 1982 1985 2069 1986 2023 2017 1968 2007 2008 1907 1897 2017 1931 2009 2001 1979 1975 1938 2035 1968 2067 2002 2022 1999 2022 2014 2043 1970 2056 1919 2014 2101 1992 1988 2021 1962 1927 2002 1995 1976 1979 2017 1922 1957 2002 2036 2097 2065 1995 2083 1997 1957 1953 1952 1937 1963 2015 1961 1966 2011 1857 2063 2039 1988 1982 1973 1958 1908 1982 1929 1953 1950 1998 1989 1991 2041 1952 2030 1928 1890 2008 1952 2042 2060 1984 1977 1952 1913 1928 1952 2026 2005 1941 1905 1989 2033 1964 1993 1907 1984 2036 2028 1898 1969 2001 1908 1936 2019 1956 1941 2035 1931 2056 1960 2048 1927 1895 1957 2020 1979 2006 1982 1975 1943 2023 1973 1905 1891 1966 2041 2032 1968 1930 1966 2081 1964 2026 1976 1961 1973 2003 1937 1975 1944 2044 1986 1968 2043 1946 1964 2017 1873 1969 1933 1946 1961 1981 1910 1961 1880 2029 1960 1898 1922 1920 1970 1958 1982 1953 1981 2011 1990 1985 2037 2000 2037 1966 2008 2007 1960 2010 1967 2063 1860 2033 2005 1954 1933 1961 1987 1951 1890 2025 2024 1955 2025 2018 1904 1978 1967 1915 1992 1983 1954 2104 1932 1980 1974 1965 1966 1871 1891 1996 1993 1983 1976 1926 1977 1972 1982 2092 1892 2033 1892 1925 1957 1908 1998 2053 1935 1989 1963 1961 2016 1918 1911 2020 2126 1938 1968 2001 1961 1947 1972 1970 1971 2022 1979 2014 2026 1924 1923 2031 1971 2005 2021 2044 1949 1955 1999 1998 1983 1956 1967 1955 1990 2012 2008 1960 1915 1927 2021 1987 1947 2046 1975 2099 1999 1941 1892 1922 1997 2010 1968 1981 1897 1973 2055 2019 1983 1956 1969 1932 1955 2045 2012 2024 1969 1990 1975 1952 1996 1960 2006 2001 1974 1961 1986 2084 1922 1971 1968 2058 1956 2035 2016 2058 2037 1997 2015 2062 2011 1994 1928 1971 1985 2052 2101 1952 1912 1969 1937 1985 2056 1991 2067 2019 2040 2002 1966 2033 2013 2036 2015 2017 2082 2123 1995 2020 2027 2095 2023 1998 2032 2087 2029 2005 1974 1993 1954 2104 2086 2053 2070 2047 2059</counts>
			</dataPoints>
		</scan>
	</xrdMeasurement>
</xrdMeasurements>
