<?xml version="1.0"?>
<xrdMeasurements xmlns="http://www.xrdml.com/XRDMeasurement/2.3" xmlns:xsi="http://www.w3.org/2001/XMLSchema-instance" xsi:schemaLocation="http://www.xrdml.com/XRDMeasurement/2.3 http://www.xrdml.com/XRDMeasurement/2.3/XRDMeasurement.xsd" status="Completed" recordIdentifier="{F055D2DF-6859-4250-814A-AE11731FD44F}">
	<comment>
		<entry/>
	</comment>
	<sample type="To be analyzed">
		<id>GPSS_Li1p4Mn0p8Ta0p2Cl4_110125_690658b7e3432ed06b655f31</id>
		<name></name>
		<preparedBy></preparedBy>
	</sample>
	<xrdMeasurement measurementType="Scan" status="Completed" sampleMode="Reflection">
		<usedWavelength intended="K-Alpha 1">
			<kAlpha1 unit="Angstrom">1.5405980</kAlpha1>
			<kAlpha2 unit="Angstrom">1.5444260</kAlpha2>
			<kBeta unit="Angstrom">1.3922500</kBeta>
			<ratioKAlpha2KAlpha1>0.5000</ratioKAlpha2KAlpha1>
		</usedWavelength>
		<incidentBeamPath>
			<radius unit="mm">145.00</radius>
			<xRayTube id="1010048" name="Empyrean Cu LFF HR (9430 033 7310x)">
				<tension unit="kV">40.0</tension>
				<current unit="mA">15.0</current>
				<anodeMaterial>Cu</anodeMaterial>
				<focus type="Line">
					<length unit="mm">12.0</length>
					<width unit="mm">0.4</width>
					<takeOffAngle unit="deg">6.0</takeOffAngle>
				</focus>
			</xRayTube>
			<sollerSlit id="21010002" name="Soller slits 0.04 rad.">
				<opening unit="rad">0.0400</opening>
			</sollerSlit>
			<mask id="22031000" name="Fixed mask 13 mm">
				<width unit="mm">9.00</width>
			</mask>
			<divergenceSlit id="22120001" name="Divergence slit 1°" xsi:type="fixedDivergenceSlitType">
				<distanceToSample unit="mm">50.00</distanceToSample>
				<height unit="mm">1.52</height>
			</divergenceSlit>
		</incidentBeamPath>
		<sampleMovement xsi:type="spinningSampleMovementType">
			<spinnerRevolutionTime unit="seconds">1.0</spinnerRevolutionTime>
		</sampleMovement>
		<diffractedBeamPath>
			<radius unit="mm">145.00</radius>
			<antiScatterSlit id="22090040" name="AS slit 9 mm (PIXcel)" xsi:type="fixedAntiScatterSlitType">
				<height unit="mm">9.00</height>
			</antiScatterSlit>
			<sollerSlit id="21020003" name="Large Soller slits 0.04 rad.">
				<opening unit="rad">0.0400</opening>
			</sollerSlit>
			<filter id="20030001" name="Large beta-filter Nickel">
				<material>Ni</material>
				<thickness unit="mm">0.020</thickness>
			</filter>
			<detector id="7010019" name="PIXcel1D-Medipix3 detector" xsi:type="rtmsDetectorType">
				<phd unit="keV">
					<lowerLevel>4.02</lowerLevel>
					<upperLevel>11.27</upperLevel>
				</phd>
				<mode>Scanning</mode>
				<activeLength unit="deg">5.542</activeLength>
			</detector>
		</diffractedBeamPath>
		<scan appendNumber="0" mode="Continuous" scanAxis="Gonio" status="Completed">
			<header>
				<startTimeStamp>2025-11-03T13:07:43-08:00</startTimeStamp>
				<endTimeStamp>2025-11-03T13:15:51-08:00</endTimeStamp>
				<author>
					<name>AutomatedUser</name>
				</author>
				<source>
					<applicationSoftware version="1.7b (136)">PANalytical Aeris Instrument Suite</applicationSoftware>
					<instrumentControlSoftware version="3.2.00000000 20240306">AERIS</instrumentControlSoftware>
					<instrumentID>950485</instrumentID>
				</source>
			</header>
			<dataPoints>
				<positions axis="2Theta" unit="deg">
					<startPosition>10.00943322</startPosition>
					<endPosition>99.99442286</endPosition>
				</positions>
				<positions axis="Omega" unit="deg">
					<startPosition>5.00471661</startPosition>
					<endPosition>49.99721143</endPosition>
				</positions>
				<commonCountingTime unit="seconds">12.495</commonCountingTime>
				<counts unit="counts">2988 3034 3021 3173 3037 3040 3024 3038 3010 3090 3065 3118 3011 3010 3134 3006 3138 3023 2935 3193 3124 3172 3092 2973 3127 3052 3000 3034 3135 3062 3038 3046 3102 3160 3036 3099 3090 3280 2957 3068 3084 3140 3145 3120 3069 3170 3174 3127 3182 3071 3081 3132 3144 3069 3287 3125 3137 3035 3198 3107 3133 3152 3278 3372 3232 3290 3203 3288 3218 3266 3228 3211 3201 3275 3368 3255 3185 3294 3318 3381 3260 3256 3275 3284 3270 3254 3294 3419 3252 3181 3164 3130 3254 3154 3244 3190 3277 3329 3038 3278 3193 3102 3064 3113 3234 3062 3127 3121 3201 3074 3027 3092 3057 3040 3076 3140 3016 3083 3065 2999 3045 2975 2914 3109 3050 3072 2965 2900 3012 2989 2978 3018 2952 2958 2981 2869 3012 2911 3045 3061 3036 3137 3062 3063 3121 3131 3178 2986 3046 2995 3022 3053 3046 3108 3059 3099 3010 2948 3116 3039 3084 2988 2992 3021 3093 3103 2976 3084 2994 2989 3028 3099 2997 2931 2936 3063 2900 3041 3083 2948 3027 2999 2857 3011 3011 2959 3086 2996 3012 3149 3154 2979 2977 2986 3027 3020 3092 3018 3018 3023 3027 2974 2998 2998 3066 3085 2953 3000 3019 2954 2989 2953 3001 3085 3066 2959 3017 2982 3065 2980 3071 3045 2859 3064 2975 3009 2945 3038 2953 2997 3045 3052 2994 2969 2961 2909 2896 2954 3038 3003 3006 2950 2992 2957 2966 3070 2960 2870 3038 2968 2944 2982 3030 3082 3039 2992 3029 3029 2996 2994 3004 3002 2962 3123 3014 3101 3075 3025 3169 3006 3061 3078 3013 3130 3027 3164 3024 3084 3028 3086 3069 2966 3134 3163 3051 3089 2981 3198 3265 3143 3228 3139 3078 3156 3226 3122 3162 3162 3114 3086 3188 3191 3252 3224 3206 3160 3110 3252 3220 3197 3200 3247 3266 3200 3301 3172 3266 3284 3300 3267 3239 3294 3263 3382 3262 3307 3282 3348 3394 3465 3239 3281 3334 3309 3393 3382 3308 3379 3521 3330 3418 3349 3470 3381 3344 3437 3443 3411 3400 3413 3389 3389 3587 3555 3437 3461 3521 3430 3452 3490 3551 3587 3522 3494 3562 3672 3551 3633 3672 3578 3523 3537 3695 3650 3689 3653 3687 3600 3784 3701 3667 3645 3752 3693 3720 3914 3708 3795 3894 3813 3856 3926 3821 3976 3936 3890 4116 4002 4015 4031 4149 4165 4230 4197 4436 4449 4466 4528 4570 4786 4907 4917 4965 5116 5396 5259 5567 5500 5820 5999 5868 6133 6123 6186 6276 6265 6278 6229 6001 5876 5944 5718 5628 5531 5369 5253 5137 4946 4938 4843 4719 4696 4450 4461 4408 4286 4265 4302 4328 4207 4348 4211 4332 4354 4292 4247 4205 4239 4224 4284 4311 4290 4249 4331 4273 4283 4099 4310 4240 4340 4245 4059 4109 4290 4324 4204 4139 4088 4159 4115 4020 4123 4176 4080 4049 3991 3977 3788 3850 3819 3865 3822 3799 3797 3768 3841 3784 3686 3744 3711 3768 3795 3876 3688 3756 3729 3704 3645 3617 3674 3598 3594 3693 3533 3642 3486 3591 3588 3548 3527 3563 3513 3666 3621 3633 3669 3485 3532 3436 3579 3566 3542 3532 3517 3466 3578 3483 3410 3473 3537 3492 3534 3494 3374 3477 3464 3588 3473 3542 3504 3453 3434 3366 3491 3425 3528 3449 3436 3452 3454 3381 3504 3389 3419 3475 3411 3324 3423 3498 3318 3375 3467 3421 3297 3265 3348 3363 3367 3516 3341 3380 3297 3375 3391 3305 3387 3386 3398 3401 3413 3398 3341 3361 3360 3288 3312 3387 3277 3319 3336 3371 3325 3412 3335 3410 3205 3203 3307 3246 3422 3388 3323 3330 3304 3346 3312 3394 3313 3319 3298 3266 3250 3223 3283 3277 3308 3320 3359 3241 3120 3213 3295 3223 3326 3288 3205 3241 3315 3192 3280 3385 3239 3184 3276 3192 3312 3296 3234 3243 3359 3284 3294 3218 3224 3257 3215 3219 3332 3231 3257 3196 3290 3180 3274 3195 3217 3267 3195 3414 3273 3292 3103 3270 3234 3201 3271 3257 3228 3183 3200 3133 3266 3146 3273 3341 3202 3087 3336 3137 3280 3207 3283 3221 3116 3141 3201 3268 3198 3228 3242 3250 3169 3196 3137 3281 3225 3153 3264 3213 3165 3146 3160 3172 3234 3179 3251 3276 3190 3090 3139 3112 3101 3203 3142 3268 3092 3254 3196 3201 3214 3243 3207 3211 3217 3152 3154 3074 3243 3100 3191 3174 3206 3220 3209 3149 3209 3151 3194 3212 3106 3199 3089 3269 3170 3101 3179 3054 3070 3233 3206 3213 3171 3257 3180 3092 3146 3175 3160 3101 3092 3132 3155 3147 3189 3142 3089 3084 3088 3130 3032 3174 3119 3163 3152 3190 3097 3188 3065 3121 3119 3098 3025 3052 3204 3128 3158 3107 3128 3111 3105 3108 3209 3278 3108 3109 3041 3041 3097 3173 3060 3060 3135 3098 3118 3159 3098 3018 3164 3086 3018 3050 2939 3137 3203 3101 3005 3181 2997 3074 3077 2999 3028 3151 3092 3058 3141 3012 3107 3151 3135 2926 2967 3070 3042 3157 2985 3110 3038 3054 3014 3149 2995 3081 3016 2901 3066 3042 3127 3041 3043 2946 3038 2958 2984 2998 3102 3025 3060 3028 3003 3046 3068 2975 2921 3005 3002 3014 2992 3007 3111 3142 3034 3011 2984 3139 3054 3061 3062 2989 3021 3079 2977 3025 2984 3036 2877 3011 3097 3007 3115 3040 3057 2971 3019 2990 2986 2941 3065 2902 2999 3004 2906 2906 3059 2923 2934 3004 2928 3050 2854 2897 2927 2904 3056 2948 2890 2984 2880 2869 2954 2972 2997 2965 3001 2940 2923 2996 3025 2958 2931 2975 2913 2936 2855 2900 2984 2908 2901 2911 2916 2956 3023 2845 3031 2901 2924 2881 2873 2834 2934 2904 3009 2945 2938 2875 2950 2955 2959 2881 2933 2949 2976 2925 2903 2917 2993 3033 2985 2940 2899 2825 3000 2938 2800 2879 2841 2915 2933 2983 2903 2975 2848 2825 2889 2844 2927 2867 2827 2820 2917 2855 2842 2932 2832 2874 2934 2903 2826 2838 2922 2911 3009 2896 2977 2854 2886 2822 2941 2885 3009 2993 2933 2992 2953 3009 2901 2822 2917 2923 2959 2938 2936 2961 2925 2972 2976 3010 2910 3024 2912 2876 3023 3032 2934 2920 2932 3009 2923 2976 2917 2943 2917 2974 3010 3012 2956 2976 2965 3045 3030 2934 2910 3030 3017 2912 2922 2993 2976 2997 3038 2874 2988 2898 2942 3000 3066 2945 2988 2962 2986 3031 2809 2949 2998 2905 3050 3064 2967 2919 2998 3054 2958 3032 3011 2997 2979 2994 2955 2950 3030 2864 2983 2914 2964 2968 2936 2962 2859 3015 2852 2914 2923 2880 3020 2922 2792 2848 2902 2944 2897 2926 3014 2919 2890 2840 2920 2971 2868 2874 2971 2952 2984 2843 2851 2874 2880 2998 2749 2895 2836 2859 2922 2801 2897 2776 2881 2910 2898 2850 2790 2775 2858 2849 2711 2812 2805 2788 2831 2859 2758 2829 2868 2788 2771 2778 2765 2695 2681 2789 2743 2781 2758 2821 2844 2829 2643 2716 2745 2706 2767 2803 2672 2681 2634 2839 2838 2639 2700 2723 2708 2625 2789 2704 2600 2712 2580 2625 2686 2625 2667 2657 2657 2755 2700 2657 2615 2645 2687 2623 2634 2668 2600 2664 2608 2596 2535 2595 2575 2622 2582 2561 2612 2576 2579 2497 2594 2561 2518 2513 2516 2482 2538 2535 2584 2531 2491 2476 2520 2482 2551 2427 2378 2573 2496 2536 2436 2492 2463 2506 2516 2548 2484 2489 2525 2457 2542 2529 2462 2388 2431 2394 2422 2370 2407 2506 2403 2455 2389 2346 2468 2406 2407 2368 2440 2375 2456 2457 2466 2377 2375 2398 2407 2389 2368 2343 2370 2405 2448 2359 2367 2427 2395 2493 2380 2416 2419 2390 2345 2408 2409 2414 2357 2342 2359 2468 2355 2346 2316 2317 2421 2378 2351 2405 2332 2352 2446 2301 2308 2343 2330 2332 2340 2377 2293 2336 2349 2295 2296 2284 2372 2388 2314 2329 2272 2311 2251 2321 2369 2340 2243 2381 2411 2369 2291 2320 2310 2362 2248 2321 2249 2289 2271 2243 2239 2309 2313 2263 2282 2367 2290 2349 2269 2299 2299 2289 2322 2288 2342 2249 2354 2233 2345 2305 2286 2314 2334 2255 2270 2231 2268 2236 2359 2262 2312 2321 2363 2325 2407 2354 2330 2260 2330 2392 2356 2394 2252 2282 2349 2347 2293 2227 2290 2303 2244 2301 2298 2304 2340 2449 2349 2303 2340 2324 2292 2338 2385 2318 2315 2276 2322 2330 2283 2418 2381 2351 2382 2311 2381 2259 2372 2322 2356 2324 2317 2316 2342 2240 2278 2319 2291 2294 2254 2223 2279 2288 2281 2311 2304 2368 2320 2312 2284 2362 2358 2331 2294 2258 2325 2214 2391 2334 2342 2305 2314 2373 2258 2318 2316 2340 2258 2402 2367 2298 2308 2368 2268 2392 2342 2283 2317 2293 2372 2319 2355 2267 2271 2417 2358 2356 2377 2329 2330 2268 2403 2222 2271 2307 2326 2371 2374 2339 2258 2264 2310 2283 2259 2281 2315 2256 2231 2349 2365 2336 2271 2277 2264 2424 2294 2428 2316 2299 2277 2232 2294 2205 2286 2254 2235 2230 2216 2270 2175 2230 2267 2255 2337 2328 2234 2343 2326 2248 2225 2176 2127 2243 2204 2255 2184 2255 2215 2218 2137 2234 2248 2251 2194 2157 2292 2158 2147 2219 2090 2211 2076 2244 2199 2109 2206 2142 2119 2169 2139 2082 2133 2177 2148 2121 2202 2137 2200 2191 2148 2204 2161 2170 2139 2090 2075 2119 2135 2076 2100 2063 2094 2076 2186 2180 2126 2164 2177 2092 2020 2025 2036 2067 2059 2185 2111 2079 2092 2109 2070 2059 2096 2087 2094 2158 2072 2122 2137 2089 2138 2128 2020 2067 2021 2097 2046 2104 2136 2076 1941 2062 2030 2024 2044 2173 2091 2040 2167 2049 2110 2126 2082 2114 2112 2128 2172 2130 2224 2189 2211 2211 2461 2343 2436 2445 2454 2481 2576 2711 2740 2834 2948 3070 3130 3338 3366 3486 3565 3691 3743 3889 3908 3893 3814 3690 3799 3740 3559 3609 3459 3308 3305 3174 3115 2925 2797 2699 2676 2630 2482 2496 2408 2294 2321 2304 2214 2133 2130 2163 2073 2057 2142 2041 2069 2046 2070 2070 1988 2036 2004 2061 1978 1944 1949 1954 1905 1983 1991 1965 2047 1951 1902 1946 1917 1987 1947 1837 1931 1942 1947 1963 1933 1946 1903 1949 1908 1943 1907 1947 1853 1974 1938 1924 1932 1950 1966 1926 2000 1938 1998 1941 1935 1869 1919 1918 1952 1914 1971 1938 1929 2028 2017 1989 1991 2020 2163 2140 2168 2209 2214 2297 2443 2530 2576 2648 2849 2960 3090 3204 3438 3615 3840 4047 4219 4632 4810 4927 5055 5229 5386 5292 5221 5173 5103 4974 4834 4844 4525 4381 4043 3734 3726 3491 3323 3121 3065 2856 2744 2736 2504 2452 2371 2347 2194 2237 2127 2054 2057 2079 2010 2027 2004 1987 1961 1954 1921 1824 1817 1881 1883 1831 1922 1829 1884 1903 1846 1842 1857 1901 1895 1818 1872 1863 1898 1869 1822 1825 1738 1866 1865 1818 1814 1927 1774 1809 1757 1763 1771 1784 1847 1760 1835 1757 1663 1720 1684 1738 1750 1689 1718 1773 1732 1801 1684 1714 1707 1719 1716 1695 1697 1682 1691 1748 1724 1745 1700 1715 1782 1682 1714 1725 1686 1755 1723 1721 1761 1720 1673 1697 1772 1628 1720 1774 1684 1725 1772 1756 1729 1704 1736 1690 1679 1711 1684 1678 1697 1698 1682 1695 1676 1605 1683 1642 1675 1668 1696 1569 1671 1661 1658 1665 1725 1663 1691 1699 1596 1736 1625 1631 1693 1547 1634 1715 1617 1634 1665 1641 1650 1641 1652 1674 1637 1615 1663 1637 1635 1650 1665 1614 1625 1661 1641 1596 1667 1688 1588 1579 1618 1629 1598 1589 1687 1643 1645 1562 1649 1571 1574 1626 1631 1635 1593 1598 1603 1577 1573 1665 1625 1638 1636 1591 1608 1653 1622 1546 1680 1613 1608 1505 1665 1628 1565 1627 1639 1600 1578 1653 1587 1567 1644 1630 1566 1644 1549 1574 1636 1614 1608 1563 1661 1509 1538 1559 1593 1553 1657 1547 1576 1657 1543 1621 1547 1617 1628 1567 1630 1629 1602 1603 1593 1557 1585 1607 1709 1603 1654 1594 1586 1588 1619 1617 1671 1597 1584 1530 1669 1596 1583 1637 1580 1599 1625 1655 1624 1597 1649 1573 1588 1622 1588 1659 1571 1650 1589 1538 1616 1589 1653 1607 1563 1552 1578 1649 1593 1555 1508 1542 1535 1632 1569 1552 1602 1504 1484 1593 1556 1572 1519 1518 1592 1570 1680 1513 1644 1565 1672 1592 1579 1627 1632 1666 1643 1615 1571 1604 1755 1653 1691 1675 1632 1719 1638 1594 1580 1647 1716 1673 1518 1625 1617 1554 1629 1620 1704 1618 1618 1645 1621 1602 1614 1596 1662 1653 1589 1663 1641 1706 1579 1657 1584 1719 1535 1650 1743 1660 1637 1744 1633 1677 1648 1657 1613 1703 1723 1642 1681 1710 1638 1748 1774 1765 1789 1841 1737 1736 1747 1803 1830 1886 1854 1874 1801 1926 1917 1948 1883 1950 2056 1979 2007 2115 2068 2211 2245 2232 2380 2442 2631 2658 2663 3066 3147 3284 3540 3829 4114 4493 4881 5329 5931 6325 6986 7854 8482 9283 9901 10644 11303 11568 12079 12186 12281 12210 12326 11828 11791 11517 11150 10820 10198 9742 8900 8421 7584 6876 6462 6023 5625 5287 4839 4540 4178 3910 3747 3605 3330 3256 3221 3022 3025 2976 2962 2870 2860 2778 2751 2755 2712 2648 2652 2553 2562 2443 2454 2392 2406 2331 2335 2285 2233 2275 2129 2103 2104 2091 2046 1971 1907 2063 2032 1930 2023 1963 1928 1911 1923 1896 1865 1799 1828 1855 1813 1791 1783 1818 1708 1812 1779 1781 1719 1736 1744 1744 1703 1642 1773 1722 1656 1669 1640 1651 1676 1648 1585 1580 1566 1567 1632 1563 1544 1614 1610 1592 1597 1644 1572 1603 1598 1587 1591 1582 1576 1647 1598 1502 1529 1578 1543 1588 1490 1518 1516 1513 1573 1566 1483 1578 1460 1563 1557 1585 1550 1569 1538 1454 1466 1549 1553 1613 1507 1495 1501 1474 1542 1454 1574 1533 1548 1540 1531 1587 1546 1544 1447 1476 1475 1461 1521 1571 1519 1537 1598 1479 1550 1539 1557 1478 1469 1503 1500 1518 1486 1578 1422 1520 1438 1510 1495 1428 1486 1489 1603 1523 1477 1442 1526 1484 1510 1445 1551 1442 1480 1496 1502 1502 1513 1457 1459 1544 1421 1456 1484 1512 1530 1488 1488 1556 1477 1553 1531 1469 1494 1492 1489 1482 1457 1478 1513 1558 1442 1457 1494 1459 1509 1480 1423 1512 1383 1484 1480 1471 1529 1468 1427 1437 1451 1474 1422 1487 1493 1520 1514 1471 1498 1461 1421 1483 1472 1444 1470 1463 1445 1455 1510 1522 1461 1435 1387 1511 1479 1375 1462 1405 1486 1434 1389 1421 1434 1561 1417 1465 1490 1454 1489 1407 1490 1488 1487 1454 1406 1498 1465 1463 1517 1545 1540 1600 1604 1631 1551 1632 1572 1562 1623 1510 1658 1578 1524 1580 1547 1549 1541 1587 1505 1604 1498 1513 1578 1471 1437 1459 1524 1446 1465 1481 1444 1462 1428 1427 1432 1484 1457 1505 1517 1478 1460 1503 1393 1430 1525 1521 1442 1403 1430 1492 1399 1458 1433 1510 1471 1437 1438 1478 1423 1399 1504 1484 1468 1426 1417 1398 1464 1437 1484 1455 1567 1446 1418 1426 1391 1397 1389 1387 1455 1448 1410 1405 1432 1386 1493 1388 1453 1413 1436 1430 1408 1415 1441 1404 1345 1425 1385 1387 1420 1406 1309 1415 1391 1425 1397 1359 1437 1333 1415 1403 1380 1385 1395 1369 1363 1378 1344 1354 1433 1355 1403 1323 1382 1313 1325 1367 1335 1339 1299 1358 1354 1349 1386 1293 1386 1318 1334 1448 1326 1354 1336 1385 1385 1418 1393 1382 1333 1352 1396 1354 1324 1348 1367 1405 1330 1435 1333 1362 1403 1277 1396 1369 1414 1403 1367 1391 1335 1382 1353 1324 1387 1352 1361 1346 1330 1337 1409 1385 1314 1389 1393 1383 1343 1331 1301 1457 1261 1318 1421 1316 1301 1355 1300 1399 1351 1311 1398 1439 1394 1380 1381 1356 1341 1300 1326 1321 1397 1371 1356 1348 1344 1302 1386 1304 1381 1338 1357 1319 1378 1344 1376 1272 1381 1344 1354 1343 1320 1296 1357 1372 1327 1354 1353 1370 1337 1398 1353 1333 1404 1357 1361 1351 1259 1335 1356 1346 1342 1311 1345 1374 1354 1364 1350 1384 1324 1346 1354 1316 1335 1353 1335 1346 1375 1314 1310 1340 1380 1346 1286 1395 1378 1319 1398 1367 1360 1332 1322 1351 1316 1272 1374 1340 1320 1277 1357 1419 1354 1328 1301 1349 1277 1322 1299 1337 1363 1291 1319 1345 1318 1284 1414 1312 1339 1363 1350 1340 1330 1370 1312 1357 1286 1320 1301 1452 1375 1300 1306 1384 1334 1369 1273 1343 1334 1300 1307 1359 1326 1320 1395 1403 1373 1258 1388 1289 1373 1322 1299 1257 1308 1392 1374 1279 1262 1281 1388 1269 1344 1300 1287 1300 1352 1275 1344 1349 1297 1366 1335 1284 1309 1310 1373 1349 1336 1319 1313 1285 1302 1294 1360 1263 1243 1297 1332 1323 1356 1359 1273 1323 1323 1286 1324 1304 1353 1330 1239 1310 1254 1342 1367 1258 1321 1277 1351 1334 1316 1281 1297 1346 1352 1322 1327 1304 1385 1320 1303 1267 1287 1397 1365 1320 1339 1308 1313 1348 1310 1294 1338 1307 1295 1349 1351 1293 1350 1330 1335 1308 1322 1234 1355 1214 1346 1337 1255 1382 1247 1231 1348 1266 1288 1282 1288 1335 1259 1382 1362 1325 1318 1276 1309 1296 1320 1349 1300 1288 1355 1340 1349 1286 1273 1299 1294 1313 1300 1343 1296 1297 1294 1326 1355 1304 1263 1319 1336 1287 1268 1330 1316 1227 1366 1241 1320 1301 1312 1319 1244 1376 1318 1282 1248 1357 1321 1293 1365 1270 1283 1252 1346 1263 1351 1328 1272 1275 1248 1274 1319 1218 1318 1335 1358 1293 1312 1280 1320 1356 1308 1348 1320 1267 1296 1347 1279 1319 1298 1335 1296 1343 1329 1268 1320 1265 1286 1339 1401 1336 1275 1329 1287 1288 1280 1332 1359 1258 1278 1287 1327 1307 1268 1277 1305 1294 1366 1231 1239 1331 1350 1306 1302 1312 1339 1297 1362 1290 1299 1247 1296 1308 1266 1326 1312 1303 1337 1327 1261 1302 1305 1297 1307 1305 1339 1300 1308 1297 1238 1334 1244 1389 1279 1304 1311 1246 1326 1304 1282 1285 1356 1237 1257 1288 1313 1323 1305 1313 1279 1314 1272 1283 1317 1307 1294 1297 1307 1313 1295 1260 1332 1360 1280 1246 1350 1331 1306 1336 1377 1353 1347 1337 1278 1330 1299 1407 1300 1289 1339 1283 1267 1351 1332 1321 1313 1338 1338 1304 1293 1251 1364 1314 1260 1371 1332 1329 1291 1335 1326 1297 1313 1338 1336 1353 1373 1366 1355 1309 1320 1328 1317 1373 1346 1316 1425 1372 1446 1357 1370 1440 1340 1377 1382 1353 1453 1437 1396 1408 1507 1457 1489 1603 1654 1655 1700 1722 1730 1871 1961 2044 2091 2193 2177 2304 2309 2368 2248 2387 2412 2363 2315 2284 2257 2228 2273 2237 2135 2022 2058 1996 1900 1855 1779 1793 1658 1635 1617 1619 1509 1586 1576 1564 1436 1360 1385 1356 1377 1370 1388 1345 1366 1411 1387 1358 1317 1323 1359 1353 1327 1349 1301 1390 1304 1388 1316 1331 1313 1431 1320 1297 1357 1302 1315 1270 1343 1351 1280 1317 1338 1338 1366 1296 1362 1327 1246 1366 1313 1339 1348 1318 1391 1280 1373 1302 1297 1325 1358 1311 1341 1304 1393 1350 1306 1302 1342 1329 1401 1297 1356 1339 1340 1387 1385 1293 1370 1401 1297 1320 1346 1348 1320 1367 1333 1286 1278 1317 1352 1346 1307 1336 1340 1287 1246 1257 1324 1314 1259 1282 1231 1269 1277 1246 1336 1291 1224 1287 1317 1285 1241 1371 1272 1284 1240 1290 1310 1274 1333 1263 1294 1218 1289 1324 1298 1302 1373 1295 1312 1322 1244 1262 1316 1276 1332 1308 1270 1232 1289 1355 1321 1265 1226 1211 1268 1293 1258 1259 1261 1300 1332 1280 1285 1305 1254 1327 1292 1317 1272 1223 1326 1245 1225 1277 1268 1347 1263 1342 1263 1223 1275 1229 1314 1337 1324 1275 1197 1302 1228 1269 1235 1286 1338 1230 1242 1314 1292 1198 1278 1351 1300 1282 1226 1338 1259 1289 1299 1372 1302 1265 1290 1306 1370 1237 1275 1332 1299 1248 1282 1302 1240 1258 1273 1279 1276 1283 1247 1365 1298 1350 1261 1375 1297 1318 1357 1324 1324 1333 1255 1272 1299 1352 1310 1350 1283 1356 1327 1278 1340 1262 1311 1248 1289 1306 1285 1235 1292 1308 1229 1209 1274 1222 1292 1321 1254 1213 1314 1326 1335 1346 1309 1311 1262 1286 1324 1372 1280 1303 1287 1312 1269 1346 1306 1302 1295 1314 1271 1416 1392 1348 1244 1281 1360 1279 1296 1271 1311 1318 1356 1368 1289 1348 1267 1324 1375 1332 1406 1340 1249 1327 1334 1277 1323 1329 1371 1365 1368 1386 1389 1350 1321 1285 1360 1336 1318 1336 1411 1367 1401 1450 1424 1448 1469 1391 1461 1477 1460 1484 1453 1477 1491 1492 1594 1529 1629 1578 1599 1593 1684 1652 1668 1637 1699 1820 1807 1937 1987 1960 2000 2251 2312 2379 2673 2968 3071 3373 3726 4158 4679 4997 5509 5918 6323 6671 6878 7033 6911 6981 6892 6884 6895 6869 6864 6753 6585 6447 6089 5890 5432 5037 4875 4477 4231 4085 3868 3693 3366 3177 2880 2847 2566 2469 2224 2211 2065 2010 1971 1888 1775 1762 1668 1692 1654 1600 1677 1584 1635 1557 1461 1432 1469 1538 1498 1438 1450 1441 1464 1458 1429 1394 1372 1425 1437 1421 1379 1370 1341 1366 1346 1355 1285 1384 1366 1371 1384 1406 1318 1353 1323 1454 1352 1323 1363 1359 1360 1372 1378 1336 1360 1348 1316 1379 1411 1344 1357 1436 1355 1367 1372 1391 1465 1414 1442 1370 1456 1509 1409 1446 1418 1522 1459 1449 1445 1441 1453 1442 1398 1403 1474 1446 1507 1428 1409 1435 1364 1415 1409 1433 1377 1423 1379 1326 1332 1404 1366 1399 1351 1267 1302 1354 1367 1323 1372 1333 1263 1241 1335 1317 1277 1308 1255 1328 1257 1358 1313 1378 1308 1278 1296 1360 1307 1265 1331 1262 1315 1256 1380 1292 1314 1241 1301 1284 1283 1287 1288 1301 1214 1296 1211 1218 1252 1307 1224 1303 1287 1244 1307 1293 1248 1289 1301 1321 1341 1372 1335 1282 1274 1296 1287 1317 1307 1278 1328 1230 1380 1303 1367 1374 1393 1436 1306 1348 1357 1425 1448 1415 1445 1486 1496 1488 1604 1711 1712 1772 1812 1866 1838 1858 1847 1882 1785 1943 1854 1853 1811 1902 1892 1803 1904 1854 1742 1689 1721 1699 1690 1682 1743 1542 1640 1568 1551 1541 1481 1454 1378 1411 1332 1384 1372 1309 1314 1296 1310 1287 1298 1310 1291 1305 1347 1241 1270 1288 1257 1221 1286 1272 1224 1328 1220 1226 1253 1149 1234 1231 1307 1195 1266 1215 1239 1234 1265 1211 1230 1175 1182 1247 1230 1303 1185 1255 1290 1233 1202 1217 1188 1225 1175 1173 1214 1185 1271 1238 1236 1225 1191 1218 1200 1244 1182 1208 1196 1248 1160 1228 1260 1288 1186 1221 1236 1194 1188 1181 1210 1226 1211 1208 1220 1283 1222 1168 1200 1236 1178 1240 1226 1216 1132 1148 1136 1197 1227 1265 1193 1261 1215 1245 1174 1263 1201 1212 1182 1188 1216 1263 1203 1272 1180 1203 1188 1206 1198 1184 1191 1209 1179 1244 1192 1251 1200 1264 1213 1241 1222 1145 1188 1197 1256 1204 1132 1160 1195 1226 1196 1247 1083 1222 1201 1165 1196 1192 1200 1185 1208 1225 1151 1207 1146 1212 1220 1153 1213 1286 1195 1159 1279 1218 1247 1246 1209 1275 1194 1183 1177 1225 1149 1212 1244 1173 1228 1232 1175 1273 1208 1192 1190 1246 1238 1200 1190 1257 1217 1205 1228 1201 1200 1199 1221 1217 1199 1207 1192 1268 1246 1188 1175 1195 1156 1211 1157 1145 1195 1165 1158 1131 1162 1209 1182 1126 1178 1161 1137 1202 1224 1206 1197 1241 1203 1139 1227 1218 1173 1191 1204 1106 1191 1197 1194 1182 1223 1173 1223 1250 1194 1197 1177 1178 1191 1241 1200 1223 1238 1143 1172 1211 1155 1214 1188 1205 1164 1142 1173 1149 1193 1151 1186 1202 1248 1207 1226 1177 1228 1210 1229 1199 1202 1177 1177 1201 1191 1209 1167 1251 1181 1266 1184 1157 1217 1171 1211 1142 1152 1197 1106 1153 1117 1152 1194 1164 1173 1232 1125 1213 1166 1232 1166 1156 1223 1168 1204 1193 1143 1184 1229 1143 1165 1202 1148 1168 1139 1157 1219 1227 1140 1173 1152 1183 1210 1236 1189 1151 1228 1153 1114 1197 1176 1147 1190 1145 1129 1208 1146 1178 1201 1195 1170 1166 1234 1117 1167 1094 1169 1181 1198 1245 1205 1142 1121 1194 1228 1226 1184 1225 1237 1180 1183 1137 1133 1183 1200 1166 1157 1131 1228 1197 1188 1167 1167 1193 1167 1186 1193 1138 1167 1141 1068 1182 1163 1132 1111 1145 1136 1109 1122 1138 1187 1215 1179 1138 1156 1176 1220 1245 1156 1178 1215 1103 1179 1107 1187 1111 1147 1132 1151 1132 1152 1150 1212 1219 1208 1183 1210 1191 1168 1148 1191 1145 1159 1209 1137 1160 1097 1225 1144 1142 1164 1162 1157 1232 1200 1247 1258 1167 1205 1183 1224 1233 1173 1181 1160 1205 1123 1091 1121 1158 1191 1157 1129 1178 1180 1249 1169 1172 1127 1195 1187 1140 1150 1210 1144 1180 1129 1142 1213 1186 1195 1212 1230 1272 1164 1206 1131 1211 1218 1156 1162 1139 1156 1188 1205 1184 1132 1206 1194 1208 1137 1207 1167 1106 1154 1163 1123 1115 1178 1165 1130 1172 1161 1179 1227 1162 1125 1210 1152 1204 1124 1226 1177 1160 1218 1168 1216 1174 1192 1181 1224 1212 1238 1191 1201 1221 1289 1295 1375 1393 1334 1324 1287 1321 1325 1378 1294 1278 1370 1298 1280 1299 1330 1245 1294 1312 1268 1245 1323 1265 1235 1218 1252 1235 1285 1194 1198 1240 1147 1247 1216 1222 1178 1169 1234 1272 1138 1167 1248 1203 1225 1165 1212 1234 1271 1246 1240 1226 1209 1275 1263 1250 1261 1290 1310 1322 1380 1386 1412 1466 1475 1594 1601 1653 1695 1709 1857 1822 1786 1822 1824 1796 1741 1848 1855 1800 1713 1755 1671 1769 1621 1614 1599 1680 1545 1596 1579 1559 1440 1457 1480 1459 1410 1301 1349 1404 1274 1293 1283 1232 1176 1191 1271 1193 1256 1207 1199 1159 1105 1213 1189 1235 1212 1234 1197 1232 1130 1204 1248 1147 1194 1175 1232 1199 1198 1206 1148 1235 1203 1167 1205 1200 1183 1167 1203 1163 1150 1164 1168 1211 1154 1244 1155 1162 1180 1172 1201 1193 1142 1176 1123 1163 1074 1132 1160 1170 1151 1163 1191 1157 1123 1144 1152 1214 1148 1215 1180 1196 1174 1172 1182 1205 1163 1178 1141 1184 1142 1131 1180 1166 1199 1188 1091 1150 1177 1214 1167 1162 1156 1103 1137 1155 1200 1236 1119 1188 1163 1166 1176 1119 1188 1198 1228 1173 1187 1151 1146 1179 1202 1127 1208 1123 1157 1173 1165 1217 1165 1153 1189 1165 1166 1097 1116 1159 1136 1090 1150 1127 1140 1094 1166 1125 1194 1138 1268 1180 1207 1152 1180 1133 1100 1129 1133 1170 1172 1112 1134 1093 1167 1201 1127 1174 1124 1182 1127 1147 1132 1112 1141 1160 1197 1142 1128 1171 1159 1222 1156 1179 1222 1120 1188 1223 1166 1228 1155 1166 1165 1195 1156 1117 1138 1160 1116 1181 1177 1172 1201 1214 1195 1134 1155 1147 1289 1121 1175 1174 1217 1195 1259 1198 1231 1208 1198 1188 1188 1175 1295 1315 1205 1274 1275 1293 1273 1306 1313 1342 1375 1440 1482 1465 1499 1591 1663 1775 1834 1970 2153 2265 2319 2302 2419 2519 2386 2505 2458 2460 2426 2411 2309 2285 2249 2244 2190 2176 2132 2162 2118 2130 2013 2010 1940 1886 1875 1828 1744 1750 1689 1674 1527 1540 1499 1419 1456 1436 1446 1359 1373 1268 1336 1302 1322 1221 1264 1320 1276 1261 1224 1282 1265 1269 1239 1230 1215 1245 1240 1204 1206 1177 1187 1214 1172 1133 1146 1232 1179 1163 1234 1150 1196 1176 1195 1201 1122 1138 1152 1153 1181 1164 1187 1157 1112 1205 1115 1187 1167 1160 1141 1190 1117 1151 1158 1213 1114 1108 1194 1157 1130 1095 1145 1129 1196 1143 1160 1147 1159 1197 1154 1161 1173 1126 1168 1135 1207 1115 1200 1199 1127 1198 1164 1120 1095 1140 1142 1163 1168 1111 1151 1164 1192 1172 1189 1183 1116 1135 1175 1134 1110 1130 1097 1145 1129 1094 1150 1149 1116 1141 1142 1117 1148 1118 1140 1155 1169 1149 1116 1176 1147 1175 1188 1206 1169 1159 1117 1050 1183 1113 1168 1152 1150 1181 1164 1118 1163 1101 1139 1182 1159 1148 1212 1201 1209 1231 1097 1275 1200 1328 1272 1292 1269 1341 1292 1390 1430 1451 1417 1416 1400 1480 1545 1494 1358 1415 1397 1365 1396 1393 1351 1373 1386 1295 1375 1335 1307 1357 1292 1292 1315 1214 1258 1323 1217 1258 1183 1256 1251 1214 1232 1237 1184 1163 1195 1212 1181 1192 1173 1169 1180 1109 1121 1127 1148 1143 1191 1207 1123 1087 1169 1136 1190 1122 1094 1166 1155 1175 1155 1147 1147 1104 1117 1210 1095 1107 1064 1111 1149 1086 1049 1121 1150 1149 1141 1135 1097 1116 1104 1097 1125 1115 1101 1116 1158 1089 1060 1067 1090 1093 1092 1109 1201 1117 1085 1083 1126 1093 1126 1110 1126 1149 1090 1113 1111 1087 1159 1123 1092 1080 1083 1047 1137 1092 1109 1148 1138 1120 1110 1102 1143 1141 1111 1132 1125 1068 1141 1129 1228 1113 1119 1129 1120 1169 1112 1105 1105 1110 1116 1135 1075 1126 1125 1126 1180 1097 1110 1044 1104 1153 1069 1075 1071 1131 1086 1121 1130 1101 1163 1101 1130 1092 1093 1174 1068 1059 1080 1106 1106 1125 1117 1160 1110 1095 1128 1149 1209 1094 1103 1172 1062 1109 1110 1183 1079 1120 1105 1063 1076 1099 1135 1110 1094 1127 1175 1114 1068 1070 1142 1112 1126 1127 1132 1135 1122 1114 1128 1156 1098 1180 1124 1160 1057 1084 1093 1128 1124 1112 1123 1098 1037 1164 1120 1107 1064 1074 1092 1165 1106 1127 1075 1059 1083 1048 1111 1138 1085 1123 1042 1139 1123 1112 1075 1148 1055 1163 1122 1076 1042 1113 1115 1083 1102 1093 1079 1089 1001 1112 1116 1144 1095 1090 1046 1022 1151 1109 1110 1082 1089 1147 1144 1113 1056 1128 1087 1104 1136 1073 1086 1073 1056 1132 1092 1095 1105 1128 1119 1052 1115 1149 1135 1038 1137 1070 1118 1035 1157 1080 1116 1097 1067 1056 1133 1136 1122 1059 1125 1097 1075 1064 1127 1126 1215 1120 1121 1161 1090 1064 1099 1129 1114 1062 1090 1170 1049 1091 1046 1146 1102 1113 1029 1090 1093 1103 1039 1110 1126 1163 1122 1035 1095 1072 1106 1092 1107 1110 1144 1122 1081 1096 1040 1121 1073 1097 1037 1053 1091 1047 1069 1099 1073 1099 1114 1058 1087 1114 1031 1097 1123 1105 1067 1118 1098 1087 1085 1114 1060 1008 1103 1073 1126 1082 1076 1036 1116 1054 1074 1196 1106 1056 1112 1020 1098 1131 1092 1043 1038 1112 1088 1070 1037 1097 1123 1141 1107 1112 1170 1076 1054 1054 1110 1036 1046 1074 1097 1089 1068 1080 1068 1052 1030 1075 1090 1084 1031 1119 1080 1086 1094 1115 1087 1094 1061 1037 1097 1083 1137 1053 1060 1073 1055 1095 1113 1050 1031 1136 1078 1066 1097 1080 1076 1074 1162 1074 1171 1052 1137 1041 1095 1093 1085 1081 1137 1059 1117 1082 1072 1054 1088 1068 1069 1031 1064 1117 1103 1189 1164 1134 1155 1158 1065 1062 1115 1124 1187 1096 1117 1183 1216 1227 1175 1194 1219 1292 1244 1193 1229 1321 1275 1324 1289 1228 1273 1276 1210 1192 1248 1268 1186 1220 1211 1244 1209 1228 1183 1187 1127 1162 1224 1129 1160 1135 1130 1126 1172 1079 1091 1121 1105 1091 1119 1143 1142 1145 1131 1061 1114 1108 1083 1190 1146 1076 1082 1072 1077 1089 1135 1149 1082 1106 1100 1107 1070 1187 1084 1135 1093 1093 1138 1062 1068 1099 1091 1119 1147 1068 1085 1078 1090 1004 1118 1141 1100 1050 1084 1091 1118 1088 1080 1108 1095 1121 1105 1112 1093 1117 1077 1110 1156 1097 1106 1122 1109 1086 1086 1083 1154 1107 1081 1123 1110 1104 1085 1121 1132 1103 1084 1078 1069 1085 1021 1058 1047 1085 1107 1128 1141 1129 1043 1046 1068 1087 1028 1056 1038 1109 1066 1141 1081 1126 1084 1100 1043 1046 1029 1092 1080 1138 1100 1073 1091 1120 1022 1095 1103 1113 1097 1085 1014 1086 1108 1097 1054 1132 1131 1091 1127 1083 1051 1043 1139 1040 1108 1092 1100 1059 1113 1067 1033 1086 1042 1114 1102 1047 1115 1032 1065 1027 1115 1041 1060 1035 1056 1100 1078 1076 1151 1028 1066 1065 1143 1121 1126 1112 1072 1067 1141 1109 1122 1007 1105 1065 1115 1061 1141 1063 1101 1101 1197 1226 1076 1106 1123 1029 1082 1132 1028 1125 1071 1058 1120 1078 1077 1102 1106 1048 1018 1110 1102 1112 1135 1099 1083 1102 1083 1091 1101 1066 1090 1066 1100 1137 1098 1103 1121 1048 1101 1082 1168 1108 1103 1126 1096 1067 1101 1049 1132 1105 1097 1066 1140 1078 1106 1101 1147 1182 1091 1128 1114 1122 1102 1193 1141 1067 1153 1152 1194 1173 1177 1232 1177 1190 1160 1196 1278 1217 1274 1215 1364 1288 1401 1409 1469 1511 1506 1590 1573 1615 1594 1569 1569 1523 1538 1527 1511 1579 1517 1459 1478 1502 1525 1424 1464 1468 1441 1486 1429 1481 1395 1383 1305 1408 1265 1238 1331 1283 1280 1265 1234 1242 1200 1261 1149 1201 1254 1123 1186 1120 1211 1105 1126 1124 1071 1181 1164 1118 1093 1103 1133 1123 1069 1151 1104 1086 1120 1165 1126 1141 1077 1076 1104 1089 1102 1104 1130 1135 1107 1080 1177 1081 1059 1074 1103 1111 1204 1104 1139 1153 1074 1081 1132 1077 1151 1109 1186 1094 1101 1097 1103 1176 1178 1117 1131 1151 1091 1181 1133 1146 1104 1175 1114 1131 1110 1053 1131 1090 1117 1135 1087 1107 1067 1120 1083 1118 1102 1178 1039 1147 1128 1103 1114 1045 1106 1086 1112 1161 1174 1035 1076 1103 1073 1084 1090 1086 1080 1054 1069 1088 1017 1126 1068 1059 1132 1056 1095 1107 1108 1126 1053 1126 1062 1052 1114 1160 1084 1023 1092 1115 1111 1042 1064 1082 1116 1032 1112 1071 1076 1068 1052 1021 1165 1067 1111 1160 1119 1092 1031 1027 1105 1072 1044 1101 1106 1045 1086 1100 1067 1055 1008 1024 1045 1016 1105 1083 1045 1119 1141 1068 1057 1066 1108 999 1063 1073 1039 1061 1046 1068 1105 1082 1061 1005 1095 1065 1071 1108 1082 1101 1063 1076 1058 1087 1046 1036 1096 1164 1089 1033 1089 1097 1051 1042 1065 1043 1060 1152 1073 1092 1068 1085 1096 1066 1106 1109 1089 1068 1106 1041 1060 1057 1094 1118 1074 1143 1025 1037 1061 1079 1084 1059 1077 1034 1072 1089 1090 1013 1079 1083 1070 992 1092 1092 1121 1058 1091 1011 1081 1099 1065 1044 1107 1066 1080 1025 1012 1115 1067 1069 1086 1076 1003 1114 1072 1060 1025 1110 1134 1097 1075 994 1082 1134 1106 1053 1084 1059 1101 1124 1069 1051 1076 1051 1046 1074 1069 1103 1081 1116 1117 983 1045 1058 1023 1084 1099 1080 1026 1071 1038 1027 1103 1112 1082 1080 1107 1022 1061 1108 1042 1093 1097 1060 1093 1091 1108 1083 1143 1057 1089 1012 1044 1132 1086 1143 1048 1051 1067 1119 1085 1109 1054 1068 1109 1029 1072 1111 1092 1058 1061 1034 1078 1071 1045 1076 1033 1074 1017 1138 1090 1079 1108 969 1147 1054 1077 1087 1112 1050 1013 1032 1050 1068 1057 1147 1156 1048 1027 1074 1109 1092 1076 1063 1157 1059 1051 1067 1056 1080 1033 1124 1130 1051 1081 1117 1047 1094 1130 1030 1074 1058 1043 1056 1109 1056 1022 1054 1065 1063 1143 1100 1138 989 1176 1094 1021 1096 1067 1045 1097 1112 1024 1078 1073 1071 1096 1037 1128 1067 1109 1051 1050 1050 1082 1067 1034 1087 1075 1129 1129 1032 1103 1095 1104 1139 1099 1085 1090 1024 1126 1041 1072 1114 1057 1078 1128 1125 1009 1044 1142 965 1083 1091 1067 1118 1096 1108 1079 1035 1056 1010 1043 1068 1059 1061 1113 1082 1073 1071 1090 1022 1086 1081 1097 1118 1023 1015 1075 1061 1137 1090 1083 1037 1098 1077 1030 1087 1130 1096 1099 1128 1053 1086 1134 1097 1078 1080 1079 1100 1016 1062 1055 1126 1064 1082 1052 1124 1059 1017 1053 1127 1112 1022 1058 1161 1120 1105 1036 1046 1035 1000 1070 1111 1100 1073 1115 1114 1048 1064 1114 1082 1066 1052 1076 1063 1103 1066 1071 1086 1034 1164 1110 1138 1147 1104 1075 1101 1044 1089 1045 1000 1133 1122 1092 1092 1096 1106 1017 1139 1016 1093 1096 1068 1100 1099 1075 1030 1061 1067 1102 1065 1107 1062 1031 1130 1134 1047 1075 1102 1132 1103 1058 1084 1079 1139 1114 1115 1095 1092 1102 1129 1087 1127 1132 1051 1134 1132 1106 1087 1158 1144 1172 1101 1127 1179 1126 1165 1137 1196 1134 1210 1274 1199 1179 1241 1280 1232 1211 1198 1215 1277 1226 1247 1209 1169 1178 1160 1176 1208 1136 1210 1172 1199 1191 1155 1168 1118 1201 1175 1171 1176 1195 1139 1118 1203 1168 1121 1210 1153 1142 1201 1066 1137 1196 1162 1090 1117 1180 1152 1101 1175 1150 1194 1178 1227 1169 1239 1250 1226 1206 1280 1276 1232 1304 1353 1267 1341 1318 1226 1225 1215 1225 1163 1186 1272 1250 1167 1224 1178 1163 1226 1184 1200 1197 1139 1186 1237 1208 1229 1151 1164 1167 1177 1185 1131 1142 1164 1140 1135 1166 1115 1086 1152 1151 1118 1081 1069 1099 1090 1098 1160 1088 1078 1082 1125 1089 1066 1150 1078 1071 1108 1076 1094 1138 1055 1103 1150 1148 1142 1046 1086 1105 1166 1101 1104 1110 1089 1070 1126 1134 1109 1055 1085 1028 1052 1070 1065 1094 1125 1007 1086 1120 1076 1086 1051 1044 1058 1079 1076 1105 1128 1037 1124 1117 1088 1149 1124 1096 1093 1130 1117 1105 1094 1108 1029 1097 1090 1167 1116 1068 1033 1022 1065 1076 1102 1087 1085 1107 1060 1084 1123 1122 1125 1105 1169 1079 1068 1122 1145 1118 1143 1134 1129 1127 1126 1124 1155 1125 1111 1066 1153 1133 1056 1098 1128 1078 1132 1164 1162 1062 1145 1122 1099 1098 1102 1096 1089 1088 1110 1083 1128 1109 1197 1031 1114 1146 1134 1151 1149 1147 1115 1112 1123 1116 1141 1187 1188 1078 1137 1173 1147 1100 1142 1130 1141 1132 1152 1155 1193 1210 1230 1139 1235 1235 1196 1192 1286 1229 1239 1230 1263 1233 1295 1289 1347 1347 1366 1345 1389 1421 1453 1545 1566 1664 1654 1783 1736 1887 1964 2150 2111 2151 2214 2174 2182 2091 2100 2222 2107 2029 1964 1948 2015 1812 1794 1752 1810 1846 1772 1730 1727 1848 1781 1793 1784 1782 1792 1789 1729 1765 1742 1676 1574 1601 1620 1422 1464 1474 1463 1392 1342 1303 1370 1272 1308 1266 1243 1244 1222 1185 1188 1253 1238 1168 1186 1198 1224 1195 1220 1171 1106 1143 1168 1196 1148 1156 1189 1113 1141 1099 1217 1114 1137 1110 1176 1117 1146 1157 1154 1111 1158 1142 1070 1115 1124 1179 1159 1079 1097 1120 1137 1132 1135 1135 1122 1058 1119 1070 1111 1103 1103 1063 1077 1133 1070 1153 1119 1095 1070 1092 1139 1088 1101 1054 1084 1084 1134 1088 1072 1096 1053 1041 1136 1155 1074 1087 1123 1103 1120 1094 1135 1114 1094 1159 1117 1134 1101 1143 1131 1118 1113 1174 1100 1108 1104 1178 1066 1097 1200 1101 1141 1121 1166 1090 1131 1121 1143 1145 1122 1113 1149 1140 1134 1090 1154 1149 1184 1175 1219 1241 1262 1149 1248 1183 1208 1272 1193 1113 1250 1198 1229 1201 1273 1112 1216 1192 1250 1184 1183 1221 1173 1216 1212 1216 1252 1199 1178 1158 1218 1243 1213 1229 1221 1209 1201 1200 1200 1183 1173 1128 1129 1098 1163 1050 1113 1145 1120 1186 1136 1131 1145 1082 1153 1080 1187 1136 1111 1089 1151 1134 1070 1113 1098 1078 1156 1015 1124 1118 1139 1093 1059 1104 1095 1133 1107 1133 1148 1096 1125 1120 1098 1141 1107 1141 1099 1078 1097 1041 1044 1042 1131 1105 1131 1094 1111 1095 1075 1061 1143 1079 1119 1067 1090 1095 1059 1104 1100 1087 1130 1055 1063 1064 1063 1089 1066 1076 1092 1138 1111 1105 1093 1099 1060 1115 1094 1060 1079 1062 1056 1066 1098 1080 1048 1070 1070 1113 1087 1094 1085 1067 1013 1086 1068 1078 1078 1084 1080 1095 1104 1101 1075 1095 1140 1073 1046 1103 1122 1107 1074 1005 1111 1042 1070 1089 1067 1041 1126 1043 1090 1096 1065 1107 1086 1073 1112 1066 1066 1135 1109 1129 1117 1042 1071 1075 1053 1113 1029 1050 1006 1084 986 1088 1055 1096 1119 1134 1042 1102 1120 1147 1094 1099 1049 1093 1055 1084 1031 1078 1114 1053 1091 1111 1084 1111 1012 1121 1109 1100 1072 1048 1035 1162 1092 1044 1067 1071 1051 1063 1094 1087 1061 1108 1044 1067 1046 1122 1032 1094 1090 1034 1134 1095 1080 1057 1055 1028 1028 1072 1101 1119 1099 1101 1097 1053 1105 1027 1041 1084 1071 1132 1086 1107 1085 1080 1046 1113 1108 1105 1083 1090 1062 1034 1079 1051 1086 1064 1095 1063 1077 1121 1042 1027 1062 1094 1074 1089 1039 1033 1097 1141 1117 1045 1065 1011 1102 1030 1081 1071 1049 1154 1106 1057 1054 1108 1034 1044 1079 1048 1055 1018 1102 1105 1087 1057 1088 1108 1046 1050 1086 1083 1021 1041 1111 1059 1078 1030 1063 1123 1063 1067 1026 1061 1101 1079 1062 1082 1056 1040 1121 1128 1058 1057 997 1063 1110 1084 1071 1084 1123 1087 1018 1077 1074 973 1021 1044 1118 1137 1050 1068 1083 1028 1038 1053 1110 1088 1039 1089 1068 1070 1009 1108 1052 1141 991 1135 1067 1074 1036 1067 1039 1091 1029 1041 1073 1049 1028 1133 1128 1027 1076 1092 1061 1042 1130 1090 1079 1044 1092 1063 1079 1067 1053 1016 1058 1109 1083 1089 1122 1099 1063 1071 1095 1074 1101 1075 1100 1080 1104 1141 1116 1116 1146 1075 1130 1127 1088 1080 1105 1080 1026 1052 1080 1076 1059 1144 1104 1145 1089 1079 1090 1075 1074 1086 1119 1085 1134 1124 1165 1146 1086 1170 1176 1213 1180 1070 1220 1142 1191 1184 1154 1130 1171 1180 1189 1213 1155 1174 1167 1192 1125 1122 1108 1170 1176 1005 1107 1149 1105 1160 1185 1107 1097 1103 1179 1145 1080 1108 1178 1208 1101 1099 1112 1135 1141 1084 1052 1119 1091 1072 1127 1105 1096 1148 1064 1079 1073 1123 1010 1062 1067 1089 1114 1069 1089 1087 1067 1116 1039 1116 1093 1055 1051 1092 1098 1119 1080 1160 1071 1105 1107 1064 1070 1067 1135 1103 1101 1073 1077 1087 1093 1073 1037 1127 1066 1076 1108 1015 1141 1035 1091 1063 1058 1104 1091 1035 994 1047 1071 1084 1131 1089 1106 1123 1006 1077 1084 1070 1068 1086 1070 1051 1063 1054 1099 1069 1111 1081 1098 1103 1067 1058 1092 1080 1087 1085 1024 1090 1066 1008 1029 1118 1076 1074 1110 1078 1011 1067 1064 1100 1058 1061 1097 1087 1067 1083 1111 1063 1019 1119 1060 1061 1044 1073 1074 1139 1067 1114 1088 1085 1040 1070 1094 1059 1050 1035 1115 1057 1086 1085 1048 1071 1002 1126 1134 1086 1036 1058 1117 1113 1105 1061 1066 1097 1123 1016 1075 1047 1035 1085 1092 1068 1072 1057 1093 1132 1041 1102 1122 1077 1096 1117 1077 1131 1136 1105 1095 1078 1030 1084 1096 1168 1073 1145 1111 1059 1084 1142 1092 1150 1102 1071 1059 1114 1109 1095 1040 1065 1089 1161 1065 1190 1088 1140 1124 1133 1130 1095 1062 1167 1152 1128 1071 1163 1079 1069 1157 1163 1157 1123 1162 1102 1189 1066 1123 1086 1178 1105 1171 1140 1178 1171 1132 1225 1223 1216 1253 1238 1286 1375 1321 1370 1338 1474 1506 1495 1559 1600 1760 1753 1666 1781 1886 1855 1810 1811 1854 1889 1833 1790 1766 1676 1618 1552 1588 1538 1512 1427 1442 1439 1480 1469 1484 1497 1510 1527 1567 1490 1502 1582 1579 1559 1516 1502 1470 1488 1465 1358 1481 1379 1312 1268 1293 1285 1294 1283 1173 1304 1229 1192 1204 1198 1134 1183 1206 1145 1111 1161 1170 1181 1184 1171 1139 1155 1141 1175 1091 1078 1125 1151 1148 1101 1163 1123 1109 1150 1171 1114 1152 1157 1117 1189 1152 1028 1049 1123 1116 1155 1080 1127 1138 1070 1109 1104 1090 1128 1107 1145 1094 1108 1093 1100 1141 1147 1089 1102 1037 1100 1083 1112 1090 1131 1137 1120 1108 1091 1129 1113 1117 1054 1099 1017 1132 1095 1104 1076 1027 1107 1036 1124 1095 1094 1099 1109 1131 1101 1118 1059 1026 1114 1057 1065 1059 1068 1118 1126 1086 1091 1126 1123 1073 996 1118 1040 1107 1108 1041 1112 1033 1062 1121 1052 1059 1059 1128 1089 1177 1061 1083 1134 1093 1124 1130 1161 1182 1191 1166 1106 1060 1164 1113 1058 1128 1168 1069 1090 1080 1077 1119 1090 1202 1120 1061 1120 1047 1069 1079 1179 1174 1125 1150 1107 1095 1131 1121 1105 1102 1154 1070 1065 1063 1074 1118 1144 1064 1116 1059 1091 1096 1067 1136 1085 1036 1140 1018 1077 1095 1067 1083 1094 1096 1084 1071 1042 1127 1104 1050 1028 1080 1072 1106 1076 1098 1147 1028 1106 1114 1040 1096 1034 1125 1053 1066 1055 1065 1017 1062 1040 974 1070 1035 1123 1074 1089 1019 1044 1108 1061 1080 1006 1090 1072 1014 1106 1092 1049 1104 1039 1115 1087 1031 1056 1029 1106 1022 1070 1049 1130 1038 1122 1056 1054 1043 1123 1064 1081 1028 994 1085 1016 1063 1050 1034 1055 1033 1063 1092 1089 1074 1066 1057 1066 1057 1084 1055 1126 1036 1050 1050 1087 1019 1028 1053 1066 1031 1079 1079 1078 1095 1007 1096 1109 1072 1068 1111 1054 1123 1108 1084 1025 1061 1064 1078 1073 1055 1067 1041 1086 1025 1062 1012 1095 1064 1091 1121 1087 1084 1011 1054 1053 1065 1057 1092 1066 1073 1028 1043 1065 1132 1048 1072 1114 1001 1102 1049 1059 1091 1071 1041 1017 1033 1060 1063 1105 1023 1097 1048 1038 999 1112 1051 1084 1048 1050 1020 1101 1094 1049 1064 972 1033 1146 1045 1083 1107 1081 1084 1064 1114 1088 1082 1070 1061 1069 1098 1007 1029 1016 1096 1002 1060 1131 1051 1057 1021 1035 1030 984 1059 1061 1132 1054 1061 1055 1062 1109 1078 1035 1060 1042 1072 1044 1066 1074 1044 1112 1107 1022 1065 1105 1093 1091 1049 1029 1066 1112 1074 1012 1081 1065 1065 1030 1076 1094 1050 1097 1097 1037 1032 1062 1044 1009 1068 1086 1029 1046 1077 1048 1086 1034 1076 1112 1004 1074 1046 1031 1121 1068 1073 1125 1039 1028 1068 1093 1073 1031 1073 1045 1111 1053 1066 1033 1066 1027 1045 1069 1099 1018 1120 1084 1084 1052 1086 1154 1021 1019 1097 1073 1084 1061 1024 1008 1007 1058 1110 1106 1039 1011 1063 1114 1073 1110 1043 1080 1099 1113 1118 1042 1065 1038 1072 1073 1113 1059 1061 1029 1028 1027 1067 1043 1036 1082 1102 1060 1052 1043 1068 1041 1073 1072 1046 1118 1055 1075 1065 1076 1107 1040 1136 1025 1015 1097 1102 1070 1000 1026 1040 1084 1048 1113 1149 1068 1086 1148 1105 1065 1077 1096 1088 1028 1023 1055 1109 1127 1124 1094 1093 1112 1078 1092 1080 1154 1132 1061 1129 1117 1076 1065 1089 1115 1097 1089 1079 1043 1186 1087 1121 1083 1114 1123 1169 1202 1173 1087 1151 1157 1178 1172 1238 1228 1258 1207 1254 1222 1237 1215 1208 1184 1177 1230 1219 1195 1182 1215 1133 1158 1127 1118 1138 1146 1164 1140 1188 1253 1159 1175 1173 1212 1193 1258 1160 1227 1155 1184 1179 1152 1175 1165 1093 1155 1130 1159 1154 1193 1157 1138 1056 1200 1112 1168 1157 1175 1179 1117 1192 1190 1205 1181 1149 1199 1227 1151 1217 1251 1178 1199 1181 1165 1166 1162 1152 1162 1080 1138 1161 1156 1155 1114 1167 1118 1160 1168 1134 1138 1077 1097 1147 1152 1101 1107 1092 1077 1162 1076 1117 1063 1093 1223 1066 1064 1111 1094 1089 1112 1125 1093 1068 1101 1043 1118 1119 1073 1127 1060</counts>
			</dataPoints>
		</scan>
	</xrdMeasurement>
</xrdMeasurements>
