<?xml version="1.0"?>
<xrdMeasurements xmlns="http://www.xrdml.com/XRDMeasurement/2.3" xmlns:xsi="http://www.w3.org/2001/XMLSchema-instance" xsi:schemaLocation="http://www.xrdml.com/XRDMeasurement/2.3 http://www.xrdml.com/XRDMeasurement/2.3/XRDMeasurement.xsd" status="Completed" recordIdentifier="{74887896-FBC2-4C67-95B3-646122D2584D}">
	<comment>
		<entry/>
	</comment>
	<sample type="To be analyzed">
		<id>GPSS_Li1p6In0p1Mn0p8Ta0p1Cl4_110825_690fcd71f040177efa2b8c4e</id>
		<name></name>
		<preparedBy></preparedBy>
	</sample>
	<xrdMeasurement measurementType="Scan" status="Completed" sampleMode="Reflection">
		<usedWavelength intended="K-Alpha 1">
			<kAlpha1 unit="Angstrom">1.5405980</kAlpha1>
			<kAlpha2 unit="Angstrom">1.5444260</kAlpha2>
			<kBeta unit="Angstrom">1.3922500</kBeta>
			<ratioKAlpha2KAlpha1>0.5000</ratioKAlpha2KAlpha1>
		</usedWavelength>
		<incidentBeamPath>
			<radius unit="mm">145.00</radius>
			<xRayTube id="1010048" name="Empyrean Cu LFF HR (9430 033 7310x)">
				<tension unit="kV">40.0</tension>
				<current unit="mA">15.0</current>
				<anodeMaterial>Cu</anodeMaterial>
				<focus type="Line">
					<length unit="mm">12.0</length>
					<width unit="mm">0.4</width>
					<takeOffAngle unit="deg">6.0</takeOffAngle>
				</focus>
			</xRayTube>
			<sollerSlit id="21010002" name="Soller slits 0.04 rad.">
				<opening unit="rad">0.0400</opening>
			</sollerSlit>
			<mask id="22031000" name="Fixed mask 13 mm">
				<width unit="mm">9.00</width>
			</mask>
			<divergenceSlit id="22120001" name="Divergence slit 1°" xsi:type="fixedDivergenceSlitType">
				<distanceToSample unit="mm">50.00</distanceToSample>
				<height unit="mm">1.52</height>
			</divergenceSlit>
		</incidentBeamPath>
		<sampleMovement xsi:type="spinningSampleMovementType">
			<spinnerRevolutionTime unit="seconds">1.0</spinnerRevolutionTime>
		</sampleMovement>
		<diffractedBeamPath>
			<radius unit="mm">145.00</radius>
			<antiScatterSlit id="22090040" name="AS slit 9 mm (PIXcel)" xsi:type="fixedAntiScatterSlitType">
				<height unit="mm">9.00</height>
			</antiScatterSlit>
			<sollerSlit id="21020003" name="Large Soller slits 0.04 rad.">
				<opening unit="rad">0.0400</opening>
			</sollerSlit>
			<filter id="20030001" name="Large beta-filter Nickel">
				<material>Ni</material>
				<thickness unit="mm">0.020</thickness>
			</filter>
			<detector id="7010019" name="PIXcel1D-Medipix3 detector" xsi:type="rtmsDetectorType">
				<phd unit="keV">
					<lowerLevel>4.02</lowerLevel>
					<upperLevel>11.27</upperLevel>
				</phd>
				<mode>Scanning</mode>
				<activeLength unit="deg">5.542</activeLength>
			</detector>
		</diffractedBeamPath>
		<scan appendNumber="0" mode="Continuous" scanAxis="Gonio" status="Completed">
			<header>
				<startTimeStamp>2025-11-11T15:23:48-08:00</startTimeStamp>
				<endTimeStamp>2025-11-11T15:31:55-08:00</endTimeStamp>
				<author>
					<name>AutomatedUser</name>
				</author>
				<source>
					<applicationSoftware version="1.7b (136)">PANalytical Aeris Instrument Suite</applicationSoftware>
					<instrumentControlSoftware version="3.2.00000000 20240306">AERIS</instrumentControlSoftware>
					<instrumentID>950485</instrumentID>
				</source>
			</header>
			<dataPoints>
				<positions axis="2Theta" unit="deg">
					<startPosition>10.00943322</startPosition>
					<endPosition>99.99442286</endPosition>
				</positions>
				<positions axis="Omega" unit="deg">
					<startPosition>5.00471661</startPosition>
					<endPosition>49.99721143</endPosition>
				</positions>
				<commonCountingTime unit="seconds">12.495</commonCountingTime>
				<counts unit="counts">2589 2785 2571 2652 2695 2651 2733 2710 2640 2703 2745 2703 2636 2624 2566 2665 2674 2677 2682 2770 2637 2599 2661 2616 2634 2700 2607 2708 2667 2788 2698 2707 2709 2759 2651 2656 2673 2735 2655 2656 2582 2588 2548 2652 2728 2654 2785 2575 2601 2757 2777 2676 2727 2745 2642 2759 2683 2718 2705 2746 2747 2745 2647 2568 2575 2732 2728 2724 2694 2758 2668 2744 2724 2722 2676 2786 2758 2840 2770 2816 2841 2782 2665 2762 2685 2725 2726 2622 2722 2756 2663 2785 2746 2686 2828 2808 2734 2751 2614 2793 2724 2733 2707 2725 2758 2757 2694 2783 2752 2674 2607 2661 2712 2765 2700 2799 2728 2724 2690 2725 2675 2685 2821 2724 2721 2708 2702 2711 2875 2706 2850 2772 2780 2728 2756 2723 2720 2712 2704 2786 2596 2741 2638 2624 2713 2748 2826 2723 2802 2677 2704 2725 2798 2663 2710 2682 2698 2730 2837 2715 2759 2705 2721 2745 2750 2677 2845 2813 2800 2705 2754 2793 2722 2776 2679 2628 2654 2748 2593 2720 2877 2850 2833 2659 2677 2653 2684 2650 2761 2808 2726 2809 2779 2696 2664 2679 2666 2735 2686 2742 2687 2666 2588 2622 2665 2664 2656 2679 2700 2707 2692 2753 2712 2730 2689 2678 2756 2780 2598 2661 2663 2772 2818 2791 2748 2672 2687 2683 2676 2691 2730 2646 2615 2742 2719 2672 2673 2698 2681 2595 2695 2607 2632 2686 2540 2688 2685 2652 2674 2697 2613 2730 2591 2689 2745 2654 2650 2607 2620 2677 2671 2548 2727 2623 2623 2700 2723 2694 2606 2672 2678 2647 2714 2714 2601 2620 2650 2660 2699 2693 2644 2682 2740 2686 2713 2624 2729 2589 2633 2696 2616 2653 2824 2665 2686 2657 2707 2770 2722 2702 2831 2762 2730 2795 2622 2759 2781 2639 2716 2624 2717 2707 2770 2689 2757 2807 2746 2705 2804 2759 2756 2842 2741 2813 2885 2732 2751 2725 2773 2825 2773 2817 2818 2818 2829 2832 2841 2770 2797 2871 2928 2822 2870 2799 2841 2884 2832 2778 2863 2829 2796 2942 2967 2920 2925 2794 2921 2881 2974 2967 2989 2956 2976 2938 2964 2972 3024 2999 3026 3035 2964 3067 3064 2996 3053 3079 3147 3096 3001 3093 3113 3153 3147 3161 3210 3128 3266 3146 3236 3202 3250 3082 3276 3309 3369 3427 3451 3314 3454 3439 3500 3582 3773 3740 3731 3627 3869 3883 4045 4014 3966 3916 3861 3898 3926 3902 3852 3806 3798 3822 3848 3821 3807 3754 3730 3796 3765 3811 3896 3868 3928 3900 3863 3938 3740 3894 3910 3880 3893 3943 3947 3989 3904 3959 3902 3969 3953 4086 4114 4032 4167 4096 4342 4126 4166 4178 4169 4100 4197 4130 4111 4039 4068 4058 4067 3951 3919 3822 3821 3813 3974 3839 3940 3870 3835 3808 3804 3668 3822 3564 3689 3539 3528 3695 3607 3584 3481 3538 3428 3557 3500 3467 3441 3384 3490 3425 3460 3477 3486 3308 3394 3398 3353 3368 3321 3317 3355 3386 3405 3340 3234 3373 3225 3297 3293 3296 3246 3275 3220 3298 3212 3188 3214 3168 3158 3171 3168 3048 3112 3214 3164 3088 3063 3081 2990 3142 3102 3047 3034 2961 3014 3064 3027 3058 3009 3046 3046 2985 3009 3021 2948 2913 3093 2869 3040 3084 2964 3040 3010 3007 2987 2982 2982 2988 2878 2978 2931 2930 2896 2986 3032 2900 2978 2905 2889 2973 2897 2918 2936 2993 2940 2874 2905 2846 2850 2883 2877 2963 2838 2880 2874 2891 2948 2775 2933 2836 2837 2809 2852 2795 2825 2794 2888 2781 2877 2839 2852 2787 2815 2916 2837 2829 2778 2813 2870 2808 2841 2835 2853 2690 2671 2781 2822 2807 2892 2803 2753 2664 2796 2726 2769 2756 2820 2846 2650 2720 2797 2814 2739 2856 2778 2916 2826 2966 2891 2918 2936 2877 2913 2891 2776 2905 2794 2892 2722 2782 2778 2790 2731 2750 2740 2683 2728 2878 2669 2721 2797 2839 2722 2649 2772 2848 2717 2847 2715 2730 2709 2583 2759 2708 2712 2670 2843 2666 2771 2661 2720 2786 2712 2718 2714 2711 2714 2754 2746 2819 2638 2595 2696 2690 2633 2799 2747 2612 2755 2798 2748 2780 2659 2625 2753 2727 2820 2739 2738 2672 2681 2771 2728 2605 2678 2728 2651 2759 2607 2634 2740 2692 2718 2670 2597 2714 2724 2641 2664 2641 2677 2562 2744 2730 2714 2715 2687 2653 2742 2657 2620 2661 2688 2623 2641 2702 2686 2788 2675 2685 2624 2750 2671 2644 2666 2653 2623 2630 2654 2668 2638 2643 2637 2587 2610 2574 2698 2574 2706 2652 2595 2624 2639 2664 2515 2675 2657 2556 2687 2588 2660 2596 2552 2711 2544 2692 2585 2648 2770 2552 2672 2579 2561 2532 2573 2646 2674 2601 2606 2688 2582 2652 2633 2622 2527 2574 2486 2579 2629 2617 2554 2566 2649 2627 2631 2640 2569 2583 2640 2615 2594 2634 2512 2580 2521 2596 2658 2571 2597 2508 2549 2583 2520 2506 2550 2638 2590 2582 2637 2605 2567 2511 2614 2519 2590 2583 2480 2481 2537 2521 2530 2584 2454 2630 2595 2557 2595 2572 2562 2552 2570 2593 2439 2549 2600 2630 2623 2492 2601 2512 2529 2521 2480 2582 2495 2506 2509 2554 2491 2511 2544 2408 2427 2573 2462 2476 2489 2489 2550 2384 2512 2421 2416 2400 2502 2484 2574 2645 2505 2563 2499 2476 2485 2451 2490 2430 2481 2389 2534 2431 2474 2459 2522 2444 2452 2377 2453 2551 2449 2476 2462 2494 2440 2450 2446 2404 2425 2509 2506 2487 2576 2473 2443 2489 2428 2498 2479 2426 2445 2474 2484 2411 2502 2442 2422 2434 2416 2426 2300 2506 2487 2441 2426 2430 2468 2383 2422 2393 2459 2484 2533 2401 2408 2472 2420 2507 2395 2356 2404 2383 2411 2410 2361 2320 2351 2408 2483 2458 2434 2507 2535 2475 2526 2454 2361 2393 2363 2494 2411 2375 2401 2361 2469 2428 2406 2419 2407 2497 2449 2383 2445 2366 2345 2395 2360 2398 2285 2416 2418 2386 2393 2440 2347 2400 2432 2492 2333 2317 2452 2423 2387 2501 2360 2419 2446 2324 2365 2408 2409 2337 2412 2410 2271 2409 2495 2440 2506 2441 2337 2369 2458 2443 2358 2503 2472 2350 2470 2461 2400 2438 2430 2395 2508 2403 2375 2409 2447 2386 2465 2463 2448 2428 2471 2530 2464 2418 2364 2530 2381 2506 2456 2494 2470 2414 2438 2405 2424 2483 2528 2357 2447 2413 2353 2402 2405 2382 2518 2414 2461 2422 2369 2515 2501 2467 2473 2429 2340 2370 2419 2466 2387 2457 2360 2442 2428 2358 2427 2304 2366 2401 2378 2415 2375 2406 2443 2419 2372 2419 2369 2361 2486 2405 2357 2388 2386 2279 2371 2392 2377 2389 2324 2426 2441 2342 2368 2338 2442 2450 2378 2393 2370 2307 2315 2310 2314 2348 2344 2323 2333 2323 2312 2309 2304 2329 2448 2310 2260 2286 2281 2303 2316 2253 2296 2302 2350 2240 2247 2270 2338 2139 2287 2306 2167 2256 2159 2243 2242 2222 2193 2211 2207 2298 2158 2213 2222 2324 2254 2213 2208 2301 2138 2202 2204 2213 2158 2258 2130 2154 2139 2176 2038 2189 2119 2128 2231 2158 2089 2093 2117 2057 2162 2134 2042 2145 2222 2094 2150 2068 2217 2080 2062 2072 2040 2056 1987 2075 2058 1988 2123 2067 2191 2064 2094 2037 2122 2209 1983 2059 2035 2061 2034 2000 1990 2020 2088 2001 2040 2019 1936 2057 2123 2040 1965 1974 2018 2031 1977 1962 2005 1985 1910 2000 1995 2009 1890 2046 2032 2014 1950 1944 1958 1945 1999 2040 1965 1935 1937 2062 1909 1962 1987 1929 1901 1881 1947 1918 1934 1966 1879 1928 1896 1947 1887 1912 1943 1911 1938 1932 1914 1806 1901 1879 1896 1891 1836 1878 1894 1857 1885 1896 1894 1813 1844 1825 1868 1798 1873 1847 1850 1949 1865 1896 1878 1861 1804 1850 1884 1884 1795 1798 1769 1946 1882 1871 1892 1936 1821 1839 1883 1815 1788 1857 1858 1835 1825 1848 1798 1886 1881 1805 1844 1778 1831 1886 1814 1855 1894 1828 1821 1850 1827 1824 1768 1822 1792 1817 1868 1796 1734 1899 1826 1725 1839 1755 1882 1790 1782 1879 1857 1753 1798 1788 1784 1797 1789 1804 1840 1865 1879 1843 1814 1781 1888 1804 1756 1774 1814 1813 1855 1831 1795 1848 1817 1865 1809 1797 1785 1837 1711 1784 1820 1766 1795 1764 1804 1821 1831 1817 1799 1761 1827 1801 1822 1835 1872 1803 1844 1746 1819 1833 1829 1844 1768 1835 1822 1776 1830 1799 1827 1850 1838 1814 1825 1705 1780 1822 1822 1861 1874 1781 1826 1813 1805 1921 1901 1849 1870 1774 1865 1841 1848 1859 1871 1805 1852 1852 1817 1818 1772 1809 1856 1810 1840 1845 1914 1761 1780 1914 1831 1814 1764 1770 1835 1805 1804 1845 1789 1818 1827 1814 1820 1842 1738 1762 1793 1884 1829 1834 1864 1791 1799 1818 1876 1720 1876 1774 1852 1748 1886 1758 1819 1779 1736 1722 1789 1764 1781 1762 1708 1834 1703 1725 1802 1772 1847 1722 1771 1798 1825 1806 1830 1772 1734 1777 1792 1786 1772 1697 1735 1781 1839 1786 1813 1746 1723 1723 1733 1728 1677 1791 1748 1687 1704 1795 1688 1721 1738 1632 1712 1720 1650 1711 1713 1634 1743 1658 1745 1630 1734 1668 1701 1703 1670 1692 1742 1677 1590 1710 1679 1663 1678 1641 1640 1616 1629 1668 1611 1593 1592 1635 1664 1643 1666 1657 1691 1676 1632 1624 1638 1564 1615 1603 1630 1632 1630 1637 1573 1663 1640 1588 1645 1634 1602 1657 1638 1640 1587 1664 1557 1584 1556 1590 1665 1578 1592 1640 1586 1531 1599 1618 1607 1650 1641 1662 1632 1646 1724 1799 1745 1814 1746 1962 1867 1892 2073 2046 2151 2194 2306 2351 2413 2406 2454 2550 2502 2490 2435 2361 2334 2330 2254 2191 2101 2154 1955 2015 1880 1845 1939 1925 1873 1819 1751 1857 1718 1727 1755 1773 1615 1744 1689 1738 1726 1676 1707 1604 1658 1649 1683 1656 1691 1720 1686 1677 1542 1687 1639 1639 1669 1613 1612 1558 1601 1584 1591 1591 1618 1596 1505 1595 1555 1558 1509 1556 1539 1506 1549 1577 1494 1487 1512 1515 1589 1488 1554 1498 1444 1409 1584 1505 1454 1492 1413 1519 1347 1525 1448 1452 1460 1445 1495 1488 1401 1428 1452 1452 1446 1454 1493 1468 1479 1452 1451 1564 1527 1486 1596 1626 1709 1666 1771 1823 1880 2068 2135 2243 2509 2490 2540 2629 2498 2566 2418 2405 2512 2326 2397 2256 2110 2117 2137 2007 1982 1878 1814 1762 1772 1663 1659 1679 1676 1646 1668 1694 1575 1615 1624 1585 1644 1576 1532 1577 1535 1624 1579 1571 1630 1498 1490 1565 1492 1522 1508 1632 1519 1548 1514 1459 1448 1496 1477 1459 1501 1481 1469 1492 1438 1453 1394 1440 1487 1447 1447 1411 1416 1414 1380 1407 1481 1390 1334 1314 1305 1287 1326 1352 1340 1359 1381 1337 1252 1386 1270 1340 1305 1296 1352 1299 1255 1300 1277 1284 1296 1231 1303 1334 1360 1270 1283 1219 1290 1252 1298 1225 1258 1233 1301 1257 1182 1245 1247 1185 1184 1232 1234 1223 1186 1209 1155 1203 1201 1159 1234 1218 1224 1198 1268 1250 1277 1226 1204 1190 1187 1169 1214 1218 1129 1234 1203 1155 1190 1188 1223 1182 1231 1126 1178 1161 1159 1188 1221 1175 1208 1190 1206 1188 1233 1222 1185 1205 1180 1140 1166 1173 1238 1186 1192 1171 1160 1203 1195 1192 1225 1228 1213 1179 1193 1186 1135 1103 1186 1165 1169 1120 1169 1194 1163 1154 1254 1168 1131 1198 1156 1217 1145 1130 1156 1103 1126 1170 1240 1106 1078 1142 1208 1090 1164 1118 1117 1145 1152 1149 1141 1183 1170 1133 1154 1075 1139 1130 1112 1196 1132 1209 1091 1123 1164 1147 1136 1186 1134 1174 1138 1206 1078 1178 1110 1121 1063 1144 1069 1157 1152 1172 1138 1070 1100 1104 1081 1110 1128 1166 1177 1115 1124 1148 1133 1127 1115 1132 1115 1067 1108 1115 1145 1110 1118 1120 1098 1165 1174 1131 1052 1110 1093 1084 1115 1144 1139 1132 1164 1171 1129 1056 1124 1148 1155 1091 1147 1080 1125 1162 1145 1064 1084 1104 1105 1101 1136 1151 1125 1047 1075 1074 1067 1069 1043 1165 1107 1142 1102 1108 1113 1102 1071 1056 1012 1097 1112 1133 1129 1137 1152 1144 1092 1101 1113 1085 1125 1096 1100 1065 1084 1106 1174 1061 1139 1163 1078 1088 1151 1132 1029 1065 1150 1160 1074 1107 1090 1139 1050 1058 1091 1130 1058 1030 1080 1110 1074 1060 1115 1053 1106 1070 1113 1065 1114 1071 1036 1071 1084 1079 1131 1081 1097 1089 1088 1068 1073 1171 1076 1130 1077 1069 1106 1091 1093 1131 1092 1128 1187 1098 1094 1119 1107 1199 1152 1113 1166 1157 1121 1185 1177 1229 1210 1261 1220 1237 1303 1296 1327 1335 1413 1434 1452 1524 1666 1656 1829 1956 2170 2355 2476 2692 3018 3311 3680 3912 4329 4522 4664 4656 4698 4615 4540 4425 4277 4121 4038 3883 3677 3431 3186 3012 2824 2762 2574 2455 2435 2272 2193 2155 2224 2150 2124 2115 2139 2189 2271 2150 2377 2258 2461 2471 2517 2556 2611 2562 2430 2562 2470 2458 2487 2411 2361 2389 2266 2249 2152 2135 2086 1959 1951 1926 1775 1837 1751 1794 1654 1695 1636 1645 1641 1624 1629 1514 1510 1573 1526 1499 1526 1500 1469 1481 1424 1456 1427 1463 1345 1372 1335 1294 1337 1292 1316 1277 1207 1201 1157 1175 1137 1115 1158 1237 1137 1143 1197 1129 1121 1136 1145 1176 1176 1090 1115 1116 1099 1102 1048 1069 1056 1055 1074 998 1020 1040 1072 1022 1065 973 1000 1030 1050 984 1066 1034 1039 1038 1080 1034 1078 997 1043 968 1034 1004 1033 1060 1029 983 945 1062 1040 1012 1041 1022 961 1050 1049 984 1013 969 951 998 993 1051 1019 1024 970 1002 1041 1023 998 985 957 916 987 955 1013 997 987 980 1008 1000 985 994 992 1003 986 1019 977 1003 929 974 959 1030 985 937 1012 935 985 957 955 950 955 1029 991 989 994 970 957 955 961 966 977 1030 945 937 978 980 986 928 958 947 910 903 952 1013 1027 952 964 917 954 903 974 934 979 965 982 943 907 914 936 983 961 968 955 951 960 882 981 966 950 993 976 1013 941 947 938 915 907 952 971 955 938 1003 939 1001 922 902 943 928 991 923 887 928 940 980 900 922 943 881 937 932 978 908 977 990 975 928 958 906 985 940 909 992 946 970 992 937 1015 997 1064 1001 1004 1019 979 990 978 961 992 962 989 984 945 980 961 962 951 953 927 964 962 909 912 951 955 958 982 897 1000 919 938 918 899 901 841 885 960 982 976 935 914 972 942 939 950 975 1025 946 982 936 975 948 1000 966 914 1031 1028 972 980 1007 1041 997 955 945 991 991 1003 988 906 908 885 911 954 935 883 922 939 855 953 882 918 968 909 979 909 916 922 893 926 833 889 913 879 934 883 918 905 963 970 912 835 864 941 931 871 850 916 858 915 892 898 876 899 926 862 922 879 901 895 887 873 888 914 860 897 873 857 850 900 876 862 853 885 890 863 851 826 925 884 825 827 877 852 837 879 867 848 884 858 845 864 842 897 870 831 850 831 885 849 867 811 841 882 804 909 820 871 906 865 873 846 906 876 860 905 833 887 850 818 856 927 912 902 867 840 882 820 873 865 876 871 931 893 867 847 878 882 834 844 847 836 908 866 819 875 884 874 864 840 886 807 833 840 866 838 860 825 807 853 840 861 838 887 842 886 853 829 846 825 845 866 791 797 831 828 839 830 833 855 779 798 828 875 851 843 819 821 824 865 825 834 814 813 829 802 796 813 829 800 823 800 845 806 776 857 816 844 788 895 792 878 840 804 835 835 796 855 830 878 882 806 832 804 794 845 856 837 816 857 876 834 787 850 808 846 894 777 802 845 822 810 785 879 822 813 795 836 838 782 795 853 861 812 823 814 851 833 807 798 796 844 863 804 774 832 868 834 796 777 783 781 853 808 859 775 837 804 854 788 769 798 820 816 799 832 839 774 911 827 789 853 816 786 806 836 831 824 859 844 747 805 786 792 753 813 795 779 772 773 798 840 785 825 855 799 847 811 814 855 810 776 804 828 843 776 834 850 771 837 851 816 800 849 827 801 799 814 843 806 805 816 764 814 826 846 816 794 785 810 850 816 847 802 792 814 824 829 815 774 803 818 815 862 793 794 771 796 821 852 820 848 760 825 832 787 776 860 782 807 766 824 803 823 831 784 763 748 772 791 848 804 824 808 835 763 813 818 777 794 799 756 816 787 825 763 790 799 831 808 848 765 788 792 766 819 816 823 746 790 799 826 780 780 750 782 779 790 787 794 790 781 828 793 762 795 792 752 784 778 824 841 794 789 849 719 748 789 799 793 780 786 743 796 818 820 763 800 814 785 748 735 829 772 730 790 830 760 787 824 804 772 780 766 759 811 797 797 803 789 846 768 763 802 776 779 810 727 793 825 815 820 782 811 805 796 794 810 829 777 759 812 800 748 749 813 855 815 781 788 765 768 769 803 776 782 799 809 771 820 750 766 761 809 813 794 769 758 792 797 813 745 776 793 754 740 786 802 801 790 772 783 723 774 714 785 802 860 818 768 786 756 812 763 711 754 756 766 766 765 819 797 781 773 863 806 760 741 756 782 752 753 794 714 732 815 811 747 819 731 769 800 767 792 765 772 775 748 794 754 761 794 753 778 827 794 758 809 787 805 754 725 768 727 815 813 814 783 767 818 765 810 767 775 768 744 793 779 785 780 818 821 857 870 808 859 911 991 986 1005 1092 1034 1077 1165 1177 1167 1101 1078 1115 1112 1096 1111 1096 1147 1053 1025 1011 1011 1003 914 935 984 885 919 879 896 807 873 811 824 855 866 828 855 795 813 831 822 826 892 860 790 875 802 792 811 850 787 807 770 748 825 780 823 799 784 830 835 787 784 749 785 847 748 785 816 779 787 779 779 793 814 746 791 744 814 800 809 766 805 847 814 805 772 781 779 819 837 855 831 837 791 835 857 895 800 809 848 780 862 855 795 790 813 845 803 799 789 797 778 784 793 761 770 792 772 752 786 767 756 758 781 740 750 764 746 759 744 744 788 751 799 761 785 748 715 725 761 728 706 792 727 793 701 797 782 780 720 732 762 735 756 750 758 766 709 732 755 756 779 794 808 759 801 747 743 743 813 785 758 766 754 735 724 722 715 729 768 691 755 755 764 728 771 750 782 749 722 745 789 710 749 727 730 799 723 719 737 779 721 713 736 746 757 685 665 720 754 728 693 764 698 730 737 696 712 752 796 724 793 732 778 741 704 744 757 805 730 708 810 745 761 735 711 728 754 728 740 720 782 721 717 765 775 747 772 726 764 782 750 741 729 755 743 743 732 720 699 743 734 759 727 751 747 732 715 756 751 763 795 740 745 747 716 718 788 715 776 762 811 754 698 758 734 739 731 705 715 782 703 727 727 701 757 781 718 742 743 728 753 694 698 765 767 751 729 731 721 727 766 712 729 724 768 776 749 726 743 743 794 751 743 766 738 765 730 725 739 728 770 742 814 695 734 738 745 768 706 735 699 728 784 760 731 733 761 731 754 745 762 825 748 808 753 778 774 769 796 793 775 807 781 831 786 766 825 750 841 845 838 844 818 851 830 869 902 879 920 932 963 1007 1134 1194 1272 1375 1568 1704 1919 2256 2367 2829 2837 3036 3093 2961 2838 2816 2622 2479 2468 2394 2406 2548 2495 2541 2388 2253 2227 1926 1883 1812 1692 1563 1471 1469 1391 1304 1243 1230 1233 1239 1128 1155 1148 1107 1122 1102 1090 1127 1077 1043 1043 1045 1041 1063 978 954 1002 990 957 981 929 926 963 1016 995 943 872 931 906 910 909 890 946 895 864 900 866 856 907 849 845 814 866 780 803 839 801 770 800 780 806 796 761 820 827 744 737 750 772 711 817 753 837 800 738 822 786 775 855 781 782 798 817 775 849 844 893 852 878 873 902 895 902 896 889 929 890 901 892 879 868 868 827 908 847 880 858 880 798 822 821 806 764 801 848 811 776 786 787 772 788 781 826 844 816 721 750 753 704 729 693 674 755 731 731 728 754 728 756 684 683 732 768 695 745 695 684 721 683 711 714 770 717 753 703 691 702 709 689 726 704 724 770 725 711 731 745 709 716 688 670 700 687 683 700 712 745 714 737 662 714 720 693 726 723 705 680 685 703 719 713 736 731 785 769 763 795 810 848 847 866 930 958 957 972 1008 877 937 868 874 983 927 906 992 967 962 968 959 901 920 924 903 893 840 921 850 831 866 845 781 821 804 799 804 776 824 799 831 771 779 741 759 731 712 761 735 674 741 707 716 769 741 741 723 745 702 694 712 680 687 736 703 732 694 705 702 740 713 715 694 734 683 685 685 649 672 723 667 676 665 660 624 728 634 663 653 697 649 669 656 683 635 723 676 671 696 659 673 681 629 651 659 646 673 672 667 674 683 634 681 661 608 668 630 630 638 619 664 701 639 622 650 685 682 636 689 689 683 641 657 681 664 641 667 667 695 591 646 656 695 635 708 677 694 684 671 658 665 628 609 635 659 686 637 629 696 671 654 610 687 649 702 635 644 685 628 641 597 646 620 619 669 587 600 653 647 661 638 669 664 654 601 678 685 661 639 665 643 611 629 688 672 626 653 672 642 684 626 654 658 657 630 640 645 628 634 679 590 608 648 676 657 652 610 662 641 692 645 683 695 696 637 641 631 631 610 646 690 686 626 582 636 643 616 607 643 624 582 645 641 672 647 656 616 639 604 664 652 648 654 636 653 667 635 653 620 648 624 599 623 640 644 636 606 648 655 626 645 688 614 663 662 621 705 649 616 644 622 624 630 668 677 621 642 656 629 600 642 641 614 645 615 604 658 655 619 587 672 628 611 650 643 616 667 633 645 636 625 713 647 623 634 634 603 616 615 635 627 630 604 658 637 593 661 622 633 658 623 620 659 650 638 641 590 695 644 627 598 658 603 650 667 664 589 650 600 634 617 610 635 633 614 639 625 612 651 646 617 635 597 639 623 605 639 604 659 615 587 684 603 665 648 591 646 623 666 613 627 616 594 600 650 602 660 605 656 606 634 610 597 577 640 594 616 615 617 613 645 593 602 626 593 643 677 594 617 575 612 634 604 643 576 606 634 640 639 601 622 600 611 645 617 627 596 637 587 636 614 606 615 582 641 614 660 658 602 593 620 662 609 624 627 595 609 595 618 630 645 586 614 604 617 603 630 598 628 546 612 579 592 627 596 610 649 617 607 587 598 638 559 623 616 644 600 643 628 642 609 618 615 649 593 604 557 602 571 573 612 628 599 632 589 615 610 608 601 613 591 620 611 621 593 591 658 617 619 584 645 671 547 617 611 631 603 612 592 591 615 633 614 608 602 637 660 652 641 639 625 640 592 603 582 629 623 632 613 590 636 616 599 641 681 653 600 642 563 589 598 601 616 639 657 622 624 583 606 659 673 661 685 685 692 702 724 652 673 691 664 698 685 638 644 676 695 658 656 640 681 648 610 694 663 705 691 619 610 691 640 648 606 625 638 645 609 616 581 633 576 618 616 625 612 561 644 647 617 633 607 600 616 628 596 584 625 618 610 611 668 572 636 608 642 702 690 677 771 757 819 795 831 801 768 863 739 734 716 706 710 693 742 770 767 745 744 707 729 699 708 714 730 706 675 687 718 674 656 606 686 632 682 609 676 628 633 661 636 635 625 626 645 614 603 604 613 610 603 608 587 616 594 622 590 569 631 598 617 575 602 634 559 562 566 609 613 656 575 615 625 578 657 629 596 578 638 627 580 598 602 561 602 609 592 593 619 605 618 559 580 584 584 599 606 574 565 542 600 597 573 586 587 637 584 574 594 560 611 572 575 589 600 572 598 558 631 583 585 562 555 541 585 616 627 589 593 606 598 577 574 552 624 593 550 623 566 558 573 581 555 585 587 605 554 588 573 593 591 600 595 607 556 585 556 577 601 538 608 553 575 569 516 595 563 572 602 615 606 552 586 602 592 605 556 590 594 582 558 574 552 576 603 554 602 575 564 590 557 580 597 572 553 613 585 588 599 634 600 568 528 594 602 615 602 575 593 574 556 602 580 594 580 607 630 570 584 621 600 599 552 578 563 633 575 590 608 582 618 601 652 576 538 572 583 602 630 584 546 618 586 644 581 622 629 577 559 603 635 606 604 651 612 670 617 663 655 754 701 773 775 856 898 964 977 1046 992 1000 987 997 931 857 894 894 885 862 829 887 944 898 951 937 959 890 918 874 841 876 811 799 800 856 752 761 738 747 784 748 655 693 696 727 698 743 637 711 682 702 667 668 694 681 703 654 610 658 680 623 616 648 609 651 643 664 590 654 634 598 640 623 622 602 638 585 611 612 597 616 567 612 592 587 556 594 588 625 603 604 581 624 571 632 546 534 577 580 570 562 551 575 615 599 608 605 574 604 581 573 569 586 563 588 559 570 595 563 588 578 566 589 542 569 535 583 586 574 560 542 584 587 564 585 545 522 545 590 576 572 570 576 549 561 602 586 556 583 550 553 585 557 539 572 592 552 536 568 594 571 580 545 533 610 540 595 565 580 544 563 573 555 522 565 526 585 560 595 557 580 544 562 550 579 571 557 546 568 572 585 589 622 620 588 599 621 623 683 594 660 638 658 645 640 644 644 635 620 633 631 627 645 682 677 619 677 681 669 636 632 611 633 636 632 601 622 621 589 606 570 589 635 594 644 621 603 606 572 581 593 602 580 558 596 569 565 602 564 507 599 595 621 584 553 596 541 575 557 555 570 574 526 568 575 578 556 543 539 575 507 588 568 559 547 550 568 610 566 537 544 581 548 581 558 520 565 546 545 578 531 530 532 540 548 551 549 583 558 578 525 558 572 586 534 529 566 537 525 568 571 558 542 568 577 542 530 554 547 505 557 540 519 554 574 533 589 493 560 602 533 531 546 506 546 517 515 535 531 546 498 569 505 593 527 532 507 554 545 535 522 524 538 530 513 526 560 569 537 505 551 587 577 544 549 535 600 552 569 601 518 555 551 564 535 529 565 533 591 547 546 563 497 552 550 545 592 568 568 558 523 563 539 583 510 543 544 584 604 505 543 549 537 548 526 556 554 522 543 561 510 539 527 516 549 517 586 512 568 528 579 522 601 520 493 516 516 561 555 564 538 532 547 508 543 508 567 547 560 505 553 519 566 594 539 549 537 512 531 490 528 557 567 551 487 482 516 525 533 492 516 536 533 502 517 479 559 488 523 543 543 534 553 512 515 499 570 512 579 500 542 538 532 527 535 511 504 508 531 539 484 524 513 539 546 542 486 514 545 543 526 530 502 531 507 574 513 527 528 517 524 511 552 525 548 536 522 589 526 500 538 515 536 496 543 485 561 513 551 524 583 510 526 520 565 546 535 528 502 538 527 517 528 547 532 497 533 552 556 545 577 541 496 562 535 539 537 541 528 545 487 551 532 547 523 559 523 544 531 542 562 560 513 534 515 509 500 551 512 510 482 531 559 544 474 514 503 484 522 487 472 532 544 537 503 543 529 555 530 496 550 504 517 510 490 519 530 543 502 528 483 538 495 509 512 472 482 520 506 541 532 494 517 561 541 506 533 492 523 550 558 555 520 480 531 538 497 469 491 536 527 529 552 536 521 566 543 538 546 553 486 534 539 505 541 474 540 478 517 545 547 539 476 508 522 514 547 515 507 534 518 535 546 508 512 535 523 529 518 485 550 539 541 513 513 512 488 512 547 497 520 538 539 574 607 535 561 565 582 566 568 595 582 568 557 581 580 562 555 583 517 545 541 525 571 508 594 527 542 525 582 534 529 506 559 528 583 494 549 495 545 498 531 535 516 565 551 542 530 532 571 483 533 541 514 566 514 525 532 494 537 520 489 486 498 495 513 493 539 545 504 511 504 469 514 555 544 533 492 521 565 548 505 530 523 553 539 589 570 522 477 489 539 491 513 521 495 511 508 514 545 553 496 517 507 522 513 515 564 568 559 531 464 488 533 508 517 505 509 529 521 515 494 504 547 525 482 520 560 549 540 511 519 491 556 541 506 528 493 506 556 490 510 522 557 508 521 523 512 507 519 509 539 503 535 527 516 480 489 491 545 506 516 492 541 489 501 520 551 506 540 509 518 510 483 507 476 506 536 525 511 521 510 529 496 513 526 482 530 523 466 534 568 513 538 553 543 487 536 511 509 520 541 518 511 495 490 582 503 543 534 524 521 527 468 500 504 557 516 525 547 538 539 529 527 516 491 570 507 497 507 544 510 532 454 526 558 478 550 469 493 508 545 519 473 506 489 478 540 532 485 493 526 551 508 535 485 541 511 521 500 518 527 517 503 554 526 490 500 511 524 520 527 498 493 513 516 470 496 519 544 519 547 510 472 536 510 518 520 526 479 503 524 517 527 526 546 542 535 496 579 547 517 578 593 555 610 625 626 633 631 702 612 671 655 663 580 660 657 574 577 603 620 596 577 535 617 598 621 600 677 632 640 634 619 599 615 607 543 527 559 568 584 557 538 551 533 539 545 568 549 558 527 517 531 510 567 568 521 529 549 526 572 516 517 515 544 510 545 553 537 493 516 507 518 522 510 530 523 545 563 551 524 517 526 529 566 538 548 528 565 544 493 554 524 599 555 557 529 590 571 568 554 574 576 546 581 537 575 556 523 539 510 558 524 517 551 494 522 506 538 543 546 526 518 457 498 506 557 497 503 514 515 576 495 487 511 521 488 491 489 503 524 496 544 531 493 504 509 527 477 519 460 518 511 534 520 537 534 476 508 524 485 518 506 492 507 498 477 533 504 513 501 509 525 501 512 517 502 465 483 557 525 501 526 487 523 450 494 490 531 493 472 474 488 512 485 524 448 526 510 535 488 452 471 543 495 514 464 494 545 519 500 489 480 476 528 489 498 485 507 520 522 490 500 508 533 523 505 508 471 509 482 466 494 493 472 498 486 519 537 502 541 544 539 530 504 494 498 538 492 485 494 488 520 508 530 525 510 522 504 471 457 537 507 496 527 494 523 506 530 521 504 489 520 498 493 503 518 471 513 495 530 501 496 476 497 525 487 524 465 536 502 512 499 519 497 496 515 529 562 527 494 536 547 528 507 533 504 493 478 515 520 439 541 511 506 480 459 482 486 492 498 454 511 471 502 474 521 471 484 472 476 491 514 484 516 538 511 493 477 496 473 504 466 483 483 515 495 530 489 484 507 524 507 512 502 500 482 480 535 522 480 550 484 535 468 533 517 510 493 502 495 493 511 501 507 499 482 520 470 480 545 502 466 511 470 536 459 518 505 476 496 517 480 510 502 497 522 533 514 514 460 515 507 521 471 455 528 538 514 497 513 507 494 500 519 510 473 466 494 507 532 461 453 504 473 547 475 430 488 485 527 496 534 552 489 498 517 502 479 489 537 480 490 503 521 464 496 512 502 493 542 543 556 505 485 487 452 470 487 502 476 513 505 498 498 511 468 512 515 494 488 472 515 465 500 499 465 492 497 502 515 503 517 504 508 488 510 517 491 456 511 468 502 511 520 504 522 497 510 495 517 493 476 498 513 516 546 505 522 495 520 515 511 489 493 509 550 499 514 451 463 471 484 485 507 507 520 502 530 465 479 488 509 479 533 480 499 509 530 495 488 467 492 506 509 506 503 484 491 567 501 520 526 493 514 509 483 561 523 513 518 491 511 498 516 493 528 533 476 539 505 513 502 495 502 503 485 509 495 490 499 441 495 487 471 509 498 497 496 490 520 513 492 551 484 541 517 507 536 535 554 528 491 541 480 494 487 499 552 499 479 534 488 507 492 510 518 533 496 547 481 529 501 494 542 517 477 532 483 523 546 510 533 471 462 558 504 532 496 497 525 470 490 520 493 536 545 532 550 544 535 529 530 525 546 591 554 584 541 549 615 565 532 537 516 541 504 555 516 554 567 501 552 527 542 552 544 589 542 572 494 526 525 562 536 572 540 542 569 517 519 501 555 542 500 577 509 535 540 568 520 509 489 546 516 532 519 530 529 539 575 575 578 558 593 586 508 558 552 575 544 548 568 564 565 539 543 535 518 533 532 540 557 542 574 555 571 525 509 511 544 550 565 539 502 493 558 522 550 519 501 518 541 567 522 482 500 506 514 503 520 505 527 545 512 548 537 537 472 480 503 503 547 520 497 488 509 499 497 533 494 535 497 549 553 500 499 544 525 487 492 503 512 486 537 515 519 526 544 517 478 538 561 483 526 478 500 509 531 511 477 525 511 493 473 516 546 519 507 464 499 533 482 498 525 546 518 558 483 502 523 507 512 466 498 522 526 539 485 492 511 492 542 528 509 565 499 521 525 546 564 525 539 515 529 505 472 505 483 526 528 547 500 518 512 512 515 491 513 515 487 521 480 540 533 533 505 541 522 515 542 550 512 538 535 527 515 522 478 511 543 531 510 521 510 491 514 514 488 513 498 520 497 558 461 517 493 505 539 508 528 494 542 504 508 508 529 521 570 522 501 565 534 532 543 536 511 566 568 515 533 559 567 552 611 580 611 610 615 640 692 743 766 806 800 814 812 790 799 810 818 776 713 750 736 697 707 681 647 664 659 718 669 723 787 759 771 791 740 776 744 696 738 732 749 710 648 690 659 623 660 600 620 587 609 608 624 571 562 580 593 587 622 560 585 587 557 566 595 550 590 536 565 568 553 574 534 542 555 545 530 561 502 534 543 507 513 531 534 523 517 530 553 497 531 510 530 528 507 504 509 553 520 493 519 550 524 518 510 525 527 481 511 523 507 505 554 525 528 491 475 505 537 516 505 497 500 486 482 483 514 494 527 505 509 511 507 497 494 503 471 483 525 474 517 504 515 525 520 553 503 469 522 492 487 537 551 492 494 540 499 486 495 473 499 544 542 524 502 499 463 513 536 469 507 509 523 514 481 516 547 515 501 556 495 560 566 583 561 591 530 582 524 518 560 542 570 533 574 513 549 550 466 527 508 541 560 574 524 561 522 556 557 550 503 586 501 543 535 505 566 528 546 530 549 521 570 526 541 521 538 517 587 515 537 479 534 515 557 520 540 515 533 512 500 485 494 525 527 522 523 510 523 535 538 548 510 462 543 495 499 505 511 557 503 457 492 486 492 495 515 506 487 502 504 482 450 497 486 511 542 496 502 506 476 513 530 506 495 505 495 493 477 468 490 502 470 531 497 509 537 524 517 478 512 518 471 503 484 552 493 486 457 480 487 459 511 494 501 476 474 481 534 495 491 480 500 486 480 481 484 478 511 483 448 491 483 499 512 507 501 518 461 505 498 470 467 493 507 511 490 480 469 523 510 486 526 485 481 537 482 525 490 457 505 475 467 475 493 466 512 480 449 497 449 480 451 503 489 515 466 487 470 452 537 481 502 519 484 484 479 523 497 503 532 468 446 502 449 492 549 500 475 501 424 510 428 529 500 447 456 476 501 503 520 529 470 499 489 495 495 468 522 462 453 493 478 470 492 473 448 490 466 508 491 498 487 479 495 460 514 498 483 501 451 558 468 463 426 493 477 509 511 453 485 488 504 464 489 485 494 479 461 490 478 466 530 454 486 504 470 485 462 479 503 477 508 471 508 490 476 476 449 489 495 460 453 459 447 470 469 456 467 473 437 454 487 454 484 521 487 510 470 478 482 466 458 502 437 512 465 467 472 465 504 438 491 495 487 502 479 489 451 472 448 475 464 472 514 462 529 497 470 438 465 484 490 474 515 457 484 479 483 431 473 478 520 457 458 435 480 470 478 446 492 483 460 486 443 468 496 455 458 496 451 449 478 503 500 469 459 516 539 461 487 437 489 475 476 513 468 489 509 504 503 478 477 482 517 520 486 499 463 446 490 452 460 503 477 464 493 423 484 461 467 457 475 482 513 466 463 515 474 504 466 465 465 467 463 464 457 480 479 491 466 464 460 499 462 456 423 489 501 492 504 472 471 508 479 492 491 492 505 510 517 495 485 549 498 487 464 480 526 548 471 499 495 463 483 501 481 488 474 461 493 501 492 512 515 494 494 465 492 498 507 493 462 468 476 484 465 457 494 470 449 483 491 519 468 491 459 502 485 458 499 524 526 464 453 468 465 454 469 488 480 478 508 517 502 480 474 494 466 493 513 498 478 485 466 466 493 464 488 460 494 487 504 493 479 483 476 478 458 481 476 453 467 470 496 486 470 470 478 451 492 473 474 484 466 470 501 465 496 494 468 437 496 457 471 450 463 488 461 453 487 505 488 475 489 451 431 482 482 485 478 449 479 415 452 445 481 450 451 454 472 456 453 491 468 499 472 438 500 499 463 441 475 497 474 484 449 491 485 455 456 436 467 492 467 499 455 469 459 468 451 468 488 500 444 488 514 488 449 485 463 441 453 469 461 451 456 466 481 456 474 438 494 458 466 439 497 481 466 484 450 462 437 454 464 493 490 481 479 499 452 448 440 465 431 455 488 477 469 481 483 510 527 466 491 471 471 480 474 470 510 505 432 470 481 478 440 465 480 486 456 428 447 494 486 485 454 448 450 482 455 423 507 525 487 470 484 495 479 475 488 486 473 502 486 479 502 501 524 492 504 511 561 577 536 572 566 577 620 653 659 662 693 696 728 747 711 705 702 637 664 626 557 587 636 595 571 588 560 538 545 600 602 555 604 597 594 638 609 664 639 597 623 644 611 625 616 595 583 563 560 548 567 511 555 538 523 510 532 545 502 577 510 499 496 511 529 571 519 496 504 534 507 534 512 493 498 522 487 516 521 493 463 503 549 491 510 482 489 483 460 503 496 468 463 498 486 477 497 489 497 491 479 492 473 495 505 485 509 463 453 442 449 435 471 458 473 479 497 485 473 452 469 475 481 464 454 494 477 492 487 503 479 492 476 504 471 491 448 500 472 457 493 468 502 426 495 503 469 501 452 487 472 536 508 477 436 465 470 483 443 478 486 491 451 465 466 454 446 472 475 475 531 489 482 518 440 461 481 467 526 469 499 492 466 500 460 490 511 549 469 466 502 453 490 488 496 489 439 489 477 459 483 449 473 491 528 481 469 494 463 503 504 465 469 511 518 508 488 492 472 490 483 511 432 477 469 461 456 475 448 421 476 431 482 465 483 453 460 463 459 438 464 530 448 446 465 477 432 504 462 505 452 470 517 473 473 444 463 474 466 434 469 464 467 462 430 437 499 482 436 486 498 478 457 482 459 479 430 429 467 461 489 446 458 488 488 459 435 448 475 434 438 465 480 441 452 446 451 490 439 501 503 452 477 447 499 470 487 461 445 451 491 425 455 487 468 452 477 501 449 486 461 438 479 444 484 495 470 467 470 424 489 461 424 460 490 482 466 489 465 461 448 509 448 425 473 479 482 467 471 493 463 513 510 439 508 456 447 458 462 477 453 468 456 504 455 433 458 443 458 445 470 486 448 449 459 432 438 449 469 425 477 472 501 469 463 433 490 429 464 481 456 436 465 493 489 445 498 437 450 450 424 449 458 464 469 454 451 473 454 456 480 472 438 467 457 427 455 456 441 449 487 464 492 453 440 467 421 478 459 449 416 444 445 445 440 450 444 473 461 441 445 460 464 455 428 495 464 482 464 479 462 463 450 439 434 453 456 491 476 489 465 475 467 414 467 439 431 459 470 449 451 470 469 456 458 478 453 440 461 418 432 493 477 469 474 471 438 425 460 488 466 459 453 479 442 479 508 448 475 451 444 421 471 426 476 487 471 401 452 468 449 494 465 459 473 474 463 471 466 459 428 465 468 502 475 482 470 434 437 440 474 423 442 501 451 448 491 440 454 432 447 452 427 461 432 488 491 475 455 462 458 467 399 441 442 471 489 438 485 431 471 472 464 454 455 463 448 461 458 440 461 439 463 441 464 423 438 443 457 466 468 446 448 431 479 445 462 489 428 422 466 475 443 444 425 450 488 504 466 451 453 447 443 464 450 457 423 434 421 431 461 481 459 426 465 470 440 411 435 514 462 480 472 459 471 462 532 453 483 491 477 462 461 470 475 480 525 463 516 504 490 497 531 472 525 463 491 482 510 465 478 449 491 437 464 470 487 461 469 454 491 466 438 494 448 510 469 468 503 484 500 496 468 502 472 470 443 502 441 431 467 450 468 437 458 482 518 472 433 439 439 494 443 500 457 495 501 472 484 476 476 496 465 480 515 468 481 461 501 477 477 464 474 477 472 486 483 526 428 478 399 462 441 403 492 486 462 495 463 488 472 458 492 448 470 481 464 487 431 486 472 484 475 473 487 461 519 452 477 447 458 475 477 465 413 456 445 459 415 498 460 436</counts>
			</dataPoints>
		</scan>
	</xrdMeasurement>
</xrdMeasurements>
