<?xml version="1.0"?>
<xrdMeasurements xmlns="http://www.xrdml.com/XRDMeasurement/2.3" xmlns:xsi="http://www.w3.org/2001/XMLSchema-instance" xsi:schemaLocation="http://www.xrdml.com/XRDMeasurement/2.3 http://www.xrdml.com/XRDMeasurement/2.3/XRDMeasurement.xsd" status="Completed" recordIdentifier="{E0DF2041-C18E-424D-83AB-02E17E847CE7}">
	<comment>
		<entry/>
	</comment>
	<sample type="To be analyzed">
		<id>GPSS_Li1p9Fe0p525Zn0p525Cl4_112625_69278cb0f4e53d1f7239ae4f</id>
		<name></name>
		<preparedBy></preparedBy>
	</sample>
	<xrdMeasurement measurementType="Scan" status="Completed" sampleMode="Reflection">
		<usedWavelength intended="K-Alpha 1">
			<kAlpha1 unit="Angstrom">1.5405980</kAlpha1>
			<kAlpha2 unit="Angstrom">1.5444260</kAlpha2>
			<kBeta unit="Angstrom">1.3922500</kBeta>
			<ratioKAlpha2KAlpha1>0.5000</ratioKAlpha2KAlpha1>
		</usedWavelength>
		<incidentBeamPath>
			<radius unit="mm">145.00</radius>
			<xRayTube id="1010048" name="Empyrean Cu LFF HR (9430 033 7310x)">
				<tension unit="kV">40.0</tension>
				<current unit="mA">15.0</current>
				<anodeMaterial>Cu</anodeMaterial>
				<focus type="Line">
					<length unit="mm">12.0</length>
					<width unit="mm">0.4</width>
					<takeOffAngle unit="deg">6.0</takeOffAngle>
				</focus>
			</xRayTube>
			<sollerSlit id="21010002" name="Soller slits 0.04 rad.">
				<opening unit="rad">0.0400</opening>
			</sollerSlit>
			<mask id="22031000" name="Fixed mask 13 mm">
				<width unit="mm">9.00</width>
			</mask>
			<divergenceSlit id="22120001" name="Divergence slit 1°" xsi:type="fixedDivergenceSlitType">
				<distanceToSample unit="mm">50.00</distanceToSample>
				<height unit="mm">1.52</height>
			</divergenceSlit>
		</incidentBeamPath>
		<sampleMovement xsi:type="spinningSampleMovementType">
			<spinnerRevolutionTime unit="seconds">1.0</spinnerRevolutionTime>
		</sampleMovement>
		<diffractedBeamPath>
			<radius unit="mm">145.00</radius>
			<antiScatterSlit id="22090040" name="AS slit 9 mm (PIXcel)" xsi:type="fixedAntiScatterSlitType">
				<height unit="mm">9.00</height>
			</antiScatterSlit>
			<sollerSlit id="21020003" name="Large Soller slits 0.04 rad.">
				<opening unit="rad">0.0400</opening>
			</sollerSlit>
			<filter id="20030001" name="Large beta-filter Nickel">
				<material>Ni</material>
				<thickness unit="mm">0.020</thickness>
			</filter>
			<detector id="7010019" name="PIXcel1D-Medipix3 detector" xsi:type="rtmsDetectorType">
				<phd unit="keV">
					<lowerLevel>4.02</lowerLevel>
					<upperLevel>11.27</upperLevel>
				</phd>
				<mode>Scanning</mode>
				<activeLength unit="deg">5.542</activeLength>
			</detector>
		</diffractedBeamPath>
		<scan appendNumber="0" mode="Continuous" scanAxis="Gonio" status="Completed">
			<header>
				<startTimeStamp>2025-11-28T10:41:36-08:00</startTimeStamp>
				<endTimeStamp>2025-11-28T10:49:43-08:00</endTimeStamp>
				<author>
					<name>AutomatedUser</name>
				</author>
				<source>
					<applicationSoftware version="1.7b (136)">PANalytical Aeris Instrument Suite</applicationSoftware>
					<instrumentControlSoftware version="3.2.00000000 20240306">AERIS</instrumentControlSoftware>
					<instrumentID>950485</instrumentID>
				</source>
			</header>
			<dataPoints>
				<positions axis="2Theta" unit="deg">
					<startPosition>10.00943322</startPosition>
					<endPosition>99.99442286</endPosition>
				</positions>
				<positions axis="Omega" unit="deg">
					<startPosition>5.00471661</startPosition>
					<endPosition>49.99721143</endPosition>
				</positions>
				<commonCountingTime unit="seconds">12.495</commonCountingTime>
				<counts unit="counts">2899 2837 2964 2906 2899 2940 2928 2821 2813 2840 2856 2879 2886 2874 2957 2861 2933 2984 2904 2870 2934 2882 2900 2857 2939 2825 2960 2832 2928 2950 2950 2991 2867 2966 2955 2915 3041 2863 2893 2887 2975 2962 2980 2950 3001 2853 2999 2872 2923 2978 2996 3013 2888 2948 2937 2957 2879 3042 2957 2998 2963 3077 3035 2940 2980 2992 2997 3074 3009 3043 3087 3048 3067 2984 3151 3055 3069 3110 3065 3152 3227 3031 3120 3111 3014 3052 3108 3147 3044 3239 3116 3099 3004 3082 3050 3113 3069 3167 3234 3205 3214 3091 3168 3202 3059 3166 3161 3088 3188 3188 3135 3258 3198 3109 3226 3263 3147 3196 3171 3250 3124 3130 3177 3156 3115 3153 3153 3145 3138 3207 3170 3115 3155 3122 3120 3180 3126 3179 3098 3119 3093 3005 3231 3113 3186 3178 3177 3267 3004 3138 3140 3132 3151 3184 3176 3110 3192 3164 3285 3159 3174 3137 3115 3083 3163 3103 3132 3183 3038 3153 3203 3102 3088 3129 3164 3093 3211 3059 3169 3142 3098 3100 3098 3105 3169 2954 3122 3066 3141 3200 3059 3117 3098 3111 3084 3166 3097 3082 3151 3144 3110 3101 3051 3122 3094 3053 3115 3129 3177 3077 3073 3134 3219 3093 3107 3085 3123 3069 3177 3021 3122 3053 2955 3135 3125 3077 3073 3099 3114 2943 3036 3088 3188 2995 3090 3100 2991 3038 3072 3069 2993 3040 3114 3028 3056 3054 3059 2976 3047 3006 3050 2910 2927 2933 3043 2982 2955 2995 3007 3006 2953 3110 3014 3027 3065 2930 2999 3025 3011 3001 2940 2938 3065 2981 2993 3045 2945 3062 3025 3089 3025 2984 3077 2996 2994 3182 3059 3067 3074 3031 2989 2979 3057 3035 3101 2988 2982 3009 3035 3012 3047 3104 3053 3139 3048 3011 3122 3042 3024 3100 2997 3129 2978 3015 3074 3099 3164 3108 3069 3186 3026 3042 3034 3057 3084 3097 3065 3087 3035 3074 3236 3054 3226 3164 3275 3154 3136 3123 3144 3192 3164 3066 3158 3104 3199 3194 3169 3183 3231 3138 3169 3169 3128 3261 3284 3244 3302 3271 3218 3263 3264 3337 3232 3282 3227 3290 3406 3360 3347 3377 3366 3332 3427 3444 3503 3385 3388 3366 3374 3422 3359 3357 3506 3422 3516 3402 3407 3455 3384 3457 3426 3516 3509 3447 3509 3471 3546 3475 3559 3589 3599 3594 3496 3579 3475 3541 3552 3628 3639 3576 3608 3614 3664 3743 3828 3607 3603 3591 3770 3623 3819 3695 3709 3710 3654 3644 3685 3662 3749 3685 3680 3787 3867 3757 3803 3719 3643 3694 3663 3796 3741 3796 3671 3818 3735 3721 3660 3566 3695 3691 3629 3740 3819 3785 3727 3750 3780 3728 3857 3816 3818 3834 3955 3836 3882 3809 3858 3910 3890 3925 3985 3892 3906 3865 3933 3836 3804 3688 3629 3703 3640 3524 3424 3491 3435 3471 3508 3480 3446 3436 3432 3500 3449 3359 3486 3348 3451 3488 3414 3389 3441 3420 3343 3352 3358 3388 3268 3303 3360 3304 3270 3328 3406 3279 3353 3257 3274 3372 3322 3399 3337 3417 3253 3302 3282 3352 3268 3298 3242 3270 3253 3242 3269 3237 3181 3243 3294 3273 3267 3291 3222 3251 3258 3264 3175 3151 3293 3192 3215 3238 3245 3275 3169 3265 3231 3235 3256 3310 3246 3260 3193 3257 3089 3137 3157 3217 3168 3200 3047 3153 3331 3162 3196 3131 3212 3255 3039 3115 3152 3144 3204 3189 3025 3105 3145 3166 3092 3222 3112 3123 3127 3100 3121 3157 3140 3019 3241 3119 3030 3044 3052 3048 2900 3094 3077 3063 3111 2953 3092 3069 2994 2993 2965 2975 3087 3041 2951 2945 2974 2938 3009 3014 2943 2946 3031 2889 2924 2972 3015 2952 2957 2956 3011 2933 2915 2978 2912 2936 2910 3012 2893 2996 3057 2978 3096 2965 3050 2932 3072 2997 2974 2973 2929 2978 3073 3022 2919 2971 3019 2932 2989 2874 2915 2996 2851 2919 2957 2941 2949 2924 3012 2940 2926 3057 3039 3009 2866 2885 2957 3045 2915 2933 3028 2946 2994 2949 2818 2964 2889 2917 2945 3012 2890 2921 2830 2978 2864 2973 2895 2840 2979 2812 2886 2958 2938 2835 2788 2818 2944 2870 2852 2893 2830 2989 2803 2975 2927 2838 2807 2886 2839 2799 2909 2844 2867 2909 2750 2900 2868 2856 2873 2918 2906 2948 2846 2857 2874 2905 2857 2847 2795 2678 2859 2889 2993 2890 2866 2943 2867 2874 2843 2762 2852 2842 2857 2879 2915 2921 2949 2842 2748 2882 2814 2796 2814 2773 2825 2854 2914 2916 2890 2921 2851 2871 2893 2925 2845 2872 2871 3031 2922 3007 2915 2938 2854 2994 3023 2996 3016 3086 3020 2854 3075 2939 2949 2891 2934 2943 2849 3033 2885 2958 2886 2958 2971 2955 2981 2828 2957 2937 3001 2938 2962 2881 2944 3001 2926 2993 2934 2935 2936 2911 2925 2844 3040 3016 2982 2992 2935 2893 2934 2846 2887 2815 2733 2798 2862 2916 2766 2801 2812 2697 2790 2798 2789 2643 2716 2728 2730 2733 2733 2670 2661 2710 2864 2670 2745 2619 2845 2681 2694 2768 2703 2722 2772 2719 2702 2625 2694 2685 2660 2638 2643 2587 2696 2642 2668 2620 2629 2764 2684 2699 2708 2559 2664 2713 2600 2613 2583 2611 2703 2726 2679 2676 2709 2612 2557 2614 2572 2691 2626 2588 2593 2605 2650 2522 2477 2650 2606 2568 2564 2509 2664 2601 2592 2679 2602 2623 2596 2565 2511 2626 2597 2686 2580 2715 2638 2605 2641 2627 2589 2680 2634 2630 2618 2604 2606 2596 2611 2694 2597 2634 2577 2543 2667 2581 2545 2563 2659 2576 2597 2658 2564 2595 2577 2554 2691 2568 2646 2599 2609 2593 2545 2658 2595 2586 2544 2569 2557 2560 2551 2571 2547 2550 2522 2455 2520 2503 2572 2541 2520 2535 2509 2562 2538 2570 2564 2516 2580 2521 2522 2533 2611 2610 2487 2500 2575 2440 2497 2542 2540 2503 2486 2509 2593 2418 2579 2536 2485 2438 2502 2550 2421 2576 2485 2435 2469 2545 2585 2513 2510 2572 2549 2662 2545 2484 2614 2479 2475 2470 2455 2556 2490 2477 2587 2565 2449 2494 2536 2479 2491 2568 2523 2516 2458 2501 2495 2521 2580 2504 2553 2434 2575 2528 2617 2448 2467 2580 2568 2491 2540 2524 2567 2518 2507 2580 2485 2548 2442 2545 2603 2503 2483 2476 2559 2517 2399 2531 2530 2513 2581 2530 2491 2507 2551 2534 2620 2592 2528 2576 2579 2567 2597 2532 2531 2544 2651 2573 2530 2588 2533 2573 2553 2562 2447 2542 2535 2587 2517 2477 2551 2484 2481 2512 2492 2461 2469 2502 2489 2437 2651 2525 2585 2536 2611 2598 2469 2532 2554 2534 2426 2468 2392 2479 2453 2464 2483 2459 2515 2473 2428 2493 2452 2404 2363 2549 2406 2465 2408 2447 2357 2426 2394 2409 2483 2464 2395 2387 2512 2396 2460 2343 2390 2388 2422 2398 2361 2371 2446 2401 2431 2472 2358 2381 2409 2392 2417 2318 2301 2298 2341 2348 2239 2370 2269 2347 2344 2321 2282 2174 2288 2289 2340 2322 2257 2252 2206 2239 2273 2269 2200 2290 2216 2201 2232 2202 2230 2256 2208 2312 2138 2220 2259 2245 2291 2264 2219 2155 2294 2267 2250 2260 2232 2124 2168 2129 2111 2156 2152 2268 2249 2140 2144 2161 2172 2131 2147 2119 2047 2126 2183 2138 2092 2150 2005 2116 2123 2060 2087 2014 2099 2149 2109 2029 2084 2012 2082 2122 2057 2146 2057 2133 2071 2100 2039 2022 2077 2096 2084 2028 2028 1993 2004 2077 2049 2118 2080 2104 2024 2033 2011 2001 1972 2042 1991 2020 2051 2064 2012 1951 2030 1939 1993 2049 2114 2071 2122 2064 2068 2084 2178 1986 2157 2155 2187 2040 2189 2104 2125 2069 2215 2032 2066 2068 2074 2124 1974 2009 2042 2033 2077 2061 2068 2031 2023 2095 2070 1980 1982 2100 2034 2090 1980 2106 2162 2074 2194 2139 2130 2088 2039 2113 2169 2102 2134 2082 2095 2123 1966 2002 2023 1949 2047 1991 1895 2008 1968 1895 1798 1795 1960 1895 1845 1934 1975 1815 1861 1890 1818 1805 1890 1853 1844 1805 1848 1881 1911 1857 1775 1834 1838 1814 1841 1831 1864 1789 1888 1835 1891 1837 1862 1875 1868 1861 1780 1870 1756 1855 1951 1848 1809 1912 1889 1816 1849 1868 1888 1867 1890 1904 1856 1983 1885 1906 1826 1785 1842 1900 1842 1896 1812 1794 1881 1833 1843 1815 1826 1823 1811 1814 1842 1871 1914 1874 1836 1858 1877 1848 1876 1882 1880 1855 1835 1957 1884 1931 1891 1842 1906 1886 1900 1900 1788 1930 1854 1889 1868 1909 1776 1858 1840 1839 1856 1830 1770 1805 1845 1839 1826 1820 1826 1855 1876 1787 1839 1816 1871 1824 1802 1810 1900 1899 1860 1887 1803 1808 1745 1782 1814 1811 1796 1868 1850 1797 1944 1763 1869 1811 1875 1794 1787 1803 1770 1887 1821 1883 1865 1887 1768 1773 1883 1887 1814 1807 1721 1839 1866 1841 1887 1809 1798 1795 1839 1778 1813 1736 1863 1829 1830 1848 1750 1788 1838 1803 1775 1801 1842 1725 1804 1822 1830 1713 1860 1775 1767 1757 1793 1831 1809 1781 1809 1743 1722 1750 1655 1787 1783 1736 1758 1745 1823 1742 1787 1788 1750 1834 1722 1776 1763 1744 1760 1842 1734 1659 1673 1724 1764 1697 1638 1727 1748 1620 1750 1646 1711 1698 1752 1708 1689 1687 1612 1725 1624 1720 1669 1720 1739 1664 1570 1658 1658 1633 1629 1627 1724 1711 1604 1640 1747 1647 1671 1714 1679 1611 1718 1690 1687 1729 1599 1677 1662 1672 1607 1674 1614 1666 1614 1641 1640 1654 1708 1594 1672 1610 1677 1688 1599 1633 1590 1633 1650 1654 1616 1643 1585 1682 1569 1554 1763 1702 1690 1716 1559 1642 1619 1669 1692 1661 1635 1708 1649 1676 1633 1711 1705 1609 1656 1692 1634 1605 1638 1624 1585 1560 1630 1610 1687 1709 1667 1655 1670 1722 1714 1723 1746 1723 1757 1726 1851 1708 1847 1804 1910 1867 1872 1914 1942 1997 1938 1915 1973 1998 1884 1927 1990 1910 1931 1914 1858 1953 1835 1827 1865 1807 1855 1810 1782 1851 1808 1878 1882 1873 1841 1868 1856 1962 1966 1928 1931 1852 1952 1984 1981 2060 1879 1938 2032 2004 1979 1893 1999 1945 1862 1925 1858 1857 1970 1944 1928 1852 1782 1864 1784 1763 1717 1827 1663 1599 1581 1583 1549 1494 1617 1530 1610 1525 1548 1557 1566 1493 1457 1533 1496 1518 1492 1504 1483 1458 1523 1441 1426 1473 1472 1448 1445 1437 1502 1400 1526 1475 1472 1479 1488 1442 1641 1525 1533 1520 1617 1622 1533 1627 1612 1753 1755 1764 1709 1716 1784 1908 1937 2022 2043 2164 2226 2320 2305 2489 2410 2425 2476 2578 2546 2516 2451 2551 2371 2386 2205 2354 2238 2211 2230 2214 2146 2170 2223 2201 2176 2227 2181 2213 2202 2300 2331 2328 2413 2456 2455 2388 2422 2462 2469 2428 2402 2343 2294 2387 2370 2344 2233 2256 2237 2130 2013 2012 1977 2021 1882 1852 1889 1786 1748 1703 1728 1663 1585 1610 1544 1578 1509 1436 1395 1491 1420 1439 1385 1412 1416 1346 1331 1369 1425 1375 1330 1382 1332 1317 1345 1339 1435 1303 1392 1343 1390 1380 1355 1374 1398 1449 1382 1327 1367 1372 1406 1381 1290 1382 1324 1333 1326 1376 1336 1414 1309 1392 1300 1346 1347 1337 1308 1328 1332 1327 1327 1396 1395 1455 1377 1392 1433 1408 1378 1372 1379 1391 1344 1397 1428 1427 1420 1380 1379 1391 1339 1373 1336 1366 1371 1465 1360 1311 1387 1364 1427 1346 1343 1340 1378 1341 1402 1355 1391 1307 1363 1358 1331 1342 1384 1296 1391 1304 1344 1376 1300 1414 1380 1349 1384 1383 1393 1341 1403 1345 1379 1300 1239 1299 1302 1358 1274 1275 1325 1214 1203 1211 1322 1227 1241 1188 1231 1213 1184 1181 1233 1215 1140 1151 1197 1197 1166 1140 1140 1193 1141 1206 1213 1102 1153 1142 1182 1224 1164 1205 1240 1171 1236 1173 1134 1175 1162 1179 1124 1179 1208 1241 1232 1208 1228 1190 1180 1152 1220 1181 1192 1168 1134 1158 1114 1161 1136 1086 1180 1148 1127 1101 1155 1198 1177 1226 1178 1232 1216 1166 1236 1162 1261 1189 1209 1270 1198 1234 1222 1174 1186 1190 1232 1176 1314 1211 1207 1188 1257 1176 1253 1170 1141 1230 1147 1119 1190 1134 1176 1166 1256 1213 1195 1134 1146 1122 1165 1112 1125 1163 1233 1146 1181 1219 1212 1209 1195 1192 1191 1203 1215 1112 1189 1233 1191 1191 1144 1188 1145 1212 1195 1136 1115 1107 1149 1157 1085 1143 1176 1133 1155 1149 1117 1184 1217 1144 1133 1153 1166 1141 1251 1142 1163 1154 1199 1165 1106 1197 1156 1199 1167 1177 1207 1139 1139 1103 1131 1161 1172 1198 1173 1136 1155 1212 1172 1169 1133 1182 1077 1181 1073 1188 1140 1202 1161 1098 1168 1222 1148 1136 1101 1198 1149 1171 1173 1131 1121 1206 1161 1163 1162 1166 1199 1175 1159 1214 1151 1224 1154 1210 1249 1213 1207 1209 1208 1194 1239 1221 1328 1261 1276 1253 1256 1316 1294 1347 1357 1373 1467 1463 1529 1552 1545 1655 1754 1776 1869 2017 2096 2312 2316 2473 2620 2727 2828 2820 2770 2913 2942 2978 2942 2958 3000 3107 3006 2940 2990 2831 2768 2856 2738 2787 2699 2727 2612 2579 2646 2625 2675 2656 2785 2817 2718 2945 3000 3053 3203 3159 3066 3189 3324 3242 3458 3124 3308 3181 3168 3072 2927 2767 2740 2664 2579 2405 2432 2231 2130 2096 2031 1893 1864 1700 1731 1664 1647 1540 1457 1453 1433 1405 1427 1334 1284 1300 1280 1293 1232 1186 1207 1265 1220 1164 1271 1293 1179 1219 1141 1178 1119 1144 1124 1134 1140 1128 1141 1157 1175 1156 1099 1147 1138 1138 1122 1157 1169 1124 1181 1151 1096 1161 1157 1084 1104 1085 1075 1114 1056 1029 1082 1075 1039 1151 1107 1166 1133 1152 1094 1105 1068 1090 1145 1075 1128 1158 1072 1028 1070 1073 1017 1134 1157 1051 1026 1070 1073 1100 1069 1101 1078 1100 1070 1094 1059 1090 1098 1071 1065 1098 1046 1043 1187 1055 1111 1070 1050 1079 1119 1069 1152 1031 1083 1057 1081 1043 1128 1090 1044 1144 1029 980 1041 1054 1088 1043 1078 1124 1136 1029 1061 1127 1081 1002 1020 1031 1014 1068 1067 1063 1113 1038 1014 998 1034 989 1039 1050 972 1042 1032 1101 1074 1028 1033 1067 1010 1047 1043 1049 1087 1016 1018 1031 1038 1015 1037 1056 1039 1054 1035 1028 1057 989 1000 1098 1048 1026 1000 1014 1035 1016 1036 1043 1034 986 1014 1016 1000 987 1022 1053 1050 1042 985 1030 969 1058 1042 1039 1020 979 1024 1044 1041 978 1084 996 1046 961 1023 1079 1021 1067 1026 1064 1060 1012 1019 1049 1043 1020 1053 1080 1032 999 1066 1027 1027 1047 1105 970 1101 1046 1030 992 1018 1000 1093 1017 1077 1091 1045 1095 1037 1050 1122 1161 1043 1063 1084 1072 1081 1182 1040 1072 1168 1183 1126 1164 1097 1168 1188 1126 1162 1138 1213 1176 1126 1103 1151 1179 1130 1184 1123 1177 1060 1107 1066 1133 1116 1142 1092 1158 1114 1124 1049 1080 1038 1119 1054 1085 1079 998 1084 1017 1007 1060 1079 1033 1035 1102 1066 997 1001 1053 1042 1096 1008 1001 1076 953 974 1021 1076 1017 1004 1018 1005 997 957 1030 994 974 992 1012 955 1023 996 976 1013 1007 955 899 1029 1016 1021 1025 1004 1004 1012 945 1086 976 980 1013 1049 923 999 987 988 1030 1005 951 1048 1036 1051 982 1003 1054 1046 996 982 1020 1035 1057 1003 976 1079 1031 973 997 1028 1035 947 976 1033 962 1013 1010 971 1063 1050 1027 996 958 1044 1035 992 964 969 985 972 1003 972 1004 966 997 937 949 993 941 1006 955 1007 1070 1012 1029 1053 1037 1027 1035 1125 1012 1064 1073 1136 1041 1107 1074 1059 1105 1102 1010 1085 1111 1058 1098 1123 1075 1087 1012 1016 1043 1113 1036 1043 1039 1032 1055 1114 1038 1119 1124 1068 1076 1083 1077 1001 1055 1047 1082 1034 1093 1014 1125 1075 1064 1040 1022 1058 1059 1078 1002 1010 969 995 994 997 1036 987 1069 953 971 949 1030 991 979 969 958 990 949 1040 891 972 996 986 941 959 939 937 989 1017 1005 935 984 921 933 930 944 954 920 1009 975 1008 903 990 988 966 951 992 954 979 934 1023 931 986 971 994 993 996 1021 961 925 973 1019 989 941 937 964 963 960 994 1026 934 933 997 997 934 1038 920 990 1023 929 984 922 968 995 962 969 978 958 996 961 965 974 962 957 953 974 1019 953 951 948 988 905 919 957 938 937 955 915 961 952 959 882 990 988 986 1001 1023 896 961 920 939 973 925 938 916 910 927 955 896 895 969 956 943 959 925 944 963 996 905 941 976 932 883 911 879 924 969 933 967 949 896 953 965 932 1028 925 967 958 901 968 925 957 904 884 897 977 952 990 982 929 942 967 922 914 1051 937 914 943 898 982 1023 879 904 901 946 974 917 959 984 899 969 956 962 967 958 931 1049 924 991 936 955 926 945 879 929 972 971 976 941 946 899 919 970 947 895 959 906 949 998 928 1029 937 961 991 917 940 970 1004 1020 938 1007 976 990 1051 1019 1005 1013 1066 1078 1029 1070 1110 996 1048 1007 1039 1048 1019 1056 992 1049 1049 1061 1058 1074 1017 1116 1089 1071 1084 1007 966 1059 960 1038 1032 995 1041 1022 1012 1020 1057 1014 1015 978 983 1028 996 1045 974 981 1021 1023 978 1003 982 963 1015 959 1067 957 974 989 985 1001 979 953 921 1045 987 1014 1019 987 959 1000 998 950 924 965 943 989 963 942 983 958 942 1004 930 957 1007 1016 905 994 975 969 949 942 972 962 943 968 942 935 924 893 916 912 941 920 938 981 946 954 935 968 949 983 895 965 995 936 975 947 945 1053 949 997 935 1014 955 881 990 978 907 943 988 966 950 952 917 948 925 991 932 941 930 996 923 919 954 890 977 903 898 919 924 937 935 909 995 923 855 918 886 961 967 872 924 945 899 916 895 908 941 928 946 949 957 941 938 878 958 922 928 917 939 941 960 930 944 921 1024 996 1005 959 994 980 1025 960 987 974 944 950 968 937 903 934 969 943 987 978 1005 964 939 993 888 927 963 956 905 953 953 958 929 914 924 936 959 922 955 990 1045 953 970 920 986 955 1018 942 975 997 1077 1027 1079 1033 1075 1075 1107 1082 1179 1113 1139 1116 1218 1131 1192 1230 1228 1250 1314 1290 1308 1262 1293 1278 1315 1280 1298 1274 1259 1244 1258 1228 1275 1263 1199 1216 1149 1179 1206 1196 1289 1183 1207 1132 1170 1244 1162 1138 1186 1219 1179 1220 1157 1165 1116 1157 1153 1054 1118 1128 1097 1145 1093 1071 1078 1014 996 1021 1094 976 943 1054 942 1028 970 943 945 1013 992 990 886 994 974 988 956 928 912 948 938 957 945 916 930 976 922 936 895 900 903 947 929 913 949 911 955 947 926 913 932 945 927 917 918 934 931 904 953 922 913 952 928 935 895 960 874 923 938 924 916 909 923 955 903 880 916 916 863 901 900 957 943 869 916 952 912 925 840 936 972 937 970 941 902 934 900 939 926 916 908 892 915 975 927 909 921 974 948 925 906 954 979 941 950 956 934 952 967 973 923 863 988 923 949 905 947 944 960 956 968 949 932 917 880 922 926 884 941 879 933 900 911 987 982 987 902 955 933 941 942 946 879 960 957 885 940 1013 893 903 897 903 910 894 879 879 932 883 903 908 964 962 925 916 932 961 931 872 985 884 920 956 1019 939 956 947 948 968 896 936 866 911 936 916 926 873 892 958 953 930 935 928 944 920 1025 936 930 940 944 959 921 947 921 893 930 927 951 1007 909 926 931 942 880 939 913 965 922 905 959 979 913 923 908 935 875 956 924 975 965 922 899 934 959 959 946 1024 909 929 969 939 877 940 1008 947 1016 936 867 945 903 943 929 965 872 923 961 906 961 951 901 946 910 940 929 953 966 916 962 916 951 930 957 1012 1018 988 955 1048 1013 956 990 1051 1077 1033 1007 1039 971 1039 1005 989 1026 923 970 999 992 948 932 1030 982 1003 992 1019 1001 1064 997 1000 1022 981 1010 1030 1122 983 1083 1096 1136 1078 1064 1089 1097 1061 1147 1112 1155 1146 1206 1150 1252 1233 1318 1273 1335 1416 1397 1491 1525 1655 1599 1741 1683 1773 1756 1843 1761 1949 1892 1988 1923 2024 1918 1944 2007 1977 1983 2027 2009 2119 2075 2131 2122 2161 2081 2088 2039 1987 2083 2160 2045 2235 2062 2220 2118 2191 2102 2200 2041 2201 1990 2167 2038 2011 1987 1920 1948 1904 1807 1913 1842 1872 1727 1746 1678 1722 1582 1629 1626 1516 1474 1552 1497 1490 1424 1391 1388 1380 1290 1330 1258 1212 1170 1190 1171 1164 1073 1132 1094 1055 1035 1143 1075 1010 1016 1014 1020 1028 991 974 1001 976 989 958 942 992 961 925 974 911 907 913 920 960 911 901 904 905 919 951 921 909 921 912 940 876 919 855 907 873 990 912 911 916 968 927 876 925 929 911 906 859 931 911 896 909 926 916 912 895 887 900 922 926 907 915 835 927 927 936 920 864 935 892 834 899 912 887 929 872 931 888 958 903 892 889 894 934 936 907 822 926 931 905 877 933 908 831 817 885 878 868 880 883 855 891 905 911 827 930 896 935 913 861 885 830 914 845 904 905 896 879 904 918 954 930 920 875 903 895 949 933 909 909 919 862 954 940 947 913 925 908 926 927 948 971 987 960 991 1034 960 1023 1014 1012 953 984 1056 1025 1011 1004 1018 995 977 1025 1030 1058 1013 1044 1087 1030 1052 1062 1024 998 1023 963 1029 1028 975 975 964 1020 990 1003 1041 949 922 998 986 1001 970 999 945 997 992 926 940 906 900 904 899 864 907 893 964 941 860 953 874 912 926 857 866 876 899 918 864 917 927 862 893 868 846 879 911 903 942 913 915 939 941 910 942 962 980 939 1043 1011 1022 980 989 974 1013 954 984 1009 990 1020 965 914 982 1000 926 1000 967 1004 963 1038 969 922 943 1003 997 965 984 985 1012 985 979 981 992 983 1049 977 994 980 919 918 913 996 946 925 947 946 937 910 897 946 988 907 875 923 883 904 895 904 858 841 878 909 938 929 874 918 915 908 887 873 827 886 911 891 882 868 897 884 880 930 836 811 888 842 916 775 869 902 842 808 839 872 878 881 883 922 874 838 820 895 839 949 889 867 882 814 906 892 897 908 833 809 841 919 852 785 818 839 880 840 810 860 829 894 885 869 851 880 858 861 812 868 856 829 808 815 842 871 875 838 807 866 811 841 864 869 822 853 872 842 864 886 871 908 840 881 893 868 910 886 861 850 838 827 819 926 871 847 827 858 842 867 831 829 796 843 850 913 887 876 878 854 871 904 826 862 848 865 856 818 827 841 832 812 845 837 838 806 772 807 860 878 869 849 837 859 827 873 857 779 911 846 832 882 854 893 833 871 792 868 846 784 913 852 840 823 872 821 840 828 826 888 847 877 826 862 882 896 851 879 854 860 873 825 864 853 887 890 871 904 880 851 794 880 808 872 806 873 848 862 830 845 848 859 855 847 902 880 864 791 798 862 820 805 859 848 892 947 880 901 899 889 882 865 892 870 914 916 926 895 959 896 868 857 867 889 916 951 879 892 917 889 865 840 842 917 875 898 886 836 947 885 853 848 821 922 832 825 851 902 891 879 865 840 900 789 876 830 861 769 883 869 841 858 825 776 851 825 850 893 831 854 814 826 866 835 860 867 832 843 830 838 876 820 864 838 856 840 813 838 824 873 836 839 886 912 843 843 845 832 876 851 826 819 837 851 835 800 784 845 839 846 850 882 894 847 923 805 864 839 881 852 869 805 819 817 845 877 921 865 855 839 892 825 840 815 832 804 842 847 799 891 919 835 873 829 838 795 808 884 883 859 854 884 854 794 887 830 775 818 865 804 870 887 825 832 842 815 824 837 862 809 845 844 829 803 828 839 805 847 855 885 830 793 841 913 802 913 802 877 868 861 845 879 841 905 914 885 881 813 863 904 920 956 857 868 917 874 888 907 828 871 941 890 878 863 918 915 940 856 955 895 969 922 896 942 956 949 868 980 954 944 932 918 854 896 941 968 952 975 945 926 938 928 933 935 931 893 918 913 939 890 841 902 913 926 961 901 921 894 910 905 931 912 924 907 948 947 934 934 884 971 972 1018 991 963 900 954 989 992 1024 1003 991 1021 990 1051 1069 1083 1083 1091 1097 1124 1102 1232 1063 1121 1152 1146 1125 1178 1121 1193 1196 1195 1095 1203 1203 1183 1155 1200 1206 1214 1215 1157 1226 1200 1191 1090 1158 1085 1177 1170 1113 1139 1161 1153 1112 1197 1149 1154 1124 1114 1121 1120 996 1104 1031 1111 1027 1014 980 1063 1008 1009 994 989 943 971 1015 942 913 984 897 944 916 938 945 938 862 921 889 866 942 931 889 918 907 883 817 871 926 882 832 879 905 885 922 883 800 868 840 871 801 875 814 933 863 847 890 880 869 942 877 857 872 874 920 826 896 873 844 868 853 868 916 880 890 893 804 838 824 838 827 848 842 800 866 792 821 862 809 853 822 862 792 826 916 796 794 861 887 833 861 818 839 801 736 800 876 823 794 851 786 832 836 874 833 812 842 854 863 841 861 840 836 820 856 822 801 836 806 826 844 808 856 823 830 808 827 818 841 839 759 827 813 795 874 785 803 832 804 848 820 837 796 786 798 792 829 841 867 816 817 850 856 811 787 847 800 794 835 853 804 859 848 858 794 851 789 841 835 817 822 849 842 850 840 837 863 862 834 873 851 821 839 906 876 870 897 894 904 870 849 947 940 901 930 1021 1033 1045 1062 1055 1016 1067 1052 1045 1072 1048 1091 1091 1113 1137 1047 1022 1051 996 1099 1125 1074 1067 1076 1106 1104 1056 1060 1058 1082 1011 1065 1025 1063 1035 1016 1007 1067 1089 1080 1036 1029 957 983 1019 994 1012 1015 972 975 963 980 1008 977 972 1002 917 957 960 939 954 917 899 909 956 920 900 918 923 888 858 864 892 902 882 940 882 849 886 915 849 823 850 888 887 812 852 871 822 880 826 880 806 845 857 810 861 803 855 790 838 797 820 847 817 808 821 854 815 858 859 852 832 832 785 829 862 785 842 796 818 777 841 847 790 822 801 822 818 751 789 810 816 830 860 822 778 786 854 768 816 796 793 818 796 832 837 802 782 817 845 814 893 835 783 810 766 779 850 826 804 849 855 829 830 823 838 840 873 859 834 803 823 784 835 789 821 805 830 811 801 828 847 806 816 774 879 824 849 882 815 903 824 884 842 909 826 819 888 877 857 787 830 901 854 817 816 858 878 840 846 881 882 924 927 871 920 894 881 906 916 902 906 888 905 824 917 925 885 874 911 907 934 888 910 866 893 827 889 885 850 869 927 869 900 888 892 895 897 899 891 886 847 881 882 902 792 825 880 803 814 796 907 838 838 818 845 825 802 827 854 835 835 781 816 815 766 834 822 828 837 819 837 812 823 792 822 857 830 846 783 782 804 818 782 774 790 804 856 805 852 801 795 769 789 763 788 801 732 803 755 852 773 826 831 745 782 798 808 826 837 735 830 843 827 880 848 853 823 836 823 807 830 814 877 862 829 857 851 826 858 782 805 791 854 781 836 822 791 797 799 818 767 772 888 846 871 818 805 840 843 830 844 776 831 763 825 820 818 790 839 823 786 826 805 730 778 761 782 786 832 851 798 812 842 808 813 793 863 809 827 846 794 822 836 785 799 796 772 797 810 810 797 816 807 803 831 840 847 755 825 819 804 777 790 754 798 807 812 754 809 771 776 833 785 822 749 826 760 810 787 862 735 788 804 832 778 781 813 803 787 768 799 741 801 814 834 748 740 819 768 820 763 761 762 842 800 789 814 773 809 794 782 766 803 764 775 781 818 757 759 728 752 798 795 755 809 833 820 806 779 805 806 780 791 780 800 733 758 796 786 777 799 788 812 736 804 804 827 747 793 768 804 808 795 839 788 827 781 781 795 797 784 784 780 745 769 803 802 780 750 785 797 843 863 836 833 834 860 780 805 785 825 852 826 792 912 793 836 840 846 816 821 861 838 862 869 853 830 810 880 842 804 776 840 787 802 816 875 850 857 833 816 780 843 825 824 861 866 810 816 828 812 848 803 812 763 844 799 762 804 827 830 805 823 870 779 829 780 787 819 831 839 836 791 783 780 824 803 766 834 799 786 783 793 774 733 809 762 800 797 767 821 761 831 778 815 795 789 802 793 759 777 879 736 788 769 806 741 796 781 797 813 788 726 801 837 790 843 759 792 769 800 803 769 722 858 789 786 784 810 743 820 785 778 795 795 725 766 790 814 809 806 761 795 745 803 806 767 792 806 731 802 820 804 784 775 745 779 729 767 805 729 814 809 769 820 802 803 774 780 785 803 826 786 780 822 775 873 774 796 795 846 834 806 799 756 826 811 762 828 815 818 826 827 849 829 845 813 805 848 850 856 867 819 836 895 883 815 852 786 846 851 825 856 828 793 854 851 847 805 864 835 858 803 881 848 813 854 816 810 834 787 831 904 832 803 832 838 812 778 832 821 829 846 791 856 808 823 811 793 828 850 826 807 843 833 793 750 763 785 814 802 864 799 833 794 830 824 804 796 832 825 825 802 797 784 837 855 834 770 766 788 794 804 769 799 717 742 803 812 797 757 758 767 793 809 720 829 808 762 829 819 807 807 818 823 770 797 778 829 784 790 806 766 801 788 804 800 809 820 801 796 807 768 809 784 799 788 768 773 759 793 856 775 769 766 828 787 798 827 829 769 846 795 779 837 861 796 817 764 800 803 768 862 807 813 792 827 836 800 801 781 881 798 798 803 776 774 766 846 768 816 815 781 815 847 762 800 769 794 763 738 816 755 778 804 842 836 829 837 800 736 811 750 816 800 796 751 789 786 789 777 792 777 803 785 761 753 807 792 785 786 754 733 721 789 758 788 766 749 781 773 777 756 759 796 756 773 798 852 867 739 832 782 739 803 770 792 821 810 826 758 757 784 776 852 798 789 782 729 800 766 794 785 806 826 821 812 832 804 829 825 765 778 760 784 810 827 803 837 838 815 818 848 840 822 830 837 819 831 831 878 850 846 802 871 806 885 808 844 862 841 855 820 869 889 853 859 858 892 844 936 894 873 899 912 938 913 914 930 984 971 922 943 1002 954 935 1028 985 979 985 942 985 995 976 935 921 969 943 968 944 1016 1004 976 991 1016 1021 958 1005 1002 1048 961 1049 927 973 922 963 943 957 926 983 897 957 925 967 896 926 932 872 889 930 936 844 914 831 864 910 861 897 856 903 873 831 839 839 856 875 854 857 855 813 867 831 833 831 800 844 846 813 760 858 809 856 814 816 775 875 779 798 760 771 775 773 826 792 779 780 820 817 760 768 850 801 785 810 779 820 785 812 773 815 773 818 789 764 767 834 770 814 777 851 803 816 855 796 720 779 764 801 778 735 783 786 841 818 773 757 764 817 803 767 757 792 797 737 788 766 814 766 797 768 788 828 800 815 791 811 807 825 776 776 764 822 775 768 788 816 835 820 769 776 791 777 766 779 768 781 804 762 784 799 816 798 822 800 829 795 778 853 841 831 805 790 793 799 848 805 825 785 753 795 804 803 822 787 783 840 811 813 858 765 779 822 832 820 788 811 797 823 808 820 797 816 864 866 824 781 861 761 784 771 851 769 780 735 807 809 769 785 764 776 837 803 809 771 789 801 788 801 756 835 793 803 753 782 823 841 780 775 823 810 709 784 755 774 824 806 748 781 788 836 823 808 734 817 760 857 834 764 839 868 790 803 771 773 746 723 769 794 754 807 799 812 769 828 773 799 826 772 796 773 754 751 762 790 806 749 793 760 793 805 792 793 762 787 785 839 830 788 803 822 815 845 778 818 816 858 845 807 738 800 783 781 810 841 752 766 826 804 838 811 850 765 748 754 796 835 829 781 766 815 766 798 800 859 822 805 770 761 797 796 826 766 802 787 824 803 767 808 806 786 797 799 804 805 788 757 753 751 843 748 730 776 787 797 747 746 764 796 847 794 752 804 781 739 810 752 814 833 826 814 834 762 817 779 798 792 770 765 794 851 797 832 770 844 777 858 817 788 781 759 807 816 801 793 786 766 790 768 874 805 795 732 778 808 766 855 810 854 776 743 786 777 826 807 797 811 762 796 771 832 814 771 810 745 841 808 799 787 755 752 761 784 811 776 794 831 801 805 821 821 795 800 823 837 803 813 797 820 828 825 789 801 826 822 811 785 777 782 806 803 844 788 845 799 837 836 809 867 802 805 855 807 812 843 796 829 829 785 833 805 817 815 802 797 815 816 854 786 785 814 812 847 831 807 818 798 815 752 832 808 814 803 752 806 793 773 795 791 819 881 791 822 797 822 829 793 789 827 761 808 830 790 725 881 779 801 828 814 817 843 758 788 784 742 786 774 802 818 813 784 804 845 799 779 827 801 853 795 784 825 812 773 832 817 819 803 777 819 776 864 816 841 837 777 810 770 855 814 762 759 795 781 760 825 769 782 769 819 742 793 839 848 780 860 863 863 807 813 818 783 791 836 839 777 815 780 821 843 823 798 800 831 804 773 880 808 827 898 915 821 820 809 779 821 863 853 871 823 859 843 835 847 818 845 832 913 847 849 857 871 884 834 884 899 844 918 813 917 847 884 841 833 868 859 857 821 828 845 864 850 867 901 905 843 840 855 892 883 879 890 896 898 889 893 890 875 861 865 910 872 898 935 869 915 898 867 960 917 878 895 963 905 896 912 993 898 956 956 922 890 946 948 966 987 959 997 1027 996 995 1003 1024 1034 938 975 1012 937 1002 997 973 949 1000 930 942 985 978 991 937 960 916 983 992 988 942 1031 1015 985 982 990 985 943 971 963 916 874 937 971 914 913 922 948 871 952 939 902 876 912 896 888 827 861 912 829 896 873 856 864 819 834 817 850 864 877 806 886 844 854 807 820 834 875 879 860 866 852 846 872 791 792 772 828 795 844 809 822 845 799 850 826 853 819 840 822 777 835 844 791 858 823 789 809 776 767 785 826 817 825 799 798 819 805 856 834 785 835 779 802 796 808 815 848 813 811 832 835 852 819 839 819 851 813 758 798 846 769 828 864 796 777 818 826 772 810 872 817 792 826 862 859 818 755 833 861 855 773 856 805 827 853 859 882 865 850 839 842 829 828 818 825 880 859 849 782 847 792 850 847 829 835 859 879 883 827 828 829 838 885 868 837 893 919 842 889 897 872 881 911 914 987 893 1006 929 923 959 907 958 956 970 962 924 1014 958 967 965 962 950 1027 986 984 985 1063 1033 1043 1007 1021 1022 968 1052 1024 986 1044 1053 990 1077 1067 977 1038 1054 967 1071 1015 1037 1001 1086 1010 981 1065 978 1014 986 1031 1056 978 975 989 1007 976 997 1013 1016 957 933 995 983 955 992 935 985 970 960 935 930 869 901 959 914 854 891 963 896 896 951 869 933 906 852 883 845 903 906 893 861 821 830 843 862 810 847 870 844 872 835 899 867 806 835 808 858 842 836 898 863 852 842 789 881 831 801 779 811 827 861 807 826 818 778 844 824 796 901 866 836 848 784 799 839 808 790 881 811 811 836 875 828 832 821 827 791 835 860 783 864 833 819 823 806 823 867 796 804 793 803 769 817 831 797 799 791 830 812 815 795 832 806 862 833 810 834 774 844 808 828 865 823 812 863 810 835 823 893 838 820 835 839 848 806 829 872 845 831 838 876 889 847 857 841 849 882 861 834 821 846 849 829 867 846 828 877 883 806 894 907 869 853 845 851 859 799 842 822 828 823 781 803 831 829 785 849 813 822 770 790 821 850 811 788 801 798 847 779 819 837 797 853 831 850 756 837 859 837 854 832 842 810 830 786 797 822 847 822 822 795 806 779 838 784 829 809 783 792 769 754 820 847 825 795 806 831 860 821 796 787 816 796 839 857 803 837 805 799 783 801 862 802 836 790 771 801 794 836 805 830 846 814 822 840 818 875 803 816 768 857 794 841 777 844 822 816 805 827 793 746 828 807 820 780 766 810 798 804 766 831 778 876 805 865 799 855 809 803 789 836 861 880 807 839 838 791 784 818 837 878 873 763 825 820 774 771 775 809 818 781 834 807 765 749 775 782 822 766 825 800 810 798 811 761 828 820 814 805 790 852 754 826 771 857 809 793 789 802 792 762 781 790 804 748 774 789 797 862 827 814 800 772 797 838 848 747 829 824 819 819 854 824 788 780 805 801 835 791 752 758 784 798 849 815 764 825 786 757 806 757 815 809 850 792 816 836 814 816 816 768 826 805 870 797 780 791 739 824 805 779 816 782 744 815 783 795 763 857 782 792 798 761 783 752 792 786 813 842 772 802 840 824 831 770 829 865 820 788 816 816 783 778 799 829 794 820 846 793 822 797 774 772 858 821 807 865 796 794 838 769 805 851 793 813 792 829 790 822 797 814 804 823 824 801 814 788 779 813 835 830 807 841 830 752 811 790 816 769 874 803 844 821 815 775 829 812 758 818 833 815 811 807 817 820 785 808 814 807 801 777 807 801 805 792 808 811 797 815 826 831 804 806 867 880 828 824 828 818 835 751 814 870 835 825 788 862 839 779 835 833 849 797 825 809 828 780 837 863 778 824 791 807 838 763 814 814 795 849 799 821 803 796 807 850 790 826 866 779 825 757 786 800 826 840 809 855 794 810 810 796 827 848 809 809 831 791 826 852 875 877 867 829 781 800 842 859 879 799 925 839 807 820 838 862 826 859 814 886 859 858 869 866 908 847 844 868 841 843 849 856 867 821 815 892 841 820 909 911 838 820 850 808 860 875 890 816 844 860 887 859 889 905 862 912 842 873 869 833 841 832 852 838 868 870 887 841 807 890 867 866 910 839 850 858 913 805 817 856 809 816 835 888 822 832 798 844 820 875 793 788 821 851 845 810 820 829 828 818 811 839 823 832 805 816 795 777 850 846 828 853 796 793 793 810 894 842 838 782 812 818 869 801 728 788 783 815 806 874 825 866 849 814 869 776 810 826 810 799 847 832 848 787 843 805 807 817 857 854 847 823 849 856 816 809 812 819 823 840 832 850 824 906 795 817 824 820 860 909 819 848 837 862 893 831 872 813 815 847 788 834 827 839 814 803 818 833 788 778 812 832 785 842 794 820 888 837 809 793 843 845 786 844 832 846 790 789 853 810 815 766 829 847 807 815 820 851 851 812 809 780 883 894 799 827 815 781 840 799 804 778 801 815 825 820 848 794 822 802 826 826 822 840 843 811 796 827 853 856 835 829 830 820 846 806 797 818 845 883 847 843 833 797 855 859 825 873 883 823 856 850 843 836 809 870 853 887 859 860 875 860 862 830 890 842 852 870 878 900 855 926 880 903 900 945 915 908 893 942 922 1002 911 1025 985 938 953 1010 1010 968 1012 979 958 1008 957 971 971 1031 1047 1033 1032 1056 994 1026 1050 1034 1032 1007 1005 1032 1067 1055 1103 1046 1054 1041 1077 1046 1059 985 1017 1035 1038 1038 1088 969 1003 955 979 1014 1033 950 1011 996 963 1000 1008 950 985 1020 945 955 1021 968 1010 930 910 891 966 947 978 959 936 873 952 898 954 961 942 898 865 918 897 910 897 969 876 857 947 958 844 891 890 888 887 914 907 835 800 930 896 903 829 853 921 814 870 863 853 896 856 924 831 786 801 848 844 809 830 867 827 857 808 856 833 830 815 840 808 876 836 842 875 815 869 869 881 832 848 840 850 813 841 887 833 843 822 867 863 796 870 846 879 890 812 860 848 820 828 829 806 835 874 844 818 894 818 847 805 894 857 847 774 857 842 853 849 840 825 795 898 887 856 847 808 839 859 838 809 886 807 852 846 869 867 830 852 855 803 852 856 852 830 847 865 860 871 821 864 858 880 836 851 865 793 780 872 776 836 830 844 846 835 834 826 855 774 829 844 788 840 810 878 839 835 805 783 786 806 853 830 822 900 817 787 861 870 866 810 871 838 793 819 819 748 809 846 818 802 819 816 853 816 861 846 780 815 745 809 810 882 871 869 776 825 789 823 832 773 840 843 824 848 835 844 813 844 813 836 820 816 834 840 832 799 837 791 808 803 813 814 790 816 827 828 862 776 861 803 839 821 787 793 866 849 803 836 850 807 790 834 847 891 786 817 797 779 855 841 797 843 778 804 810 852 814 835 776 758 808 819 840 795 794 842 846 838 799 803 804 794 882 836 847 764 836 844 879 853 780 828 809 759 802 742 787 766 815 818 823 754 832 800 839 747 805 831 776 841 791 815 887 841 810 866 879 761 805 791 842 791 763 764 850 818 805 830 774 828 814 821 788 860 805 812 814 781 788 802 799 815 776 839 851 836 812 832 813 862 790 774 808 822 844 804 852 776 797 792 791 810 821 834 814 825 759 814 777 825 807 880 864 800 874 836 842 831 785 792 810 850 863 770 830 833 831 769 845 892 850 804 825 824 845 804 862 873 829 790 857 798 786 800 811 827 833 837 776 827 790 819 784 806 806 889 848 779 815 858 881 840 824 816 830 796 822 825 792 922 813 824 849 857 791 853 834 855 836 805 797 845 864 821 791 824 858 873 783 788 800 805 851 876 884 794 849 827 864 807 848 845 856 864 796 751 878 782 819 799 798 844 790 845 823 827 796 837 844 798 825 807 868 835 764 821 830 726 851 847 810 827 787 829 809 824 853 823 835 848 803 810 817 839 798 831 836 836 842 827 826 826 827 844 756 828 801 851 792 772 836 838 816 814 868 810 785 830 830 852 899 865 748 849 859 844 823 816 838 862 886 842 866 779 797 853 811 796</counts>
			</dataPoints>
		</scan>
	</xrdMeasurement>
</xrdMeasurements>
