<?xml version="1.0"?>
<xrdMeasurements xmlns="http://www.xrdml.com/XRDMeasurement/2.3" xmlns:xsi="http://www.w3.org/2001/XMLSchema-instance" xsi:schemaLocation="http://www.xrdml.com/XRDMeasurement/2.3 http://www.xrdml.com/XRDMeasurement/2.3/XRDMeasurement.xsd" status="Completed" recordIdentifier="{A7E751A6-BB21-4136-A674-2A4D34B55576}">
	<comment>
		<entry/>
	</comment>
	<sample type="To be analyzed">
		<id>GPSS_Li1p8Ni0p8Y0p2Cl4_121325_693cb366f4d05ae3d69752bc</id>
		<name></name>
		<preparedBy></preparedBy>
	</sample>
	<xrdMeasurement measurementType="Scan" status="Completed" sampleMode="Reflection">
		<usedWavelength intended="K-Alpha 1">
			<kAlpha1 unit="Angstrom">1.5405980</kAlpha1>
			<kAlpha2 unit="Angstrom">1.5444260</kAlpha2>
			<kBeta unit="Angstrom">1.3922500</kBeta>
			<ratioKAlpha2KAlpha1>0.5000</ratioKAlpha2KAlpha1>
		</usedWavelength>
		<incidentBeamPath>
			<radius unit="mm">145.00</radius>
			<xRayTube id="1010048" name="Empyrean Cu LFF HR (9430 033 7310x)">
				<tension unit="kV">40.0</tension>
				<current unit="mA">15.0</current>
				<anodeMaterial>Cu</anodeMaterial>
				<focus type="Line">
					<length unit="mm">12.0</length>
					<width unit="mm">0.4</width>
					<takeOffAngle unit="deg">6.0</takeOffAngle>
				</focus>
			</xRayTube>
			<sollerSlit id="21010002" name="Soller slits 0.04 rad.">
				<opening unit="rad">0.0400</opening>
			</sollerSlit>
			<mask id="22031000" name="Fixed mask 13 mm">
				<width unit="mm">9.00</width>
			</mask>
			<divergenceSlit id="22120001" name="Divergence slit 1°" xsi:type="fixedDivergenceSlitType">
				<distanceToSample unit="mm">50.00</distanceToSample>
				<height unit="mm">1.52</height>
			</divergenceSlit>
		</incidentBeamPath>
		<sampleMovement xsi:type="spinningSampleMovementType">
			<spinnerRevolutionTime unit="seconds">1.0</spinnerRevolutionTime>
		</sampleMovement>
		<diffractedBeamPath>
			<radius unit="mm">145.00</radius>
			<antiScatterSlit id="22090040" name="AS slit 9 mm (PIXcel)" xsi:type="fixedAntiScatterSlitType">
				<height unit="mm">9.00</height>
			</antiScatterSlit>
			<sollerSlit id="21020003" name="Large Soller slits 0.04 rad.">
				<opening unit="rad">0.0400</opening>
			</sollerSlit>
			<filter id="20030001" name="Large beta-filter Nickel">
				<material>Ni</material>
				<thickness unit="mm">0.020</thickness>
			</filter>
			<detector id="7010019" name="PIXcel1D-Medipix3 detector" xsi:type="rtmsDetectorType">
				<phd unit="keV">
					<lowerLevel>4.02</lowerLevel>
					<upperLevel>11.27</upperLevel>
				</phd>
				<mode>Scanning</mode>
				<activeLength unit="deg">5.542</activeLength>
			</detector>
		</diffractedBeamPath>
		<scan appendNumber="0" mode="Continuous" scanAxis="Gonio" status="Completed">
			<header>
				<startTimeStamp>2025-12-17T12:20:58-08:00</startTimeStamp>
				<endTimeStamp>2025-12-17T12:29:05-08:00</endTimeStamp>
				<author>
					<name>AutomatedUser</name>
				</author>
				<source>
					<applicationSoftware version="1.7b (136)">PANalytical Aeris Instrument Suite</applicationSoftware>
					<instrumentControlSoftware version="3.2.00000000 20240306">AERIS</instrumentControlSoftware>
					<instrumentID>950485</instrumentID>
				</source>
			</header>
			<dataPoints>
				<positions axis="2Theta" unit="deg">
					<startPosition>10.00943322</startPosition>
					<endPosition>99.99442286</endPosition>
				</positions>
				<positions axis="Omega" unit="deg">
					<startPosition>5.00471661</startPosition>
					<endPosition>49.99721143</endPosition>
				</positions>
				<commonCountingTime unit="seconds">12.495</commonCountingTime>
				<counts unit="counts">2276 2195 2248 2204 2248 2207 2255 2404 2330 2201 2403 2255 2274 2259 2282 2270 2316 2255 2326 2248 2235 2373 2304 2217 2233 2273 2270 2227 2314 2228 2345 2330 2252 2261 2203 2212 2252 2283 2232 2267 2186 2267 2234 2358 2228 2335 2330 2252 2269 2281 2212 2177 2250 2339 2251 2348 2263 2254 2294 2231 2257 2207 2236 2279 2297 2284 2221 2190 2247 2184 2277 2250 2188 2159 2159 2182 2230 2224 2216 2142 2310 2303 2140 2243 2134 2214 2211 2191 2132 2253 2284 2197 2224 2193 2217 2297 2226 2274 2218 2321 2271 2293 2253 2275 2258 2217 2311 2186 2243 2245 2183 2203 2127 2233 2290 2302 2299 2225 2186 2217 2236 2222 2219 2315 2193 2248 2258 2169 2258 2201 2240 2269 2136 2211 2294 2154 2257 2301 2288 2217 2215 2258 2286 2280 2371 2168 2269 2305 2193 2308 2229 2180 2240 2167 2206 2188 2121 2184 2208 2149 2210 2166 2188 2147 2233 2212 2274 2236 2240 2226 2235 2192 2226 2156 2226 2177 2135 2121 2170 2254 2133 2172 2183 2272 2173 2204 2173 2200 2228 2176 2235 2116 2132 2201 2120 2164 2273 2195 2219 2144 2159 2184 2259 2149 2121 2184 2210 2137 2049 2153 2191 2145 2102 2254 2212 2241 2256 2158 2140 2125 2214 2143 2090 2101 2194 2217 2177 2161 2199 2127 2165 2142 2149 2142 2221 2097 2168 2119 2137 2083 2194 2130 2109 2114 2123 2233 2194 2213 2154 2177 2205 2101 2156 2178 2160 2164 2160 2143 2200 2059 2124 2131 2165 2133 2138 2063 2105 2140 2108 2176 2116 2083 2187 2197 2222 2133 2097 2207 2074 2132 2131 2207 2132 2163 2155 2131 2161 2079 2117 2131 1990 2157 2098 2151 2128 2175 2164 2114 2113 2095 2158 2087 2026 2146 2090 2137 2107 2214 2068 2107 2116 2200 2150 2254 2021 2099 2119 2155 2219 2070 2108 2086 2158 2145 2169 2161 2183 2193 2225 2173 2113 2135 2214 2184 2219 2165 2160 2120 2162 2135 2273 2265 2151 2333 2205 2181 2178 2263 2147 2282 2194 2225 2212 2209 2168 2263 2260 2396 2278 2334 2361 2216 2298 2273 2388 2290 2374 2412 2311 2358 2366 2344 2355 2439 2241 2347 2363 2424 2413 2349 2422 2389 2488 2417 2420 2416 2470 2442 2461 2479 2401 2477 2472 2494 2366 2384 2411 2377 2453 2433 2391 2410 2324 2337 2426 2349 2406 2357 2365 2431 2389 2470 2423 2406 2369 2372 2438 2383 2402 2388 2435 2395 2401 2423 2398 2525 2367 2386 2342 2487 2538 2362 2448 2491 2375 2497 2338 2468 2477 2403 2487 2490 2602 2428 2435 2499 2532 2480 2485 2461 2551 2507 2507 2568 2510 2443 2620 2405 2527 2500 2437 2507 2506 2503 2568 2497 2501 2494 2483 2484 2536 2559 2500 2514 2715 2597 2633 2616 2638 2634 2608 2568 2626 2553 2612 2613 2599 2621 2626 2605 2731 2680 2560 2711 2667 2673 2726 2661 2686 2706 2714 2682 2745 2681 2748 2723 2681 2829 2735 2771 2805 2694 2804 2888 2917 2789 2905 2927 2868 2947 2940 2971 3193 3211 3074 3122 3281 3382 3294 3478 3462 3531 3632 3655 3714 3751 3983 3825 3832 3983 4019 3903 3945 4190 4060 4036 4091 4096 4114 4100 4412 4466 4453 4515 4507 4698 4745 4624 4658 4601 4640 4528 4552 4548 4604 4568 4481 4529 4639 4669 4636 4613 4419 4524 4489 4357 4072 4076 3861 3690 3581 3486 3315 3344 3349 3117 3029 3042 2864 2829 2861 2709 2774 2660 2615 2523 2624 2548 2616 2508 2522 2419 2573 2423 2453 2424 2469 2471 2454 2361 2454 2399 2481 2492 2361 2422 2336 2398 2348 2391 2339 2332 2384 2364 2414 2382 2393 2394 2346 2279 2375 2355 2370 2377 2260 2290 2307 2329 2387 2361 2398 2356 2292 2410 2415 2274 2387 2314 2405 2279 2286 2339 2352 2255 2382 2350 2329 2348 2351 2358 2353 2394 2355 2253 2328 2311 2295 2317 2379 2332 2290 2349 2286 2208 2322 2249 2359 2322 2368 2218 2345 2298 2361 2246 2308 2330 2292 2231 2316 2303 2350 2315 2289 2293 2359 2248 2213 2277 2283 2262 2385 2309 2314 2310 2384 2304 2251 2276 2279 2315 2341 2354 2329 2289 2373 2284 2263 2300 2275 2274 2223 2234 2248 2213 2198 2427 2253 2263 2314 2312 2291 2336 2324 2247 2324 2372 2337 2114 2284 2370 2263 2246 2302 2304 2290 2209 2256 2296 2315 2291 2331 2416 2294 2235 2268 2288 2253 2200 2217 2236 2154 2267 2227 2247 2305 2176 2180 2258 2254 2372 2279 2227 2183 2158 2217 2209 2223 2266 2238 2227 2205 2224 2300 2281 2314 2259 2211 2293 2230 2263 2265 2204 2224 2203 2145 2286 2299 2190 2311 2230 2222 2249 2232 2236 2182 2207 2222 2145 2203 2283 2268 2312 2139 2242 2317 2207 2148 2274 2213 2260 2148 2157 2177 2249 2245 2176 2262 2180 2214 2222 2225 2227 2226 2192 2197 2139 2235 2210 2100 2212 2134 2168 2155 2294 2188 2274 2215 2286 2311 2284 2186 2159 2220 2152 2232 2266 2208 2209 2252 2204 2211 2212 2190 2200 2051 2243 2188 2200 2244 2228 2162 2182 2119 2159 2140 2212 2166 2223 2177 2203 2203 2143 2239 2188 2273 2276 2148 2134 2205 2221 2217 2117 2193 2186 2156 2282 2198 2202 2142 2130 2156 2256 2145 2179 2216 2222 2247 2150 2185 2209 2235 2203 2281 2093 2152 2158 2129 2160 2259 2164 2126 2183 2180 2088 2157 2237 2068 2098 2158 2187 2257 2181 2165 2103 2182 2165 2124 2146 2225 2189 2127 2151 2106 2152 2155 2128 2190 2107 2074 2104 2088 2068 2054 2147 2238 2151 2163 2185 2184 2109 2137 2182 2192 2125 2094 2170 2064 2094 2110 2099 2186 2126 2110 2173 2060 2055 2089 2124 2161 2086 2181 2068 2108 2230 2211 2043 2073 2102 2162 2078 2050 2074 2045 2076 2153 2158 2097 2037 2140 2113 2089 2126 2109 2102 2164 2133 2188 2126 2102 2181 2129 2124 2118 2142 2086 2136 2076 2180 2152 2175 2086 2105 2057 2182 2148 2111 2176 2095 2165 2104 2137 2215 2143 2153 2131 2088 2089 2161 2101 2176 2103 2174 2114 2046 2161 2098 2073 2124 2149 2110 2115 2045 2122 2101 2129 2096 2183 2119 2125 2083 2049 2174 2163 2190 2076 2141 2075 2131 2100 2091 2162 2065 2150 2199 2080 2170 2105 2106 2184 2084 2148 2132 2118 2234 2090 2088 2190 2177 2179 2140 2065 2152 2156 2091 2141 2178 2071 2114 2136 2141 2176 2163 2196 2050 2176 2192 2157 2136 2057 2150 2205 2130 2138 2110 2200 2090 2176 2161 2202 2129 2156 2217 2159 2181 2226 2203 2129 2217 2227 2175 2155 2169 2231 2101 2169 2129 2206 2198 2092 2060 2188 2164 2162 2154 2103 2100 2136 2208 2086 2190 2209 2292 2157 2168 2123 2216 2200 2141 2135 2160 2158 2159 2133 2240 2165 2133 2238 2087 2231 2135 2178 2176 2275 2098 2128 2158 2201 2124 2187 2153 2136 2163 2124 2221 2180 2123 2180 2215 2195 2172 2092 2118 2094 2176 2152 2107 2188 2177 2193 2097 2136 2161 2193 2140 2138 2153 2094 2054 2045 2129 2094 2144 2208 2120 2097 2116 2168 2119 2134 2212 2136 2052 2097 2060 2054 2163 2117 2104 2086 2112 2106 2042 2036 2079 2053 2070 2142 2098 2073 2064 1930 2058 2057 2115 2051 2101 2055 2023 2028 2097 2082 2108 2101 2162 2097 1942 2041 2070 2035 1966 2010 2010 1999 2085 1988 1991 2108 1955 1971 1962 2059 1974 1955 2076 1964 2000 2017 2014 1995 1993 1998 1967 1996 1998 1923 1902 1943 2006 1916 1948 2004 1945 1998 1959 1942 1967 1993 1912 1911 1911 1892 1894 1917 1948 1914 1944 1888 1878 1982 1936 1951 1945 1990 1895 1846 1856 1859 1936 1855 1921 1938 1912 1888 1850 1943 1935 1890 1811 1928 1886 1896 1859 1968 1913 1851 1915 1861 1973 1939 1845 1793 1812 1866 1849 1840 1899 1885 1877 1903 1903 1839 1845 1837 1908 1847 1843 1919 1866 1947 1861 1857 1818 1895 1813 1799 1920 1802 1899 1949 1825 1845 1810 1957 1833 1909 1823 1830 1877 1786 1883 1895 1913 1912 1892 1819 1892 1826 2002 1840 1873 1855 1868 1853 1869 1914 1904 1908 1887 1853 1863 1952 1893 1898 1853 1908 1826 1921 1824 1896 1826 1913 1802 1900 1939 1896 1810 1977 1886 1975 1859 1873 1885 1880 1734 1788 1758 1828 1847 1867 1881 1791 1861 1867 1829 1858 1867 1853 1805 1870 1863 1847 1855 1864 1808 1811 1813 1896 1866 1807 1812 1827 1778 1882 1876 1841 1876 1841 1796 1834 1826 1850 1823 1816 1750 1784 1807 1889 1776 1922 1768 1834 1862 1837 1838 1821 1853 1840 1942 1900 1890 1837 1890 1994 1841 1878 1885 1793 1896 1866 1858 1865 1820 1843 1841 1804 1908 1931 2013 1889 1933 1904 1855 1889 1841 1876 1899 1893 1871 1946 1880 1882 1790 1922 1873 1905 1817 1961 1961 1967 1881 1927 1953 1967 1900 1893 1816 1866 1952 1950 1927 1902 1949 2009 1916 1896 1968 2029 1932 1944 1966 1960 1974 1914 1895 2036 1977 1963 2037 2124 2040 2072 2048 2159 2067 2157 2177 2178 2163 2262 2204 2192 2239 2199 2297 2246 2207 2312 2362 2305 2291 2368 2366 2327 2423 2341 2386 2464 2376 2399 2342 2397 2372 2423 2481 2441 2426 2363 2394 2332 2403 2393 2398 2407 2330 2350 2359 2312 2369 2301 2333 2234 2308 2241 2248 2178 2220 2155 2205 2124 2088 2091 2069 2074 2081 1977 1974 1904 2081 1964 1935 1964 1953 1897 1936 1977 1902 1882 1905 1922 1864 1911 1924 1837 1859 1835 1767 1778 1869 1751 1843 1863 1850 1813 1792 1797 1851 1830 1833 1871 1898 1855 1829 1767 1864 1884 1865 1827 1775 1780 1916 1808 1804 1690 1812 1807 1764 1789 1780 1830 1825 1843 1770 1792 1816 1741 1846 1733 1782 1844 1789 1726 1817 1770 1823 1715 1684 1679 1760 1707 1712 1773 1772 1756 1729 1722 1802 1663 1724 1703 1689 1769 1704 1847 1762 1769 1754 1768 1729 1817 1815 1807 1721 1722 1785 1726 1771 1729 1720 1689 1729 1787 1665 1739 1734 1683 1719 1690 1743 1719 1650 1676 1725 1715 1723 1715 1722 1705 1768 1653 1689 1604 1600 1700 1644 1682 1659 1700 1605 1701 1674 1677 1683 1691 1658 1571 1634 1679 1635 1667 1698 1738 1601 1600 1741 1643 1637 1672 1662 1706 1606 1667 1624 1652 1633 1669 1712 1726 1637 1680 1642 1647 1635 1675 1716 1743 1666 1606 1728 1720 1645 1762 1702 1746 1696 1746 1731 1756 1688 1622 1636 1672 1624 1737 1777 1707 1730 1652 1635 1644 1658 1730 1720 1722 1692 1669 1649 1664 1715 1674 1708 1765 1596 1652 1627 1619 1635 1622 1715 1712 1668 1685 1746 1779 1698 1672 1674 1650 1696 1572 1661 1721 1684 1603 1723 1745 1647 1776 1705 1765 1609 1685 1731 1684 1673 1669 1810 1685 1733 1701 1704 1714 1750 1804 1747 1864 1833 1704 1848 1821 1838 1893 1868 1956 1918 1962 2081 1990 2083 2086 2192 2221 2255 2343 2339 2539 2544 2520 2668 2643 2809 2882 2914 3006 3060 3068 3156 3214 3338 3354 3357 3434 3486 3590 3594 3662 3716 3706 3860 3960 4087 4172 4143 4200 4146 4225 4217 4321 4198 4182 4167 3982 4175 4122 3988 4031 4012 3893 3831 3883 3837 3752 3493 3354 3262 3117 3058 3005 2794 2719 2593 2490 2478 2435 2371 2131 2247 2188 2104 2002 2149 2055 1974 1989 1844 1857 1878 1831 1830 1744 1820 1822 1790 1809 1759 1813 1780 1735 1756 1772 1805 1719 1776 1748 1759 1669 1701 1812 1757 1841 1770 1806 1738 1813 1693 1737 1794 1829 1714 1694 1753 1737 1685 1860 1781 1701 1819 1800 1787 1829 1759 1800 1719 1779 1754 1778 1764 1679 1770 1775 1771 1655 1649 1668 1692 1719 1788 1730 1726 1750 1748 1690 1732 1729 1686 1710 1746 1795 1687 1720 1794 1759 1704 1687 1697 1710 1688 1755 1770 1654 1762 1690 1726 1689 1673 1693 1743 1765 1740 1709 1776 1744 1728 1742 1658 1717 1725 1697 1788 1741 1689 1722 1672 1727 1700 1737 1725 1792 1739 1705 1780 1678 1778 1758 1733 1707 1791 1748 1791 1751 1836 1781 1760 1780 1831 1747 1798 1767 1826 1847 1857 1907 1888 1925 1872 1993 2012 2029 2093 2079 2111 2166 2171 2125 2248 2267 2337 2385 2404 2364 2416 2443 2490 2481 2536 2492 2485 2542 2576 2594 2603 2577 2574 2641 2552 2622 2561 2648 2641 2670 2657 2625 2596 2533 2580 2541 2627 2566 2575 2581 2561 2643 2493 2343 2366 2440 2375 2249 2261 2265 2202 2163 2225 2210 2005 2043 2119 2160 2031 2068 2082 2049 2093 1951 1891 1977 2012 1914 1888 1935 1930 1952 1926 1972 1945 1853 1899 1936 1918 1875 1911 1855 1848 1960 1916 1946 1820 1883 1872 1855 1850 1825 1886 1871 1792 1851 1821 1805 1815 1820 1853 1823 1744 1751 1778 1803 1858 1790 1806 1767 1716 1774 1770 1760 1738 1844 1815 1792 1707 1835 1791 1771 1822 1806 1773 1814 1812 1756 1870 1727 1787 1738 1811 1757 1829 1768 1723 1848 1852 1790 1742 1800 1721 1746 1783 1765 1797 1801 1765 1769 1737 1773 1697 1766 1843 1768 1740 1705 1722 1821 1778 1708 1852 1740 1777 1786 1795 1789 1728 1772 1773 1740 1788 1682 1734 1832 1773 1830 1810 1836 1894 1809 1839 1789 1907 1780 1836 1886 1824 1845 1829 1874 1899 1798 1839 1834 1810 1896 1850 1878 1900 1907 1874 1948 1882 1878 1961 1930 1922 1960 2042 1993 1958 2008 2057 2056 2189 2076 2113 2229 2281 2314 2490 2336 2627 2658 2761 2813 2860 2935 2950 2852 3006 3011 3049 3090 3072 3248 3245 3295 3346 3343 3386 3267 3502 3538 3517 3462 3605 3442 3594 3660 3685 3597 3652 3664 3678 3552 3497 3550 3626 3497 3442 3404 3469 3393 3470 3331 3263 3289 3302 3234 3186 3118 3004 3030 2985 3057 2940 2976 2831 2816 2754 2783 2740 2779 2739 2811 2756 2819 2785 2814 2936 2874 2892 2878 3058 3041 3030 3028 3140 3034 3146 3157 3093 3208 3106 3211 3229 3275 3381 3424 3239 3309 3393 3414 3391 3481 3507 3481 3443 3410 3417 3405 3456 3431 3461 3383 3353 3301 3321 3294 3282 3233 3174 3229 3148 3070 3084 2972 2987 2911 2726 2931 2845 2781 2855 2726 2687 2841 2705 2903 2842 2780 2836 2862 2898 2958 2948 2952 2969 3021 3202 3070 3180 3206 3260 3282 3209 3184 3308 3211 3334 3333 3232 3325 3392 3459 3348 3451 3371 3469 3486 3386 3395 3539 3381 3511 3375 3428 3435 3390 3266 3418 3271 3389 3235 3184 3144 3152 2977 2974 2922 2805 2769 2707 2665 2597 2520 2433 2464 2368 2385 2278 2184 2343 2236 2129 2160 2022 2053 2002 2066 1893 2031 1908 1971 1905 1938 1987 1939 1926 1935 1937 1925 1901 1976 1914 1853 1859 1898 1821 1920 1818 1792 1878 1889 1905 1849 1792 1846 1917 1838 1846 1851 1849 1830 1821 1770 1881 1901 1798 1877 1778 1772 1765 1831 1801 1829 1734 1825 1878 1775 1870 1818 1893 1814 1792 1725 1699 1893 1797 1752 1725 1837 1801 1765 1811 1879 1910 1850 1753 1798 1751 1797 1836 1807 1868 1738 1798 1749 1907 1796 1795 1770 1824 1789 1756 1793 1784 1766 1780 1736 1849 1744 1856 1785 1816 1750 1870 1796 1771 1805 1674 1708 1860 1743 1766 1769 1814 1770 1790 1797 1818 1799 1808 1755 1716 1780 1735 1826 1764 1741 1763 1740 1764 1866 1818 1808 1819 1800 1808 1784 1834 1777 1776 1751 1771 1760 1740 1756 1748 1774 1743 1779 1778 1748 1734 1731 1777 1775 1722 1768 1721 1774 1830 1796 1758 1766 1788 1761 1806 1787 1753 1766 1682 1802 1742 1703 1801 1723 1784 1717 1728 1711 1744 1726 1787 1764 1740 1778 1748 1744 1762 1716 1733 1755 1690 1754 1757 1627 1741 1748 1663 1792 1749 1754 1778 1766 1770 1712 1717 1683 1713 1773 1705 1772 1709 1729 1740 1736 1759 1754 1767 1776 1833 1740 1719 1678 1714 1688 1666 1743 1742 1788 1683 1790 1723 1652 1796 1639 1741 1671 1727 1708 1698 1785 1819 1713 1790 1758 1803 1796 1732 1818 1834 1757 1806 1803 1854 1687 1758 1812 1717 1817 1757 1901 1812 1833 1814 1811 1788 1807 1785 1762 1821 1783 1768 1880 1836 1828 1771 1843 1867 1801 1841 1877 1785 1894 1821 1776 1774 1804 1778 1850 1701 1759 1781 1735 1786 1784 1712 1751 1732 1702 1664 1678 1718 1702 1678 1651 1664 1657 1696 1773 1668 1707 1632 1638 1626 1700 1627 1682 1662 1580 1576 1648 1690 1637 1605 1671 1611 1621 1645 1667 1604 1621 1574 1618 1678 1691 1676 1636 1571 1680 1619 1628 1638 1692 1648 1625 1678 1647 1622 1650 1692 1644 1581 1669 1642 1666 1588 1603 1653 1633 1728 1628 1629 1641 1613 1643 1585 1618 1592 1751 1733 1580 1669 1619 1607 1607 1623 1629 1717 1674 1652 1686 1630 1652 1644 1596 1655 1636 1661 1653 1655 1644 1606 1687 1579 1643 1637 1650 1656 1694 1680 1681 1657 1626 1625 1649 1706 1674 1722 1642 1732 1701 1562 1646 1653 1680 1688 1624 1631 1715 1607 1646 1655 1686 1706 1663 1658 1687 1597 1636 1595 1593 1682 1635 1622 1643 1653 1692 1611 1583 1595 1575 1651 1630 1659 1582 1651 1641 1574 1664 1613 1653 1582 1615 1766 1627 1613 1635 1620 1610 1531 1671 1666 1635 1652 1636 1578 1643 1650 1559 1542 1612 1607 1649 1569 1624 1627 1657 1624 1607 1621 1631 1728 1686 1610 1585 1641 1623 1636 1725 1608 1725 1620 1626 1660 1688 1647 1587 1656 1582 1575 1622 1659 1627 1689 1581 1688 1688 1722 1638 1602 1749 1684 1704 1695 1751 1679 1650 1686 1711 1745 1716 1765 1856 1769 1825 1728 1757 1834 1719 1813 1780 1789 1805 1903 1873 1819 1788 1866 1867 1873 1966 1928 1916 1910 1940 1954 1880 2033 1884 1912 1912 1896 1954 1847 1930 1930 2003 1953 2024 1951 1984 1990 1950 1950 1815 1922 1915 1887 1921 1862 1894 1854 1876 1838 1836 1779 1789 1824 1741 1802 1731 1768 1781 1732 1722 1774 1714 1743 1626 1624 1712 1732 1632 1609 1716 1692 1656 1736 1653 1639 1620 1669 1668 1716 1640 1686 1694 1671 1674 1660 1630 1677 1659 1666 1654 1647 1631 1665 1646 1632 1651 1658 1555 1704 1650 1619 1605 1604 1656 1639 1670 1659 1619 1712 1650 1604 1700 1589 1583 1661 1569 1680 1706 1634 1573 1601 1592 1549 1609 1651 1542 1604 1656 1613 1579 1597 1614 1589 1597 1508 1553 1532 1582 1608 1616 1604 1543 1624 1565 1595 1564 1646 1587 1588 1604 1581 1632 1552 1617 1566 1612 1679 1630 1642 1630 1612 1590 1554 1618 1593 1540 1615 1609 1603 1664 1648 1679 1670 1599 1629 1625 1586 1532 1575 1639 1624 1698 1631 1596 1570 1674 1658 1656 1607 1594 1657 1679 1626 1594 1658 1642 1584 1622 1593 1637 1588 1682 1674 1609 1667 1605 1617 1568 1693 1592 1609 1648 1584 1634 1635 1652 1643 1579 1654 1654 1673 1600 1558 1647 1616 1636 1615 1630 1651 1642 1562 1627 1585 1599 1548 1592 1604 1572 1655 1674 1554 1588 1650 1565 1632 1602 1601 1606 1609 1639 1636 1590 1604 1643 1700 1629 1608 1633 1569 1639 1617 1639 1577 1628 1631 1664 1534 1643 1623 1648 1607 1564 1642 1661 1606 1643 1600 1599 1739 1653 1620 1652 1675 1640 1666 1710 1679 1621 1639 1592 1617 1608 1690 1676 1694 1680 1632 1658 1610 1678 1632 1587 1675 1649 1641 1655 1589 1653 1726 1719 1722 1735 1777 1687 1713 1725 1651 1697 1704 1696 1776 1750 1717 1652 1734 1877 1718 1724 1832 1865 1792 1779 1828 1845 1728 1789 1929 1805 1865 1840 1795 1876 1861 1851 1932 1856 1961 1952 1950 1948 1986 1999 2002 1989 2087 2141 2116 2105 2132 2241 2146 2193 2196 2287 2231 2299 2230 2192 2360 2283 2335 2363 2291 2345 2294 2258 2380 2365 2329 2324 2426 2399 2437 2269 2352 2299 2320 2296 2296 2251 2262 2150 2249 2140 2272 2130 2172 2138 2031 2048 2093 2058 2086 2077 2015 2014 1865 1955 1914 1955 1868 1840 1844 1869 1836 1899 1857 1860 1812 1770 1779 1798 1782 1793 1755 1754 1783 1812 1815 1847 1831 1905 1806 1842 1781 1869 1877 1851 1855 1838 1947 1906 1954 1854 1835 1869 1973 1941 1965 2029 1981 1942 1992 1984 2062 2016 1956 2014 2086 2066 1981 1982 1982 2027 1995 1991 1935 2010 2081 1984 1997 2097 2003 2020 2026 2063 2026 1970 1959 1980 1946 1898 2015 1957 2003 2013 1899 1899 1969 1907 1856 1923 1917 1934 1797 1811 1866 1739 1819 1791 1814 1788 1851 1736 1775 1750 1736 1701 1762 1689 1746 1714 1784 1761 1682 1699 1750 1658 1736 1576 1733 1709 1720 1733 1717 1715 1701 1713 1710 1783 1761 1742 1662 1788 1679 1790 1728 1720 1690 1789 1711 1686 1785 1721 1649 1719 1741 1744 1748 1860 1725 1747 1703 1737 1668 1804 1840 1833 1835 1849 1795 1743 1828 1815 1775 1855 1787 1799 1866 1791 1755 1796 1670 1785 1789 1832 1806 1726 1836 1740 1779 1822 1716 1797 1806 1727 1769 1777 1756 1738 1755 1796 1698 1704 1821 1796 1813 1705 1840 1761 1678 1824 1739 1713 1737 1714 1800 1733 1689 1674 1673 1716 1798 1764 1706 1726 1682 1656 1802 1745 1753 1788 1675 1694 1703 1735 1722 1728 1711 1693 1761 1731 1707 1761 1691 1712 1788 1778 1681 1737 1718 1734 1786 1805 1702 1730 1721 1749 1702 1805 1685 1687 1716 1779 1810 1750 1709 1701 1734 1834 1802 1728 1792 1796 1726 1751 1740 1730 1811 1769 1786 1906 1794 1856 1748 1820 1863 1882 1833 1952 2000 2072 2030 2182 2068 2191 2086 2174 2309 2309 2213 2288 2413 2398 2454 2443 2503 2484 2527 2498 2528 2561 2602 2686 2749 2635 2760 2744 2800 2878 2967 2872 3010 2940 3016 2870 3030 2957 3003 3084 3021 2984 3106 2914 3016 3009 3031 3013 2924 2861 2862 2801 2749 2574 2630 2658 2722 2553 2472 2517 2499 2405 2382 2237 2282 2242 2264 2182 2088 2142 2210 2167 2084 2082 1995 1976 1985 1932 1961 1853 2024 1889 1848 1905 1839 1894 1846 1845 1800 1744 1816 1807 1738 1737 1763 1738 1754 1748 1777 1734 1658 1780 1680 1712 1710 1682 1748 1775 1666 1703 1690 1761 1733 1766 1779 1695 1685 1761 1634 1665 1715 1741 1664 1704 1756 1740 1714 1715 1856 1748 1753 1754 1736 1770 1699 1674 1743 1765 1678 1751 1706 1731 1746 1716 1661 1740 1811 1740 1672 1773 1699 1736 1768 1777 1775 1768 1758 1792 1801 1696 1780 1789 1748 1794 1899 1798 1788 1818 1841 1944 1902 1918 1931 1879 2008 1997 1912 2025 1987 1938 2083 2025 2021 2108 2065 2145 2074 2099 2096 2093 2236 2226 2156 2172 2252 2242 2198 2294 2228 2286 2196 2250 2212 2150 2306 2237 2309 2378 2219 2326 2289 2214 2224 2234 2279 2286 2268 2271 2224 2270 2148 2156 2154 2229 2177 2133 2155 2213 2279 2270 2256 2363 2346 2357 2273 2323 2482 2533 2583 2581 2604 2803 2724 2769 2774 2906 2881 2860 2896 2920 2972 2991 3040 3038 3081 3042 3328 3213 3106 3212 3315 3266 3350 3205 3292 3317 3259 3249 3188 3229 3198 3112 3203 3279 3068 3106 2990 3035 2932 2942 2920 2816 2728 2679 2705 2632 2680 2532 2632 2397 2404 2360 2401 2251 2221 2251 2140 2191 2230 2105 2173 2045 2141 2098 2083 2015 2001 2091 2132 2083 2076 2088 2060 2079 1996 1970 1941 2077 2030 1992 2034 1993 2022 1968 1989 1934 1870 1901 1870 1983 1992 1967 1974 1931 1918 1830 1865 1831 1882 1868 1816 1860 1818 1893 1822 1823 1777 1804 1753 1911 1793 1738 1722 1785 1772 1791 1794 1721 1737 1800 1696 1833 1741 1830 1842 1663 1709 1719 1843 1803 1739 1746 1758 1737 1798 1758 1826 1668 1700 1761 1721 1741 1683 1796 1822 1683 1872 1823 1769 1802 1764 1829 1874 1754 1881 1873 1959 1929 1899 1902 1985 1848 1902 1997 1866 1935 1933 1925 1949 2001 1975 1971 1931 1926 1890 1983 2015 1999 1989 1945 1913 1961 1941 1965 2042 2044 1944 1990 1925 1899 1891 1970 1953 1918 1948 1972 1932 1945 1869 1903 1891 1923 1876 1879 1791 1822 1903 1860 1834 1912 1790 1854 1916 1849 1890 1804 1817 1765 1853 1917 1882 1905 1830 1865 1988 1891 1994 1935 1910 2098 2028 2119 2014 2094 2055 2165 2108 2187 2201 2218 2197 2151 2139 2191 2206 2250 2256 2330 2276 2246 2305 2280 2306 2256 2408 2266 2354 2378 2338 2310 2226 2360 2281 2320 2281 2173 2194 2233 2126 2289 2170 2241 2029 2129 1994 2024 2059 2037 1982 1961 1954 1879 1856 1879 1780 1818 1869 1742 1773 1740 1812 1721 1743 1735 1715 1674 1793 1833 1805 1674 1673 1754 1706 1698 1694 1752 1770 1713 1692 1649 1723 1649 1670 1698 1639 1604 1724 1659 1726 1776 1625 1701 1738 1581 1652 1670 1682 1698 1653 1725 1693 1693 1683 1669 1636 1703 1729 1681 1675 1667 1603 1628 1709 1671 1667 1641 1652 1594 1577 1668 1572 1685 1647 1664 1670 1670 1612 1695 1674 1651 1638 1709 1653 1569 1596 1634 1657 1656 1637 1613 1666 1656 1660 1647 1658 1690 1708 1598 1715 1672 1679 1646 1598 1668 1625 1765 1660 1650 1670 1610 1601 1715 1576 1679 1653 1747 1619 1655 1690 1630 1701 1737 1621 1730 1628 1639 1730 1620 1709 1611 1681 1604 1728 1681 1640 1678 1597 1729 1647 1664 1667 1747 1694 1665 1623 1722 1619 1647 1579 1649 1656 1631 1675 1778 1675 1740 1636 1628 1691 1663 1641 1665 1695 1671 1626 1706 1647 1605 1614 1578 1684 1691 1642 1579 1618 1635 1541 1688 1591 1661 1665 1610 1601 1643 1693 1685 1690 1639 1636 1564 1606 1652 1655 1590 1673 1617 1690 1606 1654 1610 1586 1642 1574 1562 1617 1587 1628 1653 1639 1676 1616 1659 1644 1672 1660 1621 1642 1689 1707 1591 1646 1643 1663 1617 1638 1596 1606 1642 1597 1634 1662 1639 1624 1656 1606 1633 1771 1583 1644 1707 1653 1673 1652 1658 1623 1726 1677 1657 1646 1639 1628 1690 1756 1653 1633 1644 1629 1697 1667 1619 1605 1699 1618 1619 1646 1639 1659 1674 1627 1682 1689 1625 1619 1755 1609 1668 1714 1627 1646 1697 1649 1726 1670 1674 1671 1669 1584 1653 1582 1650 1645 1651 1675 1630 1643 1679 1650 1691 1713 1683 1734 1648 1639 1690 1689 1783 1649 1588 1712 1672 1622 1594 1695 1684 1724 1703 1743 1655 1696 1702 1610 1646 1715 1616 1688 1709 1756 1761 1750 1663 1763 1737 1680 1744 1688 1745 1705 1776 1711 1843 1753 1764 1740 1788 1841 1854 1866 1787 1859 1838 1946 1947 1988 2021 2006 2007 2048 2036 2130 2151 2220 2222 2275 2275 2279 2338 2341 2396 2369 2410 2392 2450 2484 2589 2573 2588 2501 2585 2537 2657 2677 2736 2648 2756 2708 2747 2765 2692 2814 2696 2827 2783 2867 2769 2899 2797 2927 2891 2835 2775 2857 2685 2792 2728 2703 2728 2610 2697 2677 2660 2755 2581 2626 2687 2579 2548 2482 2482 2515 2353 2444 2380 2362 2352 2398 2374 2269 2241 2274 2192 2235 2145 2104 2146 2137 2040 2095 2025 2006 1962 1964 1952 1914 1879 1875 1824 1908 1799 1927 1853 1867 1790 1805 1841 1762 1721 1699 1821 1786 1772 1844 1707 1762 1825 1774 1757 1796 1796 1748 1770 1767 1753 1688 1711 1772 1721 1827 1638 1774 1805 1789 1719 1753 1790 1794 1772 1842 1765 1762 1744 1680 1793 1797 1738 1865 1809 1862 1864 1747 1815 1842 1775 1751 1872 1748 1906 1787 1803 1789 1814 1858 1836 1763 1849 1745 1836 1810 1809 1775 1737 1802 1728 1705 1775 1744 1792 1779 1764 1748 1734 1853 1782 1680 1765 1710 1708 1704 1676 1761 1648 1668 1725 1714 1703 1688 1759 1627 1597 1737 1603 1655 1727 1663 1695 1680 1753 1681 1793 1710 1706 1672 1659 1707 1697 1721 1660 1668 1687 1679 1754 1714 1729 1709 1762 1736 1705 1670 1722 1723 1703 1688 1700 1642 1835 1668 1674 1707 1677 1767 1741 1689 1664 1753 1751 1760 1701 1787 1747 1687 1699 1734 1740 1809 1767 1744 1782 1756 1732 1698 1767 1714 1733 1773 1763 1746 1778 1770 1770 1751 1777 1695 1800 1765 1938 1809 1841 1840 1855 1860 1788 1839 1807 1843 1903 1833 1949 1934 2007 1897 2043 1900 1985 1989 2035 2042 1968 2044 2099 2086 2036 2077 2143 2023 2049 2253 2013 2134 2177 2128 2236 2073 2181 2230 2070 2152 2081 2099 2065 1995 2024 2087 1953 1991 1980 1987 1967 1955 1910 1958 1947 1929 1862 1982 1987 1865 1922 1891 1920 1936 1838 1810 1849 1909 1918 1771 1897 1891 1852 1666 1790 1723 1852 1766 1748 1845 1710 1793 1855 1735 1722 1779 1790 1774 1774 1764 1703 1746 1812 1643 1824 1704 1716 1647 1766 1749 1707 1697 1648 1669 1743 1678 1639 1728 1714 1707 1683 1745 1717 1713 1696 1723 1754 1748 1741 1719 1688 1706 1752 1742 1778 1723 1701 1744 1807 1783 1758 1769 1743 1779 1671 1713 1801 1795 1777 1754 1763 1749 1761 1831 1703 1799 1738 1711 1695 1760 1719 1721 1753 1759 1744 1844 1747 1743 1765 1761 1660 1775 1695 1739 1726 1761 1807 1682 1683 1771 1773 1743 1826 1748 1717 1800 1821 1801 1813 1692 1797 1827 1864 1813 1805 1856 1871 1916 1850 1865 1872 1802 1854 1848 1898 1834 1996 1916 1948 1846 1877 1933 1867 1998 1887 1929 1871 1832 1893 1802 1847 1875 1940 1932 1857 1873 1948 1781 1878 1821 1827 1790 1733 1798 1857 1955 1913 1780 1809 1709 1754 1756 1750 1789 1800 1852 1725 1828 1654 1801 1748 1721 1734 1824 1751 1763 1762 1778 1705 1678 1731 1748 1760 1753 1793 1639 1755 1799 1793 1793 1795 1800 1852 1749 1714 1741 1780 1739 1691 1808 1729 1721 1706 1809 1717 1781 1810 1819 1819 1715 1816 1834 1878 1859 1859 1895 1887 1893 1853 1823 1888 1911 1869 1924 1948 1950 1944 1822 1960 2053 2039 2035 1975 2020 2016 1949 2013 2083 1978 2071 2010 2040 2071 2084 2056 2035 2035 2055 2100 2133 2066 2103 2079 2153 2023 2043 2120 2036 2056 2061 2049 2031 1933 1959 2025 2040 1941 2024 1902 1966 1972 1963 1922 1923 1947 1980 1876 1863 1912 1915 1852 1907 1870 1804 1853 1778 1853 1845 1792 1734 1828 1810 1727 1765 1771 1758 1805 1749 1736 1798 1819 1762 1697 1786 1678 1740 1748 1736 1696 1717 1697 1824 1743 1758 1721 1634 1777 1744 1729 1701 1716 1725 1691 1746 1639 1758 1726 1714 1755 1722 1695 1778 1602 1677 1735 1728 1778 1743 1752 1729 1696 1657 1755 1756 1737 1740 1808 1823 1801 1763 1748 1689 1705 1796 1727 1798 1810 1793 1718 1675 1814 1814 1783 1808 1704 1770 1876 1726 1746 1720 1828 1797 1802 1800 1772 1768 1761 1784 1863 1737 1708 1812 1791 1764 1778 1770 1702 1737 1775 1713 1788 1659 1779 1744 1742 1730 1665 1680 1724 1706 1793 1745 1724 1754 1764 1716 1658 1778 1661 1800 1795 1749 1747 1812 1814 1772 1790 1760 1778 1769 1747 1784 1707 1805 1775 1827 1822 1808 1834 1807 1799 1834 1773 1825 1881 1849 1884 1832 1911 1860 1799 1900 1811 1879 1861 1858 1878 1800 1917 1858 1796 1819 1884 1873 1803 1779 1799 1877 1799 1828 1742 1795 1837 1807 1702 1743 1678 1706 1761 1731 1664 1729 1726 1739 1803 1689 1761 1732 1646 1714 1652 1678 1647 1675 1652 1671 1661 1687 1665 1630 1672 1706 1712 1768 1680 1656 1664 1664 1718 1683 1713 1726 1660 1703 1740 1662 1739 1616 1707 1692 1627 1662 1636 1637 1694 1612 1648 1682 1636 1736 1600 1630 1621 1625 1604 1639 1646 1638 1660 1688 1657 1612 1686 1697 1648 1673 1676 1596 1628 1647 1640 1605 1649 1702 1578 1682 1643 1659 1666 1685 1603 1566 1612 1626 1687 1619 1609 1710 1588 1611 1648 1627 1572 1631 1716 1576 1725 1646 1683 1595 1593 1646 1667 1608 1650 1693 1632 1757 1719 1579 1705 1668 1671 1641 1604 1720 1665 1624 1677 1620 1662 1668 1641 1671 1614 1647 1792 1617 1687 1616 1653 1604 1600 1657 1632 1617 1630 1666 1669 1703 1681 1632 1579 1593 1615 1615 1628 1664 1706 1630 1634 1605 1652 1564 1620 1651 1628 1609 1640 1605 1632 1597 1595 1634 1715 1586 1574 1596 1689 1703 1634 1577 1569 1543 1636 1569 1612 1654 1628 1623 1606 1591 1634 1589 1618 1617 1702 1643 1685 1608 1642 1657 1583 1650 1670 1589 1652 1578 1644 1578 1738 1640 1628 1602 1599 1669 1659 1653 1658 1615 1667 1640 1577 1638 1636 1629 1646 1642 1637 1672 1528 1653 1657 1719 1631 1608 1738 1640 1603 1672 1642 1558 1700 1661 1559 1657 1609 1720 1671 1698 1605 1632 1607 1623 1674 1663 1618 1669 1617 1622 1655 1575 1608 1650 1619 1633 1628 1712 1554 1653 1593 1567 1566 1638 1607 1725 1646 1603 1689 1679 1635 1660 1664 1579 1617 1618 1637 1559 1630 1620 1631 1673 1612 1675 1620 1600 1620 1587 1609 1646 1689 1625 1617 1657 1669 1557 1687 1673 1607 1641 1620 1600 1581 1639 1610 1676 1684 1625 1695 1577 1616 1732 1633 1573 1579 1602 1598 1615 1652 1627 1693 1643 1656 1599 1649 1646 1671 1658 1655 1674 1650 1569 1678 1647 1608 1606 1607 1618 1677 1582 1588 1597 1565 1582 1575 1614 1635 1582 1608 1690 1640 1615 1632 1566 1706 1611 1658 1540 1646 1674 1633 1562 1628 1562 1680 1648 1624 1638 1653 1685 1632 1625 1551 1571 1611 1603 1662 1651 1695 1586 1643 1600 1646 1592 1561 1584 1617 1598 1541 1610 1626 1659 1614 1609 1598 1603 1585 1606 1607 1594 1668 1561 1679 1654 1625 1576 1623 1592 1665 1660 1715 1553 1627 1610 1571 1666 1598 1618 1558 1544 1635 1628 1690 1636 1645 1662 1698 1600 1639 1628 1623 1643 1665 1632 1685 1650 1621 1648 1643 1556 1640 1636 1654 1638 1642 1656 1653 1601 1621 1582 1585 1626 1633 1675 1676 1651 1686 1659 1689 1632 1757 1718 1691 1681 1682 1720 1625 1739 1721 1734 1757 1780 1803 1710 1742 1767 1713 1805 1699 1768 1775 1724 1869 1781 1728 1813 1846 1768 1780 1795 1871 1803 1792 1705 1886 1887 1827 1979 1829 1954 1821 1864 1787 1797 1894 1775 1818 1857 1808 1838 1824 1858 1824 1868 1852 1886 1848 1812 1884 1819 1816 1818 1834 1799 1833 1843 1800 1756 1796 1853 1774 1766 1772 1806 1781 1797 1710 1759 1670 1726 1676 1711 1699 1753 1768 1730 1817 1737 1764 1772 1848 1768 1721 1754 1778 1728 1750 1750 1730 1749 1708 1693 1703 1740 1717 1766 1693 1777 1731 1698 1706 1788 1799 1778 1668 1698 1770 1619 1662 1723 1703 1683 1743 1810 1670 1672 1607 1747 1713 1738 1703 1717 1686 1679 1697 1684 1687 1676 1641 1805 1726 1631 1678 1752 1668 1650 1668 1648 1646 1644 1630 1615 1652 1647 1680 1666 1663 1709 1742 1693 1680 1668 1691 1626 1642 1752 1658 1663 1646 1645 1696 1614 1776 1669 1726 1699 1678 1687 1657 1650 1583 1615 1595 1686 1706 1669 1712 1670 1638 1722 1604 1668 1679 1677 1752 1678 1739 1717 1751 1693 1684 1742 1781 1700 1814 1710 1681 1691 1732 1776 1747 1667 1714 1694 1625 1742 1635 1800 1687 1682 1655 1624 1658 1696 1602 1687 1729 1644 1681 1703 1653 1779 1704 1715 1602 1639 1652 1622 1646 1689 1650 1678 1737 1665 1712 1744 1700 1710 1625 1673 1692 1672 1652 1728 1671 1664 1686 1648 1680 1714 1655 1735 1628 1686 1717 1646 1682 1617 1660 1685 1711 1619 1694 1704 1625 1691 1622 1668 1670 1629 1604 1705 1667 1668 1664 1698 1679 1683 1663 1736 1655 1709 1706 1715 1672 1787 1592 1757 1617 1676 1634 1767 1703 1612 1709 1643 1632 1752 1651 1742 1706 1662 1705 1649 1676 1662 1631 1721 1622 1682 1643 1595 1715 1702 1788 1680 1668 1684 1716 1785 1745 1758 1710 1718 1730 1710 1652 1805 1719 1783 1787 1749 1765 1793 1841 1906 1776 1808 1794 1820 1759 1962 1885 1936 1904 1872 1922 1895 1901 1940 1888 1819 1919 1890 1862 1975 1877 1910 1908 2012 1992 1926 2020 1914 1911 1958 1897 1885 1967 1912 1869 1955 1905 1840 1882 1885 1848 1931 1829 1811 1836 1792 1768 1802 1891 1817 1810 1787 1772 1814 1811 1761 1777 1746 1784 1825 1764 1593 1760 1687 1693 1741 1670 1753 1730 1740 1647 1698 1627 1656 1661 1682 1644 1661 1660 1642 1603 1727 1614 1678 1672 1742 1643 1656 1681 1636 1706 1680 1628 1658 1677 1614 1644 1668 1628 1621 1663 1654 1637 1707 1707 1629 1633 1602 1709 1612 1669 1655 1638 1711 1665 1574 1688 1693 1706 1646 1716 1635 1696 1635 1693 1662 1606 1636 1661 1599 1688 1728 1698 1640 1668 1650 1770 1713 1739 1707 1582 1672 1642 1611 1720 1700 1667 1684 1593 1647 1632 1585 1632 1624 1677 1633 1655 1746 1720 1661 1667 1720 1619 1703 1697 1630 1799 1717 1727 1727 1701 1719 1710 1728 1778 1763 1737 1808 1841 1775 1810 1841 1756 1795 1767 1800 1783 1876 1789 1807 1728 1793 1798 1809 1886 1790 1779 1818 1827 1784 1786 1786 1744 1767 1818 1800 1733 1715 1739 1746 1796 1749 1828 1750 1776 1811 1780 1724 1770 1736 1733 1828 1793 1743 1779 1704 1712 1701 1690 1763 1755 1735 1671 1725 1696 1730 1681 1814 1754 1741 1686 1715 1802 1689 1801 1782 1731 1727 1735 1737 1725 1762 1765 1811 1708 1688 1709 1771 1728 1717 1769 1758 1710 1687 1748 1764 1749 1789 1758 1824 1816 1844 1753 1796 1793 1763 1713 1735 1778 1749 1835 1752 1706 1766 1878 1789 1798 1801 1824 1787 1815 1679 1729 1744 1716 1790 1778 1781 1671 1716 1749 1669 1813 1691 1764 1734 1701 1747 1775 1706 1755 1819 1661 1770 1713 1718 1731 1689 1642 1631 1610 1674 1736 1710 1643 1706 1709 1778 1705 1711 1709 1708 1676 1663 1719 1698 1778 1684 1726 1659 1647 1720 1674 1693 1700 1706 1668 1730 1760 1661 1714 1743 1698 1636 1754 1644 1588 1641 1646 1643 1718 1625 1741 1673 1597 1663 1662 1712 1683 1713 1679 1615 1705 1697 1703 1674 1654 1714 1655 1700 1753 1726 1713 1684 1694 1783 1698 1600 1708 1682 1744 1796 1668 1663 1786 1732 1806 1752 1781 1835 1773 1705 1800 1828 1777 1872 1956 1837 1847 1866 1824 1934 1849 1907 1920 1928 1897 1848 1956 1911 1943 1975 1994 1934 1980 1984 1949 1974 2001 1912 1897 1917 1908 1946 1927 1904 1839 1844 1857 1802 1785 1829 1809 1877 1836 1800 1830 1802 1727 1775 1782 1795 1689 1820 1775 1815 1799 1726 1774 1758 1776 1838 1780 1735 1705 1721 1783 1792 1761 1707 1736 1715 1687 1720 1714 1702 1730 1741 1699 1716 1667 1677 1746 1721 1750 1736 1779 1752 1720 1683 1686 1762 1710 1727 1757 1633 1724 1757 1675 1666 1700 1661 1720 1714 1730 1692 1601 1711 1716 1696 1700 1651 1725 1617 1699 1642 1715 1707 1738 1703 1694 1674 1599 1729 1671 1755 1715 1787 1656 1744 1691 1718 1580 1716 1732 1696 1730 1654 1712 1712 1595 1656 1669 1690 1645 1663 1690 1579 1703 1697 1645 1683 1568 1684 1664 1648 1738 1696 1678 1612 1679 1581 1792 1617 1675 1636 1660 1598 1649 1712 1644 1658 1738 1595 1694 1739 1730 1730 1695 1736 1669 1751 1642 1733 1698 1740 1776 1723 1748 1657 1714 1675 1764 1831 1688 1715 1738 1696 1792 1842 1777 1827 1781 1746 1758 1780 1760 1813 1756 1831 1785 1774 1843 1830 1725 1848 1883 1896 1775 1820 1824 1857 1780 1851 1815 1797 1784 1901 1832 1913 1806 1923 1938 1938 1866 1882 1918 1849 1895 1859 1956 1962 2033 1940 2075 2011 1954 1961 1971 2058 2116 2001 2146 2071 1973 2134 2084 2076 2066 2100 2142 2099 2154 2066 1977 2048 2010 1989 2016 1991 2032 2015 2093 1956 2014 1946 1974 2008 1977 1971 1941 1977 1927 1955 1956 1966 1923 1968 1933 1956 1917 1884 1902 1837 1854 1958 1934 1873 1867 1913 1943 1861 1871 1792 1956 1846 1872 1830 1832 1852 1903 1787 1794 1759 1868 1803 1741 1807 1751 1829 1733 1824 1725 1743 1786 1760 1798 1854 1699 1781 1765 1716 1664 1779 1761 1718 1746 1750 1668 1764 1711 1720 1721 1762 1706 1733 1723 1709 1732 1649 1652 1638 1726 1670 1720 1707 1712 1714 1630 1636 1736 1673 1728 1675 1764 1676 1680 1775 1683 1770 1637 1699 1768 1720 1742 1714 1766 1707 1790 1668 1724 1684 1734 1704 1774 1691 1749 1770 1740 1687 1762 1656 1833 1707 1756 1671 1720 1714 1749 1727 1754 1763 1680 1654 1619 1719 1641 1690 1631 1746 1719 1746 1701 1732 1767 1770 1747 1733 1706 1726 1670 1676 1695 1729 1708 1720 1674 1638 1720 1643 1684 1730 1675 1640 1756 1755 1644 1680 1691 1654 1670 1776 1759 1785 1699 1741 1701 1719 1663 1683 1691 1727 1671 1716 1688 1663 1664 1687 1728 1746 1722 1732 1738 1741 1588 1701 1735 1675 1693 1715 1784 1751 1731 1666 1679 1768 1712 1696 1753 1737 1721 1759 1640 1661 1710 1716 1711 1689 1676 1725 1733 1745 1695 1779 1754 1658 1762 1680 1744 1713 1682 1691 1779 1620 1708 1796 1725 1800 1701 1721 1741 1795 1766 1702 1764 1696 1670 1719 1754 1768 1774 1704 1762 1726 1672 1738 1788 1762 1693 1763 1654 1739 1763 1720 1738 1789 1813 1767 1757 1757 1757 1775 1846 1791 1808 1774 1743 1738 1739 1728 1800 1740 1814 1738 1749 1766 1840 1679 1668 1745 1815 1752 1811 1808 1817 1859 1726 1740 1844 1819 1884 1809 1855 1893 1857 1815 1955 1968 1930 1946 1890 1999 2006 1971 2012 1995 1945 2007 2045 2047 2082 2035 2142 2054 2021 2052 2079 2013 2019 2027 1982 1956 1996 2044 1963 2091 2058 2013 2171 1887 2048 1989 2031 2022 1978 1994 2007 2012 1894 1915 1989 1979 1931 1856 1920 1918 1939 1874 1848 1984 1851 1922 1837 1956 1926 1829 1883 1811 1812 1832 1802 1794 1842 1840 1887 1902 1829 1711 1824 1751 1740 1775 1797 1743 1730 1854 1789 1759 1809 1861 1852 1785 1795 1735 1822 1815 1866 1770 1798 1794 1970 1770 1860 1851 1878 1905 1864 1922 1900 1915 1913 1861 1891 1813 2011 1932 1928 2019 1963 1952 1963 1985 1956 1982 1957 1949 2003 1928 1975 2004 1916 2013 1906 2006 1901 1901 1875 1936 1849 1895 1906 1906 1880 1843 1860 1905 1864 1887 1850 1887 1880 1846 1811 1900 1879 1895 1861 1804 1795 1847 1820 1878 1829 1789 1733 1888 1854 1823 1801 1795 1771 1855 1797 1901 1816 1856 1788 1833 1767 1769 1849 1799 1709 1805 1851 1818 1841 1836 1740 1778 1868 1775 1797 1849 1777 1782 1774 1817 1806 1785 1754 1861 1735 1794 1779 1767 1759 1751 1739 1760 1853 1769 1731 1717 1714 1817 1845 1708 1824 1737 1800 1825 1789 1800 1779 1762 1683 1705 1720 1788 1715 1798 1799 1782 1774 1769 1751 1727 1719 1771 1713 1700 1792 1716 1808 1822 1751 1783 1767 1757 1793 1777 1745 1854 1820 1724 1736 1747 1843 1778 1686 1810 1752 1751 1808 1730 1745 1751 1763 1672 1789 1712 1795 1698 1782 1727 1703 1795 1719 1706 1750 1792 1754 1670 1728 1694 1725 1726 1727 1724 1749 1729 1765 1678 1747 1712 1842 1744 1791 1726 1716 1738 1776 1752 1786 1641 1789 1707 1792 1688 1732 1745 1801 1749 1783 1746 1675 1753 1739 1854 1776 1803 1734 1760 1809 1748 1818 1760 1732 1780 1763 1754 1741 1790 1776 1750 1850 1883 1832 1797 1748 1829 1822 1776 1827 1820 1785 1826 1776 1763 1783 1829 1750 1762 1793 1850 1747 1825 1756 1752 1784 1779 1744 1828 1774 1736 1758 1756 1783 1723 1733 1699 1777 1828 1829 1764 1820 1852 1843 1846 1722 1807 1753 1732 1720 1734 1822 1812 1792 1827 1737 1772 1696 1790 1711 1746 1714 1719 1686 1763 1743 1704 1792 1740 1778 1752 1739 1639 1766 1767 1635 1774 1729 1778 1773 1789 1752 1722 1663 1681 1791 1695 1749 1710 1739 1785 1721 1736 1732 1778 1696 1690 1829 1750 1757 1741 1716 1756 1751 1729 1785 1709 1673 1716 1646 1781 1725 1720 1719 1729 1685 1765 1700 1739 1765 1659 1691 1733 1705 1702 1671 1699 1791 1747 1684 1688 1715 1638 1737 1649 1705 1725 1643 1750 1728 1702 1679 1659 1767 1683 1670 1765 1730 1703 1707 1743 1739 1725 1686 1714 1704 1678 1744 1761 1766 1692 1712 1699 1690 1650 1709 1712 1686 1714 1776 1767 1686 1763 1729 1756 1682 1693 1643 1690 1753 1673 1729 1753 1680 1741 1705 1659 1684 1749 1701 1789 1693 1784 1796 1790 1735 1746 1669 1678 1660 1646 1691 1718 1675 1802 1733 1751 1702 1721 1669 1724 1711 1658 1735 1718 1766 1710 1697 1726 1745 1726 1721 1718 1782 1707 1813 1756 1694 1740 1768 1726 1760 1712 1695 1706 1668 1802 1770 1693 1702 1744 1739 1705 1710 1667 1755 1693 1743 1778 1797 1785 1717 1815 1755 1731 1789 1833 1761 1703 1801 1719 1739 1812 1715 1800 1733 1707 1753 1794 1837 1803 1785 1819 1713 1883 1815 1861 1820 1874 1794 1842 1903 1912 1931 1851 1908 1922 1892 1976 1834 1998 1916 1892 1915 1943 1955 2025 1984 1973 1981 1983 2003 1959 1898 1933 1946 1920 1996 1990 1987 1896 1946 1917 1904 1913 1796 1926 1878 1808 1817 1830 1920 1798 1892 1826 1850 1872 1859 1825 1847 1963 1879 1852 1924 1886 1826 1881 1834 1798 1762 1834 1827 1852 1816 1792 1913 1730 1823 1826 1773 1809 1770 1814 1764 1741 1789 1730 1740 1770 1772 1706 1771 1694 1803 1756 1737 1792 1738 1746 1710 1750 1823 1696 1731 1745 1850 1774 1752 1753 1744 1733 1738 1733 1754 1711 1772 1698 1826 1733 1789 1734 1678 1752 1701 1728 1621 1694 1780 1698 1606 1766 1828 1711 1748 1697 1752 1756 1656 1754 1786 1695 1669 1765 1682 1703 1777 1748 1658 1706 1741 1655 1718 1747 1680 1723 1631 1696 1645 1686 1713 1661 1661 1723 1701 1753 1765 1734 1766 1720 1746 1752 1669 1793 1760 1676 1767 1695 1663 1656 1711 1712 1774 1757 1771 1755 1771 1728 1702 1703 1707 1785 1753 1729 1789 1707 1704 1717 1717 1809 1789 1695 1768 1783 1689 1783 1757 1797 1853 1778 1737 1796 1725 1661 1791 1737 1748 1728 1787 1787 1736 1874 1779 1840 1849 1856 1849 1815 1779 1848 1824 1816 1855 1828 1820 1830 1837 1878 1858 1854 1873 1786 1865 1852 1822 1852 1848 1822 1844 1890 1942 1891 1898 1885 1794 1833 1898 1935 1867 1864 1929 1913 1892 1869 1961 1945 1934 1966 1895 1892 1851 1835 1850 1864 1881 1863 1924 1798 1903 1823 1960 1834 1856 1877 1920 1804 1830 1799 1867 1802 1787 1762 1840 1788 1884 1871 1916 1785 1851 1812 1873 1894 1878 1800 1854 1828 1846 1743 1891 1839 1889 1892 1816 1787 1821 1801 1750 1780 1737 1795 1820 1863 1780 1771 1855 1819 1844 1788 1852 1795 1902 1794 1861 1807 1816 1820 1848 1825 1787 1884 1779 1812 1797 1832 1805 1822 1749 1875 1775 1776 1800 1802 1829 1849 1937 1896 1786 1809 1891 1797 1879 1814 1807 1781 1842 1861 1831 1833 1803 1820 1757 1755 1877 1823 1836 1783 1813 1780 1802 1865 1783 1808 1726 1788 1704 1814 1731 1751 1732 1713 1778 1824 1758 1736 1798 1810 1771 1828 1767 1801 1729 1778 1881 1665 1793 1737 1734 1798 1691 1790 1738 1722 1652 1794 1772 1784 1710 1787 1762 1696 1804 1733 1776 1813 1723 1779 1732 1742 1694 1654 1657 1709 1680 1736 1729 1750 1688 1794 1680 1659 1745 1717 1777 1763 1726 1846 1644 1727 1665 1796 1725 1722 1753 1670 1753 1745 1650 1731 1781 1721 1738 1767 1765 1754 1662 1799 1724 1740 1692 1676 1729 1832 1724 1726 1731 1763 1754 1631 1788 1716 1791 1680 1790 1686 1722 1755 1691 1779 1737 1740 1654 1750 1743 1706 1790 1773 1778</counts>
			</dataPoints>
		</scan>
	</xrdMeasurement>
</xrdMeasurements>
