<?xml version="1.0"?>
<xrdMeasurements xmlns="http://www.xrdml.com/XRDMeasurement/2.3" xmlns:xsi="http://www.w3.org/2001/XMLSchema-instance" xsi:schemaLocation="http://www.xrdml.com/XRDMeasurement/2.3 http://www.xrdml.com/XRDMeasurement/2.3/XRDMeasurement.xsd" status="Completed" recordIdentifier="{79B21D87-A67D-40B1-8E3A-CBFF22E963B6}">
	<comment>
		<entry/>
	</comment>
	<sample type="To be analyzed">
		<id>GPSS_Li1p9Fe0p45Mn0p45Sc0p1Cl4_111225_691549b847a6a0fd7c6580c6</id>
		<name></name>
		<preparedBy></preparedBy>
	</sample>
	<xrdMeasurement measurementType="Scan" status="Completed" sampleMode="Reflection">
		<usedWavelength intended="K-Alpha 1">
			<kAlpha1 unit="Angstrom">1.5405980</kAlpha1>
			<kAlpha2 unit="Angstrom">1.5444260</kAlpha2>
			<kBeta unit="Angstrom">1.3922500</kBeta>
			<ratioKAlpha2KAlpha1>0.5000</ratioKAlpha2KAlpha1>
		</usedWavelength>
		<incidentBeamPath>
			<radius unit="mm">145.00</radius>
			<xRayTube id="1010048" name="Empyrean Cu LFF HR (9430 033 7310x)">
				<tension unit="kV">40.0</tension>
				<current unit="mA">15.0</current>
				<anodeMaterial>Cu</anodeMaterial>
				<focus type="Line">
					<length unit="mm">12.0</length>
					<width unit="mm">0.4</width>
					<takeOffAngle unit="deg">6.0</takeOffAngle>
				</focus>
			</xRayTube>
			<sollerSlit id="21010002" name="Soller slits 0.04 rad.">
				<opening unit="rad">0.0400</opening>
			</sollerSlit>
			<mask id="22031000" name="Fixed mask 13 mm">
				<width unit="mm">9.00</width>
			</mask>
			<divergenceSlit id="22120001" name="Divergence slit 1°" xsi:type="fixedDivergenceSlitType">
				<distanceToSample unit="mm">50.00</distanceToSample>
				<height unit="mm">1.52</height>
			</divergenceSlit>
		</incidentBeamPath>
		<sampleMovement xsi:type="spinningSampleMovementType">
			<spinnerRevolutionTime unit="seconds">1.0</spinnerRevolutionTime>
		</sampleMovement>
		<diffractedBeamPath>
			<radius unit="mm">145.00</radius>
			<antiScatterSlit id="22090040" name="AS slit 9 mm (PIXcel)" xsi:type="fixedAntiScatterSlitType">
				<height unit="mm">9.00</height>
			</antiScatterSlit>
			<sollerSlit id="21020003" name="Large Soller slits 0.04 rad.">
				<opening unit="rad">0.0400</opening>
			</sollerSlit>
			<filter id="20030001" name="Large beta-filter Nickel">
				<material>Ni</material>
				<thickness unit="mm">0.020</thickness>
			</filter>
			<detector id="7010019" name="PIXcel1D-Medipix3 detector" xsi:type="rtmsDetectorType">
				<phd unit="keV">
					<lowerLevel>4.02</lowerLevel>
					<upperLevel>11.27</upperLevel>
				</phd>
				<mode>Scanning</mode>
				<activeLength unit="deg">5.542</activeLength>
			</detector>
		</diffractedBeamPath>
		<scan appendNumber="0" mode="Continuous" scanAxis="Gonio" status="Completed">
			<header>
				<startTimeStamp>2025-11-16T14:02:31-08:00</startTimeStamp>
				<endTimeStamp>2025-11-16T14:10:38-08:00</endTimeStamp>
				<author>
					<name>AutomatedUser</name>
				</author>
				<source>
					<applicationSoftware version="1.7b (136)">PANalytical Aeris Instrument Suite</applicationSoftware>
					<instrumentControlSoftware version="3.2.00000000 20240306">AERIS</instrumentControlSoftware>
					<instrumentID>950485</instrumentID>
				</source>
			</header>
			<dataPoints>
				<positions axis="2Theta" unit="deg">
					<startPosition>10.00943322</startPosition>
					<endPosition>99.99442286</endPosition>
				</positions>
				<positions axis="Omega" unit="deg">
					<startPosition>5.00471661</startPosition>
					<endPosition>49.99721143</endPosition>
				</positions>
				<commonCountingTime unit="seconds">12.495</commonCountingTime>
				<counts unit="counts">2769 2808 2780 2718 2658 2755 2840 2793 2682 2760 2809 2738 2791 2724 2674 2753 2684 2716 2678 2732 2719 2680 2769 2726 2739 2704 2747 2719 2761 2779 2781 2740 2842 2720 2733 2711 2829 2719 2775 2741 2783 2763 2764 2796 2695 2729 2743 2662 2780 2813 2675 2814 2748 2792 2839 2746 2768 2779 2749 2746 2810 2817 2841 2874 2827 2744 2795 2799 2806 2852 2876 2736 2784 2862 2902 2879 2802 2760 2869 2776 2913 2815 2882 2811 2897 2797 2898 2801 2957 2774 2892 2918 2842 2846 2960 2904 2957 2878 2888 2818 2933 2893 2931 2758 2893 2961 2932 2935 2910 2885 2840 2840 2929 2834 2878 2857 2875 2803 2940 2849 2804 2893 2860 2887 2906 2815 2863 2816 2818 2817 2777 2826 2810 2840 2833 2837 2887 2858 2810 2799 2858 2791 2838 2775 2789 2776 2872 2754 2690 2863 2785 2789 2806 2848 2784 2833 2855 2890 2736 2871 2852 2770 2734 2806 2759 2846 2691 2776 2835 2711 2767 2805 2712 2673 2744 2757 2796 2803 2783 2883 2778 2760 2893 2777 2796 2717 2665 2755 2774 2780 2684 2774 2796 2797 2803 2846 2840 2794 2779 2833 2702 2668 2848 2714 2747 2795 2852 2737 2763 2682 2705 2714 2730 2714 2753 2806 2809 2877 2720 2652 2724 2720 2721 2713 2718 2720 2773 2782 2773 2778 2756 2744 2642 2687 2742 2797 2688 2786 2684 2665 2718 2723 2678 2708 2776 2707 2774 2678 2742 2721 2720 2750 2767 2732 2731 2729 2775 2656 2665 2734 2730 2655 2807 2788 2799 2693 2771 2650 2729 2769 2722 2719 2778 2818 2800 2733 2834 2693 2705 2614 2705 2822 2689 2664 2727 2780 2808 2703 2734 2724 2754 2795 2783 2738 2757 2750 2832 2744 2767 2764 2656 2762 2756 2743 2760 2657 2689 2825 2742 2801 2845 2827 2798 2744 2811 2822 2741 2751 2779 2812 2775 2809 2804 2789 2815 2828 2878 2898 2816 2882 2937 2856 2850 2880 2932 2862 2934 2835 2848 2821 2830 2984 2858 2849 2929 2983 2942 3011 2902 2916 2912 2915 2927 3024 2907 3044 2968 3013 3102 2942 2939 3012 3051 2993 2975 3044 2946 2943 2987 2985 3071 2921 3073 3046 3138 3069 3044 3060 3068 2972 2991 3053 3101 3077 3229 3177 3173 3163 3179 3100 3196 3175 3163 3151 3161 3186 3182 3174 3084 3202 3165 3119 3188 3230 3413 3278 3240 3333 3228 3244 3307 3248 3338 3271 3376 3307 3442 3407 3368 3522 3424 3354 3551 3505 3540 3441 3490 3449 3568 3416 3656 3610 3711 3658 3637 3778 3850 3736 3679 3851 3706 3693 3868 3914 3899 3846 4041 4032 3926 3923 4089 3975 4203 4133 4194 4200 4202 4255 4286 4333 4399 4483 4381 4536 4628 4643 4601 4514 4585 4691 4753 4738 4687 4661 4605 4560 4647 4568 4431 4494 4339 4265 4181 4168 3982 4025 3872 3963 3743 3751 3721 3799 3595 3617 3627 3694 3685 3598 3532 3504 3553 3592 3629 3535 3640 3489 3501 3404 3524 3487 3423 3487 3463 3420 3419 3397 3408 3369 3399 3555 3445 3419 3261 3311 3265 3265 3354 3223 3275 3285 3142 3325 3252 3266 3176 3220 3274 3191 3190 3237 3164 3250 3222 3242 3101 3225 3091 3176 3101 3177 3204 3253 3152 3192 3155 3160 3181 3135 3077 3078 3147 3149 3106 3030 3116 3145 3000 3093 3130 3114 3143 3152 3046 3052 3039 3080 3105 3050 3093 2980 2984 2999 3060 3082 3127 3048 3031 3127 3093 3175 2998 3022 3068 3013 2943 3060 3024 2979 3055 3039 3129 3030 3069 3009 2986 2972 3121 2997 3009 3028 2982 2949 2967 2958 3016 2979 2933 2967 2966 2852 3000 2917 3010 3002 3025 2938 2963 3055 2999 2914 2958 3038 2910 2968 3038 2991 2950 3039 2953 2965 2943 2906 2939 3031 2857 2919 2971 3060 2944 3029 2981 2955 3033 2943 3040 2881 2875 2992 2870 2966 2907 2969 2919 3003 2830 3050 2934 2899 2930 2854 2915 2930 2949 2884 2900 2888 3011 2932 2959 2936 2945 2889 3034 2973 2997 2846 2947 2965 2857 2855 2896 2863 2981 2927 2849 2891 2955 2865 2877 2863 2898 2989 2885 2916 2833 2814 2978 2909 2902 3005 2898 2856 2901 2856 2917 2865 2921 3029 2835 2912 2877 2839 2868 2753 2938 2925 2842 2876 2845 2843 2935 2815 2833 2800 2898 3012 2794 2757 2897 2893 2840 2934 2909 2885 2894 2802 2952 2910 2917 2914 2853 2894 2869 2884 2916 2900 2832 2793 2856 2934 2773 2829 2868 2743 2878 2792 2901 2837 2732 2857 2840 2865 2905 2812 2856 2873 2871 2918 2948 2845 2877 2913 2882 2842 2797 2882 2835 2887 2864 2807 2798 2856 2802 2832 2859 2806 2929 2898 2794 2935 2839 2801 2820 2890 2839 2814 2789 2800 2890 2847 2804 2821 2920 2741 2815 2753 2901 2929 2800 2852 2804 2891 2881 2815 2798 2808 2823 2926 2721 2707 2805 2869 2783 2845 2831 2880 2853 2872 2846 2738 2750 2773 2730 2812 2769 2757 2823 2781 2841 2861 2817 2729 2783 2740 2810 2804 2847 2779 2856 2637 2784 2732 2767 2753 2767 2742 2821 2706 2818 2774 2772 2752 2798 2774 2727 2845 2731 2924 2775 2796 2797 2819 2786 2776 2844 2780 2744 2827 2713 2842 2830 2783 2839 2756 2722 2731 2702 2741 2739 2857 2736 2749 2719 2731 2731 2838 2715 2684 2779 2792 2816 2702 2768 2650 2792 2668 2700 2679 2691 2868 2707 2744 2693 2697 2809 2743 2791 2800 2663 2633 2686 2726 2668 2689 2779 2780 2654 2805 2761 2628 2735 2710 2640 2735 2736 2818 2783 2592 2710 2706 2718 2619 2847 2722 2677 2691 2668 2718 2715 2624 2690 2659 2759 2637 2715 2664 2805 2638 2690 2700 2741 2671 2690 2746 2630 2700 2735 2648 2671 2728 2580 2739 2703 2593 2730 2585 2712 2654 2748 2730 2722 2698 2687 2665 2785 2664 2717 2644 2707 2642 2730 2608 2630 2719 2652 2724 2682 2569 2664 2663 2675 2656 2532 2650 2579 2752 2612 2654 2671 2706 2712 2699 2605 2675 2637 2648 2604 2736 2629 2689 2684 2609 2670 2709 2679 2725 2659 2615 2803 2718 2600 2696 2595 2692 2733 2665 2619 2655 2699 2745 2731 2708 2601 2655 2691 2689 2723 2693 2624 2632 2601 2577 2726 2654 2728 2620 2800 2683 2641 2658 2690 2686 2637 2633 2643 2664 2691 2684 2670 2565 2659 2714 2704 2661 2625 2643 2800 2644 2645 2787 2810 2748 2717 2713 2695 2654 2747 2752 2566 2716 2736 2631 2615 2757 2576 2740 2695 2634 2736 2668 2644 2660 2665 2676 2695 2696 2674 2673 2676 2701 2655 2643 2647 2711 2651 2654 2635 2714 2655 2729 2649 2718 2631 2739 2608 2634 2690 2627 2605 2726 2582 2635 2626 2687 2719 2618 2594 2551 2585 2619 2682 2696 2584 2604 2605 2665 2706 2586 2652 2704 2635 2546 2688 2641 2605 2594 2517 2648 2590 2638 2641 2599 2556 2630 2539 2610 2543 2523 2589 2526 2493 2527 2572 2690 2529 2538 2559 2534 2494 2590 2625 2576 2608 2606 2619 2450 2472 2487 2465 2599 2490 2560 2512 2479 2425 2511 2519 2423 2494 2446 2486 2497 2418 2511 2381 2459 2536 2498 2472 2515 2427 2408 2337 2390 2330 2376 2420 2440 2374 2458 2447 2394 2394 2473 2398 2346 2376 2407 2360 2357 2417 2340 2382 2342 2285 2301 2250 2343 2405 2419 2329 2296 2372 2465 2372 2307 2222 2312 2448 2309 2282 2351 2288 2380 2271 2348 2367 2278 2305 2333 2337 2276 2336 2279 2376 2288 2275 2330 2307 2262 2345 2329 2299 2347 2222 2332 2298 2291 2357 2298 2245 2180 2247 2318 2352 2331 2304 2225 2160 2240 2215 2300 2268 2271 2339 2207 2253 2258 2261 2340 2178 2254 2284 2280 2161 2273 2230 2172 2284 2252 2204 2259 2204 2171 2196 2204 2192 2255 2136 2307 2135 2230 2202 2199 2148 2140 2176 2285 2184 2200 2254 2210 2195 2245 2211 2274 2242 2197 2227 2192 2265 2238 2158 2153 2131 2198 2174 2176 2196 2204 2232 2166 2127 2115 2120 2207 2114 2191 2227 2147 2252 2190 2234 2240 2174 2348 2146 2207 2265 2068 2170 2137 2153 2211 2154 2153 2211 2113 2159 2174 2177 2148 2207 2227 2152 2244 2141 2230 2203 2162 2242 2181 2220 2165 2213 2233 2171 2223 2147 2201 2185 2189 2129 2148 2166 2221 2193 2225 2333 2209 2136 2157 2254 2255 2157 2208 2202 2270 2254 2199 2205 2253 2248 2238 2280 2185 2210 2255 2232 2212 2231 2265 2139 2173 2201 2198 2193 2235 2159 2205 2198 2148 2258 2252 2105 2126 2200 2214 2200 2222 2152 2193 2139 2260 2142 2177 2151 2160 2188 2154 2140 2244 2148 2167 2077 2293 2227 2222 2142 2196 2200 2147 2245 2173 2222 2217 2220 2215 2171 2199 2149 2202 2162 2230 2227 2195 2202 2233 2290 2271 2237 2113 2179 2170 2210 2193 2117 2203 2137 2226 2197 2176 2164 2051 2223 2171 2194 2208 2132 2178 2221 2065 2246 2216 2178 2093 2169 2234 2167 2140 2158 2141 2139 2137 2140 2213 2150 2284 2118 2192 2246 2197 2278 2180 2219 2267 2268 2150 2081 2166 2160 2054 2160 2230 2216 2107 2173 2117 2109 2248 2177 2144 2182 2093 2110 2156 2273 2120 2094 2061 2105 2092 2163 2151 1954 2052 2064 2159 2121 2014 2062 2038 2170 2055 2077 2056 2181 2041 2045 2037 2076 2014 2121 2123 2145 2049 2142 1980 2046 2082 2019 2114 2098 2017 2094 2129 1973 2109 1978 2017 2001 2018 2044 2078 2056 2120 2041 2027 2007 2006 1970 1947 1953 1934 2049 1987 2045 1969 2013 1952 1998 1980 1971 1957 1989 2003 1978 1988 1972 1936 2013 1946 1988 2015 1939 2074 1933 1937 1956 2030 1908 1942 1937 2007 1865 2055 1932 2039 1913 2003 1970 1877 2018 1921 1968 1988 2012 2018 2007 1974 1961 2004 1995 1980 1909 2018 2022 2009 1974 2040 2151 1990 2092 2094 2051 2104 2122 2047 2079 2138 2125 2128 2053 2222 2192 2221 2250 2223 2330 2210 2282 2390 2292 2349 2408 2345 2453 2446 2468 2481 2395 2503 2481 2436 2592 2578 2573 2616 2656 2679 2679 2740 2710 2629 2619 2805 2726 2714 2697 2726 2690 2668 2660 2604 2613 2477 2385 2439 2392 2288 2340 2186 2126 2081 2080 2060 1930 1975 1957 1994 2018 1948 2060 2009 1970 1854 1936 2001 1915 1822 1913 1810 1895 1871 1942 1891 1893 1911 1851 1886 1839 1821 1862 1927 1850 1866 1842 1809 1822 1909 1865 1946 1858 1873 1854 1928 1924 1891 1869 1911 1997 1930 2034 1937 2038 2042 2019 2139 2053 2133 2133 2106 2188 2082 2188 2293 2189 2270 2312 2333 2375 2592 2426 2594 2544 2665 2691 2734 2708 2879 2831 3025 2897 3008 2958 3013 3094 3136 3285 3233 3308 3346 3374 3419 3580 3632 3621 3702 3784 3693 3796 3969 3997 3966 4012 4052 3808 4033 4024 3943 3897 3743 3576 3582 3465 3143 3175 3052 2923 2718 2627 2588 2404 2466 2406 2275 2308 2200 2209 2179 2130 2182 2206 2035 2152 2037 2199 2113 2081 2045 2045 2045 2014 2026 2105 2084 1923 2016 1976 2062 1968 1906 1870 1890 1896 1805 1868 1808 1899 1766 1800 1768 1846 1817 1707 1745 1788 1713 1840 1721 1744 1711 1744 1748 1698 1679 1733 1658 1737 1814 1730 1800 1738 1739 1806 1718 1718 1753 1697 1715 1657 1744 1665 1700 1719 1719 1722 1652 1715 1695 1653 1657 1718 1672 1649 1675 1595 1631 1680 1690 1659 1668 1734 1638 1659 1674 1672 1709 1627 1717 1712 1637 1598 1580 1688 1808 1635 1703 1670 1674 1687 1621 1619 1653 1725 1641 1631 1623 1691 1717 1704 1672 1624 1639 1614 1638 1629 1631 1671 1648 1624 1683 1626 1662 1703 1634 1614 1664 1610 1651 1611 1657 1632 1681 1601 1655 1578 1681 1630 1631 1583 1639 1631 1718 1610 1630 1655 1655 1640 1645 1614 1605 1611 1602 1653 1624 1653 1637 1586 1632 1626 1630 1596 1623 1622 1628 1608 1638 1651 1553 1670 1628 1617 1615 1639 1658 1517 1615 1599 1589 1551 1564 1626 1644 1609 1630 1632 1746 1629 1647 1581 1618 1625 1672 1644 1621 1511 1545 1651 1557 1547 1592 1640 1527 1561 1594 1628 1679 1604 1604 1593 1650 1548 1619 1612 1628 1604 1629 1534 1612 1577 1605 1640 1554 1588 1609 1636 1703 1599 1609 1606 1610 1582 1630 1633 1555 1659 1603 1601 1594 1673 1633 1618 1606 1575 1668 1591 1614 1603 1605 1624 1561 1622 1570 1644 1540 1544 1595 1580 1627 1579 1555 1545 1642 1573 1574 1617 1595 1593 1655 1615 1560 1619 1647 1592 1644 1600 1565 1589 1593 1633 1623 1617 1631 1651 1654 1677 1607 1759 1597 1546 1636 1604 1672 1599 1643 1699 1611 1655 1600 1633 1586 1635 1614 1667 1596 1650 1724 1593 1683 1587 1605 1649 1705 1641 1673 1689 1707 1683 1697 1606 1654 1652 1700 1707 1621 1669 1694 1695 1700 1661 1640 1635 1761 1657 1693 1661 1644 1747 1690 1795 1814 1702 1779 1854 1812 1859 1763 1826 1751 1814 1864 2016 1979 2032 2002 2089 2203 2162 2240 2254 2221 2348 2328 2423 2614 2516 2583 2738 2805 2896 3132 3230 3392 3474 3555 3724 3843 3998 4126 4305 4508 4624 4641 4849 4849 5070 5332 5293 5431 5628 5731 5927 6001 6113 6249 6576 6541 6750 6614 7018 6884 7138 7099 7361 7414 7570 7371 7290 7584 7420 7256 6922 6955 6465 6100 5853 5575 5358 5079 4872 4522 4187 3943 3826 3599 3443 3278 3012 2918 2712 2664 2668 2586 2607 2484 2538 2323 2428 2350 2340 2293 2285 2240 2215 2220 2266 2240 2164 2224 2164 2131 2195 2079 2053 2092 2008 2120 2116 1967 2000 1969 1960 1984 1967 1933 1947 1890 1836 1879 1884 1813 1776 1729 1747 1762 1729 1711 1677 1714 1731 1627 1647 1600 1673 1702 1636 1655 1624 1616 1586 1680 1644 1547 1634 1603 1658 1589 1633 1621 1694 1646 1574 1648 1586 1626 1610 1578 1582 1578 1591 1654 1549 1566 1625 1610 1571 1653 1541 1603 1538 1555 1597 1585 1587 1598 1675 1662 1554 1537 1580 1535 1564 1556 1553 1510 1593 1532 1529 1623 1515 1644 1515 1519 1514 1605 1581 1564 1556 1564 1568 1586 1584 1564 1566 1520 1550 1559 1561 1549 1573 1615 1531 1462 1560 1522 1571 1483 1533 1544 1564 1562 1523 1607 1574 1575 1525 1584 1505 1541 1551 1522 1534 1547 1564 1521 1519 1521 1522 1554 1613 1573 1578 1537 1555 1534 1589 1564 1513 1588 1524 1485 1564 1505 1542 1528 1537 1533 1558 1528 1624 1500 1488 1501 1512 1556 1547 1538 1515 1514 1555 1500 1463 1458 1604 1520 1536 1508 1522 1525 1563 1537 1524 1565 1537 1568 1578 1538 1500 1568 1602 1542 1533 1557 1596 1539 1566 1521 1543 1612 1555 1507 1530 1585 1506 1499 1564 1552 1507 1569 1542 1614 1530 1494 1464 1614 1655 1551 1549 1554 1456 1542 1572 1550 1520 1575 1557 1561 1560 1583 1541 1585 1534 1523 1584 1580 1630 1567 1640 1567 1625 1589 1608 1576 1590 1546 1605 1627 1558 1571 1542 1578 1584 1649 1564 1556 1559 1538 1568 1622 1594 1555 1641 1542 1547 1543 1532 1527 1678 1484 1585 1560 1485 1504 1519 1523 1481 1516 1526 1544 1564 1465 1524 1543 1485 1542 1501 1516 1481 1505 1461 1585 1517 1416 1467 1539 1516 1562 1467 1548 1523 1470 1437 1554 1551 1534 1523 1542 1522 1465 1514 1501 1487 1535 1499 1488 1509 1530 1456 1441 1476 1426 1539 1485 1495 1504 1602 1503 1534 1486 1594 1452 1418 1592 1505 1484 1491 1510 1508 1498 1525 1469 1489 1505 1553 1402 1468 1529 1532 1472 1474 1457 1482 1484 1444 1443 1567 1542 1530 1521 1507 1482 1474 1536 1489 1499 1467 1469 1480 1475 1456 1517 1428 1564 1504 1464 1508 1564 1572 1515 1495 1481 1525 1446 1547 1453 1462 1456 1424 1513 1484 1568 1464 1481 1512 1428 1427 1475 1521 1514 1502 1478 1451 1490 1534 1539 1453 1503 1451 1521 1547 1497 1491 1448 1384 1550 1482 1455 1438 1449 1454 1432 1427 1383 1433 1477 1486 1511 1462 1503 1446 1482 1436 1477 1494 1418 1505 1389 1446 1462 1447 1451 1505 1554 1535 1479 1444 1365 1521 1450 1453 1473 1449 1463 1530 1479 1464 1519 1510 1467 1511 1532 1505 1455 1500 1468 1487 1490 1408 1488 1482 1508 1414 1507 1470 1416 1547 1541 1429 1482 1407 1491 1487 1461 1520 1458 1591 1463 1507 1542 1445 1460 1476 1374 1425 1501 1418 1529 1531 1485 1470 1440 1475 1488 1449 1458 1488 1385 1472 1480 1397 1462 1504 1453 1399 1493 1505 1550 1373 1479 1428 1496 1449 1541 1437 1483 1481 1504 1573 1462 1424 1440 1434 1518 1549 1528 1505 1501 1426 1501 1569 1493 1506 1496 1534 1397 1477 1414 1517 1441 1470 1435 1480 1513 1464 1476 1470 1410 1461 1455 1434 1437 1507 1483 1481 1544 1481 1438 1433 1430 1459 1453 1492 1538 1441 1448 1463 1499 1517 1433 1476 1447 1479 1459 1452 1547 1524 1454 1429 1468 1434 1416 1462 1481 1473 1451 1448 1496 1490 1452 1434 1445 1435 1453 1494 1524 1443 1478 1439 1460 1558 1479 1436 1485 1446 1433 1453 1478 1473 1409 1408 1416 1506 1468 1482 1499 1464 1509 1488 1439 1454 1409 1461 1476 1429 1416 1465 1513 1448 1438 1484 1482 1512 1510 1487 1471 1452 1482 1413 1482 1396 1432 1432 1520 1396 1446 1437 1510 1444 1442 1545 1408 1508 1527 1464 1465 1501 1491 1424 1375 1487 1490 1520 1452 1487 1450 1425 1468 1490 1453 1484 1436 1436 1498 1423 1445 1399 1502 1428 1497 1474 1545 1451 1505 1491 1463 1506 1437 1467 1493 1507 1407 1506 1531 1478 1473 1547 1474 1410 1398 1434 1501 1482 1458 1461 1454 1439 1432 1512 1487 1391 1514 1463 1508 1464 1446 1499 1385 1441 1414 1441 1431 1499 1496 1460 1394 1510 1423 1441 1475 1473 1492 1470 1508 1468 1488 1481 1394 1449 1428 1499 1417 1464 1429 1431 1518 1518 1467 1498 1510 1467 1470 1441 1410 1437 1457 1478 1401 1390 1506 1478 1443 1423 1488 1431 1432 1502 1449 1446 1483 1428 1450 1472 1439 1434 1431 1505 1398 1452 1474 1489 1445 1513 1419 1468 1470 1493 1388 1440 1547 1530 1459 1466 1429 1428 1402 1458 1431 1453 1426 1455 1424 1463 1483 1421 1455 1516 1514 1485 1482 1421 1500 1458 1400 1377 1465 1459 1519 1454 1434 1417 1475 1462 1511 1437 1431 1457 1451 1463 1423 1404 1490 1415 1476 1413 1388 1468 1487 1497 1475 1480 1427 1455 1464 1442 1482 1408 1515 1461 1446 1435 1434 1474 1463 1482 1431 1535 1461 1449 1479 1436 1415 1433 1433 1463 1506 1479 1425 1510 1473 1496 1506 1468 1490 1514 1450 1502 1507 1444 1526 1462 1551 1522 1497 1471 1504 1545 1494 1467 1550 1590 1578 1499 1518 1539 1523 1586 1652 1632 1637 1570 1595 1609 1704 1652 1635 1671 1674 1754 1700 1772 1773 1755 1834 1877 1862 1858 1873 1886 1962 2016 1952 2108 2051 1996 2033 2030 2056 2156 2066 2131 2160 2171 2066 2153 2155 2160 2166 2194 2188 2035 2082 2089 2041 2055 1964 1995 1935 1918 1852 1889 1858 1770 1737 1676 1664 1616 1678 1553 1680 1537 1628 1571 1611 1471 1529 1521 1532 1525 1565 1536 1531 1532 1480 1528 1448 1471 1508 1490 1481 1436 1421 1506 1509 1429 1474 1474 1387 1495 1447 1495 1461 1577 1568 1489 1491 1477 1472 1487 1428 1474 1467 1478 1486 1516 1465 1445 1467 1539 1422 1496 1526 1390 1522 1529 1456 1465 1496 1568 1529 1497 1402 1471 1450 1425 1459 1505 1431 1461 1503 1440 1486 1424 1430 1394 1430 1422 1381 1451 1394 1384 1458 1474 1509 1496 1447 1498 1497 1437 1487 1494 1510 1459 1442 1471 1421 1429 1505 1414 1495 1448 1476 1510 1493 1468 1437 1457 1544 1446 1463 1483 1439 1408 1432 1431 1478 1464 1405 1394 1413 1366 1457 1453 1457 1425 1543 1467 1465 1499 1457 1383 1448 1423 1440 1405 1418 1484 1449 1437 1451 1424 1429 1431 1425 1417 1480 1423 1490 1398 1381 1389 1473 1419 1484 1492 1384 1354 1422 1415 1458 1480 1431 1409 1355 1388 1499 1403 1499 1460 1489 1503 1443 1424 1487 1519 1466 1470 1444 1389 1407 1491 1428 1473 1494 1429 1520 1431 1435 1481 1456 1470 1398 1422 1426 1465 1390 1503 1484 1443 1484 1530 1495 1453 1450 1476 1446 1467 1512 1458 1407 1417 1505 1403 1465 1470 1484 1485 1476 1473 1423 1410 1443 1477 1464 1496 1449 1443 1504 1419 1441 1480 1467 1427 1469 1463 1478 1471 1484 1427 1538 1509 1481 1488 1413 1422 1449 1500 1455 1561 1403 1444 1452 1474 1543 1476 1449 1482 1515 1378 1462 1511 1412 1425 1489 1542 1440 1442 1492 1446 1461 1495 1480 1494 1447 1483 1432 1421 1467 1496 1448 1488 1463 1507 1432 1517 1523 1433 1462 1488 1483 1481 1504 1448 1471 1513 1476 1525 1438 1465 1552 1433 1532 1495 1549 1512 1502 1549 1541 1552 1602 1572 1668 1696 1689 1647 1680 1733 1728 1705 1766 1737 1850 1874 1855 1878 1895 1874 1964 1987 1999 2065 2064 2184 2303 2278 2455 2460 2522 2555 2660 2741 2890 2909 3040 3224 3255 3440 3542 3635 3677 3718 3907 4051 4102 4100 4291 4364 4569 4605 4670 4909 4861 5051 5296 5180 5298 5248 5295 5261 5113 5208 5061 4777 4759 4455 4272 4240 4071 3877 3753 3684 3530 3364 3255 3081 2952 2766 2624 2459 2441 2348 2255 2168 2077 2129 2002 1959 1879 1921 1818 1887 1848 1815 1773 1752 1662 1722 1679 1653 1723 1702 1816 1736 1736 1675 1684 1674 1616 1604 1671 1646 1689 1655 1620 1733 1561 1618 1595 1642 1661 1737 1575 1608 1655 1640 1559 1628 1575 1535 1644 1568 1650 1634 1640 1654 1519 1558 1575 1561 1604 1640 1616 1569 1538 1585 1545 1649 1552 1526 1522 1588 1573 1529 1556 1486 1490 1563 1498 1559 1588 1522 1547 1536 1503 1409 1535 1496 1518 1457 1453 1562 1499 1474 1490 1529 1486 1547 1422 1482 1504 1495 1445 1361 1489 1417 1473 1420 1431 1398 1475 1419 1502 1449 1443 1446 1418 1448 1456 1431 1501 1413 1461 1408 1481 1441 1404 1474 1374 1431 1448 1419 1480 1404 1406 1426 1423 1451 1396 1433 1496 1379 1419 1432 1498 1525 1444 1386 1408 1368 1470 1419 1490 1465 1466 1449 1451 1431 1434 1476 1403 1450 1457 1519 1499 1480 1576 1512 1442 1463 1526 1500 1568 1615 1564 1522 1550 1624 1613 1604 1580 1724 1670 1663 1694 1695 1779 1677 1707 1767 1698 1801 1803 1805 1733 1800 1706 1743 1813 1841 1893 1804 1852 1815 1792 1811 1726 1762 1737 1748 1662 1739 1636 1709 1698 1614 1579 1603 1559 1631 1551 1504 1572 1481 1594 1543 1548 1486 1525 1510 1475 1466 1488 1496 1451 1478 1422 1446 1466 1441 1412 1411 1461 1433 1435 1455 1440 1414 1450 1458 1433 1517 1478 1436 1475 1380 1467 1403 1432 1454 1389 1427 1495 1471 1425 1464 1481 1453 1425 1442 1428 1400 1479 1359 1470 1474 1438 1420 1398 1443 1428 1431 1401 1452 1364 1468 1294 1434 1449 1405 1399 1426 1397 1426 1383 1438 1394 1353 1398 1470 1467 1435 1458 1437 1495 1424 1428 1380 1350 1421 1422 1427 1417 1443 1457 1444 1444 1429 1406 1352 1378 1371 1423 1429 1389 1348 1427 1395 1362 1408 1437 1431 1377 1380 1406 1339 1282 1423 1421 1427 1448 1447 1359 1371 1349 1379 1414 1363 1370 1312 1402 1419 1428 1387 1375 1359 1417 1404 1405 1408 1366 1363 1415 1481 1372 1390 1368 1439 1428 1412 1417 1432 1351 1405 1372 1412 1383 1321 1443 1385 1374 1373 1386 1443 1366 1447 1386 1389 1402 1374 1348 1353 1343 1370 1351 1348 1382 1423 1460 1426 1327 1389 1345 1440 1428 1388 1384 1421 1357 1362 1418 1358 1290 1400 1366 1447 1344 1359 1388 1307 1366 1380 1340 1402 1393 1449 1343 1429 1368 1437 1452 1403 1330 1374 1382 1361 1307 1428 1351 1398 1396 1368 1391 1366 1400 1338 1349 1353 1460 1366 1353 1354 1417 1370 1374 1338 1418 1379 1416 1365 1424 1353 1324 1402 1362 1372 1448 1448 1426 1468 1449 1409 1364 1398 1386 1365 1359 1320 1327 1372 1369 1367 1415 1393 1395 1395 1368 1377 1371 1394 1417 1323 1325 1393 1386 1393 1353 1363 1345 1337 1356 1362 1438 1354 1313 1388 1294 1354 1389 1404 1405 1343 1367 1314 1352 1303 1396 1416 1410 1373 1390 1381 1426 1379 1415 1366 1401 1431 1357 1348 1361 1309 1379 1367 1325 1374 1466 1368 1256 1378 1372 1381 1365 1371 1288 1344 1411 1351 1406 1385 1402 1457 1346 1309 1395 1398 1415 1332 1359 1368 1330 1337 1408 1371 1422 1379 1456 1321 1337 1339 1422 1285 1381 1420 1436 1312 1403 1403 1377 1379 1338 1351 1340 1419 1294 1336 1336 1340 1374 1383 1372 1430 1280 1419 1334 1309 1325 1349 1357 1330 1353 1335 1372 1275 1388 1352 1379 1380 1382 1368 1316 1355 1380 1311 1395 1338 1361 1397 1398 1345 1305 1360 1358 1430 1373 1336 1345 1382 1361 1318 1374 1307 1391 1357 1334 1327 1360 1352 1370 1361 1317 1340 1328 1374 1354 1446 1375 1411 1349 1424 1392 1358 1329 1381 1355 1332 1311 1436 1436 1394 1348 1275 1317 1325 1293 1324 1402 1373 1296 1366 1386 1396 1338 1317 1390 1372 1409 1398 1290 1390 1414 1345 1486 1319 1363 1453 1382 1391 1276 1310 1362 1318 1425 1323 1353 1424 1421 1339 1352 1315 1334 1313 1425 1421 1409 1334 1314 1349 1419 1372 1409 1404 1307 1343 1339 1367 1404 1355 1411 1291 1364 1354 1390 1456 1360 1376 1383 1399 1398 1403 1380 1360 1374 1355 1356 1459 1425 1414 1411 1385 1374 1449 1424 1465 1440 1513 1462 1416 1385 1486 1406 1432 1442 1488 1510 1448 1419 1388 1477 1470 1545 1528 1490 1471 1543 1522 1438 1466 1384 1502 1480 1522 1468 1484 1437 1463 1511 1490 1405 1399 1453 1489 1426 1397 1451 1458 1405 1433 1377 1474 1427 1476 1424 1457 1489 1541 1506 1519 1468 1507 1530 1484 1569 1601 1590 1587 1654 1604 1705 1702 1627 1780 1729 1737 1742 1709 1816 1756 1746 1784 1726 1739 1877 1830 1887 1892 1945 1920 1862 1885 1913 1852 1868 1816 1868 1798 1747 1749 1654 1729 1714 1702 1620 1703 1656 1752 1593 1638 1519 1588 1588 1572 1556 1502 1464 1480 1434 1463 1504 1523 1409 1431 1424 1464 1416 1419 1331 1401 1438 1454 1462 1347 1436 1385 1421 1405 1459 1406 1400 1396 1434 1468 1408 1458 1374 1458 1438 1469 1483 1456 1395 1417 1481 1454 1380 1412 1447 1385 1427 1466 1461 1420 1458 1398 1386 1466 1538 1446 1419 1404 1432 1491 1437 1498 1391 1491 1423 1390 1482 1479 1440 1441 1394 1489 1426 1490 1423 1417 1389 1338 1369 1412 1426 1391 1351 1427 1342 1354 1374 1360 1380 1430 1432 1367 1325 1392 1323 1362 1396 1357 1344 1335 1437 1326 1314 1353 1365 1402 1329 1372 1351 1372 1405 1362 1374 1329 1478 1352 1382 1405 1389 1344 1402 1322 1383 1344 1366 1355 1402 1362 1333 1326 1320 1418 1387 1389 1415 1348 1305 1408 1413 1368 1398 1405 1343 1450 1304 1392 1335 1363 1381 1350 1374 1378 1401 1346 1311 1340 1318 1312 1297 1316 1363 1329 1338 1382 1405 1342 1301 1359 1433 1375 1311 1464 1376 1415 1360 1380 1389 1343 1437 1364 1433 1367 1389 1337 1339 1364 1377 1390 1361 1454 1370 1394 1384 1397 1414 1418 1489 1465 1509 1528 1435 1418 1504 1459 1454 1513 1571 1493 1537 1556 1559 1601 1616 1673 1590 1629 1711 1768 1819 1812 1776 1819 1811 1833 1949 1940 1897 2051 1975 2100 2181 2179 2200 2257 2227 2210 2372 2301 2285 2252 2401 2317 2433 2422 2354 2375 2278 2327 2192 2225 2089 1997 2100 2005 2029 2021 1921 1914 1946 1918 1906 1785 1786 1774 1740 1679 1649 1581 1604 1522 1558 1437 1586 1499 1542 1445 1506 1433 1465 1399 1499 1466 1486 1448 1445 1382 1493 1414 1402 1361 1370 1457 1474 1422 1405 1480 1412 1411 1436 1378 1415 1376 1425 1411 1376 1411 1416 1445 1400 1405 1436 1463 1426 1459 1372 1422 1390 1392 1470 1469 1435 1436 1469 1442 1416 1378 1433 1437 1417 1446 1425 1398 1434 1508 1405 1425 1295 1279 1367 1412 1410 1376 1395 1397 1476 1338 1338 1413 1370 1368 1350 1334 1420 1419 1407 1386 1400 1371 1355 1411 1378 1391 1347 1461 1301 1393 1346 1316 1404 1332 1377 1412 1380 1403 1409 1305 1383 1412 1322 1374 1355 1381 1338 1434 1374 1344 1306 1375 1355 1324 1346 1380 1357 1345 1362 1363 1391 1344 1419 1437 1397 1397 1433 1384 1370 1409 1430 1382 1439 1426 1479 1399 1486 1454 1492 1431 1505 1525 1468 1521 1586 1521 1535 1506 1586 1586 1552 1622 1497 1563 1614 1582 1550 1585 1562 1588 1581 1580 1587 1652 1564 1533 1583 1529 1558 1567 1513 1405 1553 1538 1502 1476 1490 1444 1477 1454 1453 1419 1482 1433 1501 1438 1397 1411 1401 1411 1385 1362 1404 1339 1344 1360 1330 1464 1373 1385 1324 1355 1382 1401 1336 1336 1396 1345 1369 1370 1356 1378 1294 1390 1324 1392 1317 1354 1365 1323 1357 1384 1311 1326 1350 1354 1334 1390 1410 1309 1388 1419 1309 1377 1345 1413 1350 1289 1341 1326 1314 1246 1326 1372 1374 1391 1383 1322 1324 1300 1321 1311 1421 1266 1320 1308 1342 1309 1430 1289 1317 1358 1432 1339 1308 1349 1302 1328 1330 1351 1320 1365 1308 1303 1362 1347 1357 1369 1375 1293 1337 1341 1350 1346 1312 1320 1322 1325 1366 1312 1345 1375 1274 1281 1362 1400 1367 1338 1369 1332 1362 1310 1398 1415 1331 1390 1368 1385 1323 1343 1367 1354 1337 1332 1321 1357 1342 1391 1271 1325 1407 1402 1366 1296 1323 1293 1269 1316 1303 1394 1360 1347 1359 1347 1354 1327 1336 1279 1299 1378 1303 1377 1360 1353 1326 1312 1412 1306 1364 1341 1359 1280 1327 1328 1397 1294 1384 1372 1333 1325 1344 1343 1384 1296 1336 1309 1313 1348 1346 1335 1317 1270 1291 1299 1373 1370 1349 1307 1369 1346 1348 1410 1322 1254 1372 1353 1330 1347 1317 1313 1364 1299 1327 1354 1298 1344 1312 1352 1322 1373 1370 1310 1303 1382 1302 1298 1364 1330 1339 1370 1279 1378 1337 1328 1321 1331 1390 1342 1381 1353 1288 1368 1310 1350 1327 1418 1361 1255 1349 1363 1332 1316 1286 1342 1401 1293 1307 1287 1282 1327 1329 1327 1339 1349 1312 1323 1268 1351 1369 1294 1296 1310 1314 1347 1336 1379 1355 1306 1362 1400 1297 1318 1354 1315 1332 1335 1361 1310 1253 1372 1313 1333 1324 1300 1321 1363 1356 1291 1283 1327 1293 1315 1317 1330 1318 1307 1341 1310 1319 1276 1395 1416 1317 1347 1286 1302 1357 1312 1353 1359 1404 1283 1338 1379 1359 1327 1301 1348 1383 1305 1289 1414 1298 1273 1351 1279 1292 1273 1279 1318 1271 1323 1363 1351 1347 1302 1270 1370 1322 1263 1326 1334 1324 1275 1323 1313 1324 1346 1327 1341 1359 1328 1335 1313 1325 1296 1372 1365 1354 1256 1329 1329 1366 1353 1377 1270 1353 1296 1285 1341 1363 1361 1300 1348 1213 1311 1316 1346 1365 1289 1373 1314 1331 1354 1316 1369 1374 1315 1364 1343 1314 1417 1404 1311 1312 1252 1265 1276 1395 1297 1291 1315 1390 1348 1317 1380 1333 1304 1352 1286 1336 1321 1376 1380 1353 1363 1343 1322 1348 1365 1312 1337 1449 1305 1260 1402 1319 1350 1353 1289 1289 1335 1336 1336 1333 1324 1294 1326 1374 1344 1381 1354 1399 1320 1366 1338 1339 1413 1352 1433 1373 1398 1381 1458 1411 1438 1445 1382 1395 1497 1437 1393 1370 1430 1417 1454 1452 1438 1463 1414 1484 1435 1462 1493 1453 1442 1419 1547 1440 1439 1427 1368 1440 1394 1461 1343 1435 1466 1365 1425 1345 1375 1368 1355 1451 1443 1414 1295 1367 1406 1327 1300 1358 1310 1273 1248 1386 1380 1360 1350 1392 1368 1280 1339 1308 1353 1358 1335 1361 1358 1263 1344 1310 1390 1339 1326 1371 1306 1309 1255 1275 1308 1250 1352 1330 1331 1369 1306 1295 1349 1296 1392 1289 1323 1351 1374 1327 1336 1352 1372 1324 1329 1351 1342 1296 1315 1330 1347 1243 1325 1314 1301 1353 1323 1274 1326 1321 1321 1403 1264 1339 1346 1310 1317 1336 1400 1355 1311 1274 1273 1323 1298 1314 1418 1329 1384 1327 1337 1371 1303 1270 1319 1302 1400 1338 1295 1312 1306 1279 1334 1288 1282 1357 1279 1374 1226 1365 1368 1379 1395 1374 1351 1374 1327 1347 1279 1291 1348 1396 1312 1270 1373 1334 1351 1341 1342 1296 1250 1328 1303 1339 1305 1344 1380 1315 1291 1344 1307 1283 1303 1341 1354 1336 1307 1304 1280 1316 1326 1373 1267 1316 1328 1391 1313 1328 1355 1381 1332 1358 1312 1322 1291 1338 1322 1320 1283 1312 1310 1332 1302 1255 1329 1318 1374 1315 1271 1319 1356 1295 1254 1364 1334 1330 1331 1354 1317 1323 1347 1334 1371 1404 1279 1373 1369 1293 1306 1353 1360 1391 1332 1388 1373 1350 1287 1345 1372 1313 1307 1325 1329 1386 1352 1317 1374 1380 1354 1397 1380 1368 1359 1379 1387 1287 1336 1298 1380 1358 1341 1344 1352 1367 1403 1378 1489 1387 1377 1368 1356 1345 1344 1406 1426 1479 1502 1419 1407 1496 1432 1463 1428 1480 1524 1488 1519 1449 1531 1549 1615 1529 1553 1655 1707 1641 1629 1647 1676 1703 1634 1714 1719 1671 1771 1758 1739 1682 1684 1710 1721 1705 1691 1682 1635 1668 1602 1608 1562 1635 1606 1574 1610 1557 1438 1556 1547 1499 1474 1544 1476 1507 1442 1430 1430 1504 1402 1402 1385 1436 1441 1419 1391 1389 1351 1377 1369 1400 1365 1354 1494 1373 1379 1336 1425 1302 1342 1351 1350 1394 1380 1304 1437 1350 1301 1376 1304 1351 1409 1299 1348 1288 1327 1331 1326 1330 1438 1304 1296 1348 1309 1333 1313 1363 1361 1386 1344 1392 1371 1393 1346 1370 1447 1343 1385 1323 1328 1341 1384 1321 1373 1369 1308 1382 1335 1347 1379 1404 1305 1304 1376 1333 1338 1336 1412 1363 1327 1308 1343 1348 1331 1378 1360 1267 1335 1418 1353 1360 1375 1402 1258 1394 1254 1343 1397 1356 1341 1342 1286 1378 1315 1300 1340 1413 1388 1339 1289 1330 1283 1360 1349 1335 1236 1353 1292 1316 1340 1314 1384 1293 1307 1237 1290 1351 1408 1355 1370 1281 1315 1343 1342 1295 1369 1339 1364 1303 1393 1316 1338 1344 1328 1318 1341 1342 1324 1411 1297 1373 1362 1275 1342 1363 1337 1304 1397 1280 1252 1285 1272 1345 1297 1349 1325 1312 1292 1369 1286 1318 1399 1320 1313 1354 1297 1334 1299 1343 1292 1315 1383 1322 1319 1323 1274 1306 1277 1364 1271 1349 1323 1361 1297 1307 1296 1329 1326 1351 1331 1258 1381 1375 1264 1274 1365 1339 1306 1333 1331 1274 1356 1336 1365 1341 1306 1302 1339 1355 1271 1354 1336 1318 1334 1267 1316 1273 1327 1379 1322 1372 1341 1361 1308 1305 1331 1390 1315 1317 1280 1334 1381 1299 1319 1339 1394 1343 1274 1334 1323 1311 1299 1316 1252 1283 1305 1303 1313 1363 1339 1342 1323 1392 1292 1305 1321 1318 1291 1370 1326 1287 1325 1337 1360 1341 1339 1460 1308 1356 1297 1357 1279 1352 1366 1362 1282 1289 1266 1312 1260 1284 1296 1334 1301 1304 1362 1287 1299 1332 1301 1371 1325 1331 1353 1341 1344 1353 1317 1405 1278 1235 1334 1433 1330 1299 1232 1352 1321 1257 1316 1309 1321 1258 1312 1309 1312 1318 1338 1329 1388 1251 1304 1348 1372 1354 1314 1310 1269 1324 1350 1324 1286 1323 1340 1322 1329 1294 1321 1298 1322 1349 1322 1311 1309 1338 1303 1316 1338 1303 1401 1282 1349 1337 1349 1301 1337 1330 1294 1291 1403 1345 1323 1358 1342 1274 1317 1324 1321 1310 1363 1378 1360 1297 1309 1322 1310 1364 1338 1351 1379 1265 1374 1307 1351 1283 1291 1370 1349 1315 1288 1344 1401 1332 1327 1315 1361 1255 1314 1316 1316 1291 1380 1287 1289 1317 1283 1303 1317 1336 1330 1299 1361 1303 1358 1350 1309 1312 1305 1344 1279 1349 1364 1321 1280 1375 1341 1315 1355 1295 1308 1276 1315 1309 1275 1402 1334 1363 1270 1394 1400 1314 1325 1346 1331 1323 1370 1312 1314 1376 1266 1256 1332 1323 1306 1307 1293 1344 1288 1349 1387 1296 1305 1345 1299 1329 1368 1300 1332 1303 1418 1336 1340 1340 1348 1305 1390 1269 1294 1308 1277 1367 1314 1376 1321 1305 1336 1351 1284 1343 1331 1298 1336 1325 1327 1360 1324 1286 1343 1339 1336 1333 1362 1328 1388 1258 1296 1283 1306 1332 1290 1286 1398 1322 1376 1352 1385 1302 1334 1357 1359 1354 1308 1362 1331 1398 1343 1367 1281 1375 1341 1328 1305 1325 1318 1340 1342 1382 1405 1247 1299 1375 1312 1329 1336 1270 1266 1378 1374 1281 1347 1336 1306 1377 1321 1309 1305 1354 1258 1315 1358 1351 1335 1401 1276 1378 1298 1254 1364 1359 1383 1336 1334 1248 1293 1337 1373 1389 1410 1402 1398 1343 1331 1429 1314 1362 1386 1379 1374 1385 1373 1409 1363 1394 1366 1424 1414 1463 1439 1386 1421 1444 1437 1466 1378 1422 1510 1406 1421 1420 1494 1431 1467 1410 1504 1459 1417 1432 1485 1417 1494 1475 1431 1461 1391 1439 1430 1361 1429 1472 1443 1373 1420 1439 1400 1353 1428 1385 1404 1395 1450 1386 1448 1423 1405 1409 1512 1401 1435 1482 1451 1437 1369 1511 1515 1479 1467 1420 1544 1517 1487 1479 1542 1539 1476 1483 1519 1491 1535 1468 1488 1440 1480 1483 1495 1492 1449 1523 1461 1481 1449 1426 1527 1439 1449 1441 1423 1421 1491 1452 1406 1448 1431 1397 1443 1484 1390 1393 1389 1381 1383 1359 1366 1378 1317 1368 1388 1327 1379 1342 1362 1386 1410 1288 1370 1300 1378 1316 1374 1435 1384 1367 1325 1402 1330 1364 1289 1335 1356 1350 1343 1350 1324 1347 1362 1346 1411 1365 1276 1342 1391 1323 1311 1327 1323 1273 1290 1375 1371 1370 1334 1392 1346 1427 1317 1320 1372 1308 1368 1419 1376 1400 1291 1373 1374 1367 1360 1355 1431 1318 1381 1407 1365 1332 1362 1331 1412 1383 1393 1369 1356 1404 1259 1353 1386 1356 1355 1360 1353 1427 1398 1334 1409 1345 1373 1381 1400 1353 1377 1379 1420 1326 1391 1359 1351 1420 1295 1479 1479 1406 1381 1403 1354 1325 1367 1420 1321 1390 1410 1458 1363 1337 1417 1398 1359 1410 1327 1392 1330 1374 1371 1381 1325 1359 1335 1386 1392 1382 1389 1378 1402 1409 1452 1320 1436 1337 1310 1415 1469 1419 1431 1411 1431 1440 1316 1417 1381 1453 1469 1522 1402 1518 1534 1508 1427 1546 1443 1518 1507 1502 1504 1537 1568 1664 1642 1701 1729 1726 1784 1770 1772 1764 1877 1845 1838 1916 1898 1962 2013 1945 2120 2023 2134 2097 2131 2049 2116 2106 2159 2181 2147 2166 2227 2179 2134 2154 2045 2010 2118 2085 2019 2039 1964 1924 1917 1911 1882 1914 1812 1911 1787 1859 1826 1843 1743 1782 1727 1696 1628 1657 1659 1710 1635 1599 1633 1572 1565 1540 1532 1518 1517 1562 1547 1543 1486 1463 1448 1466 1403 1468 1377 1417 1516 1402 1376 1442 1472 1406 1441 1353 1445 1392 1370 1424 1408 1393 1427 1335 1427 1428 1394 1406 1408 1338 1405 1410 1371 1431 1379 1453 1373 1410 1416 1367 1379 1377 1321 1355 1342 1412 1380 1416 1307 1433 1385 1349 1363 1424 1397 1389 1355 1327 1392 1391 1352 1374 1346 1340 1419 1411 1391 1394 1399 1418 1374 1402 1374 1352 1394 1349 1437 1375 1407 1404 1419 1436 1399 1369 1380 1467 1442 1434 1389 1402 1367 1327 1356 1387 1458 1361 1377 1374 1399 1473 1360 1463 1461 1384 1386 1326 1441 1376 1412 1417 1405 1418 1406 1422 1393 1460 1482 1438 1424 1455 1437 1555 1408 1420 1364 1394 1439 1414 1451 1376 1446 1463 1454 1419 1435 1432 1456 1439 1422 1425 1383 1418 1411 1440 1456 1417 1392 1356 1424 1309 1397 1392 1338 1384 1413 1393 1359 1475 1402 1346 1405 1410 1395 1394 1393 1314 1347 1284 1463 1298 1385 1339 1367 1327 1354 1385 1334 1305 1349 1330 1343 1358 1323 1362 1385 1364 1361 1367 1331 1398 1366 1420 1433 1378 1391 1402 1392 1310 1308 1367 1337 1311 1326 1336 1417 1337 1368 1349 1313 1346 1323 1391 1256 1393 1392 1321 1370 1343 1360 1331 1344 1328 1309 1466 1321 1342 1296 1357 1396 1343 1324 1340 1283 1392 1316 1374 1387 1341 1379 1321 1342 1379 1342 1310 1322 1372 1328 1313 1348 1293 1303 1370 1304 1402 1324 1372 1357 1322 1342 1349 1359 1331 1350 1321 1338 1354 1390 1348 1291 1403 1270 1351 1257 1381 1343 1321 1309 1341 1387 1350 1329 1337 1377 1387 1270 1365 1332 1397 1376 1316 1344 1338 1347 1319 1380 1355 1323 1352 1338 1410 1337 1386 1372 1302 1334 1328 1290 1350 1331 1323 1335 1351 1244 1268 1337 1349 1348 1332 1344 1385 1310 1388 1337 1346 1353 1318 1370 1418 1392 1361 1370 1385 1382 1286 1405 1391 1318 1341 1400 1362 1278 1297 1357 1331 1366 1375 1370 1331 1388 1314 1345 1344 1275 1301 1358 1310 1371 1381 1360 1337 1365 1299 1339 1320 1374 1384 1326 1353 1299 1270 1393 1333 1319 1397 1265 1308 1314 1312 1312 1343 1400 1278 1300 1359 1361 1397 1381 1288 1336 1398 1308 1317 1354 1327 1355 1385 1311 1329 1325 1307 1376 1327 1337 1306 1353 1280 1370 1342 1376 1309 1352 1350 1332 1356 1373 1299 1381 1293 1339 1400 1315 1380 1354 1386 1340 1294 1389 1331 1378 1408 1300 1318 1364 1375 1326 1385 1327 1360 1327 1376 1316 1350 1351 1302 1352 1362 1405 1378 1336 1349 1369 1387 1348 1308 1391 1353 1333 1308 1381 1335 1395 1421 1373 1333 1337 1349 1397 1352 1363 1299 1330 1275 1309 1364 1350 1403 1345 1359 1352 1307 1347 1378 1342 1363 1306 1341 1411 1332 1296 1255 1334 1326 1365 1362 1294 1324 1344 1379 1350 1381 1318 1360 1297 1326 1359 1341 1405 1292 1330 1342 1331 1396 1394 1359 1340 1334 1265 1359 1367 1287 1304 1362 1341 1343 1425 1334 1352 1357 1343 1359 1331 1336 1316 1293 1386 1389 1335 1357 1345 1375 1326 1361 1399 1320 1358 1335 1300 1313 1331 1414 1362 1339 1382 1383 1325 1353 1356 1354 1281 1383 1332 1415 1385 1422 1438 1448 1403 1391 1341 1338 1440 1409 1380 1381 1378 1454 1464 1420 1394 1460 1398 1421 1402 1495 1484 1471 1471 1387 1459 1402 1476 1460 1398 1343 1485 1407 1434 1437 1366 1341 1492 1424 1425 1399 1426 1440 1448 1424 1373 1418 1373 1424 1386 1412 1397 1370 1435 1401 1379 1380 1354 1412 1411 1409 1332 1338 1365 1364 1385 1359 1412 1341 1373 1392 1381 1383 1383 1350 1426 1382 1389 1357 1415 1397 1320 1399 1365 1408 1361 1359 1304 1329 1322 1375 1362 1378 1355 1308 1373 1349 1368 1319 1366 1313 1374 1267 1302 1275 1323 1380 1336 1317 1323 1374 1372 1309 1384 1347 1371 1375 1382 1331 1365 1324 1392 1347 1357 1367 1308 1389 1223 1335 1359 1263 1366 1328 1336 1365 1422 1365 1329 1327 1307 1288 1316 1341 1406 1345 1365 1358 1339 1426 1386 1382 1303 1343 1333 1312 1355 1375 1381 1389 1346 1336 1360 1402 1358 1275 1351 1366 1446 1332 1290 1368 1295 1340 1296 1412 1348 1298 1365 1300 1326 1332 1417 1374 1271 1334 1279 1326 1389 1310 1394 1329 1383 1381 1341 1345 1324 1349 1385 1390 1372 1363 1399 1368 1428 1376 1357 1362 1346 1317 1342 1285 1326 1345 1360 1325 1334 1364 1336 1314 1329 1335 1279 1421 1370 1362 1301 1423 1335 1423 1358 1345 1355 1445 1350 1382 1314 1361 1366 1338 1340 1338 1404 1277 1359 1317 1326 1371 1382 1401 1367 1319 1389 1357 1350 1374 1377 1421 1379 1364 1373 1374 1355 1361 1431 1351 1340 1442 1437 1467 1366 1410 1429 1414 1431 1455 1400 1417 1445 1497 1443 1448 1502 1498 1581 1530 1615 1532 1477 1674 1597 1581 1635 1642 1677 1657 1643 1741 1785 1761 1798 1801 1798 1863 1869 1866 1841 1849 1854 1792 1795 1870 1923 1856 1842 1936 1792 1854 1737 1780 1746 1751 1705 1756 1641 1767 1790 1779 1739 1702 1703 1723 1707 1648 1679 1764 1665 1685 1675 1615 1665 1550 1592 1607 1635 1683 1570 1513 1568 1495 1451 1540 1427 1470 1497 1482 1448 1490 1420 1428 1544 1438 1329 1441 1395 1373 1423 1404 1424 1421 1439 1386 1461 1415 1386 1428 1410 1443 1439 1401 1337 1355 1390 1381 1396 1350 1343 1344 1344 1349 1380 1350 1410 1404 1377 1361 1390 1360 1305 1402 1381 1335 1376 1384 1369 1360 1349 1383 1368 1367 1411 1358 1397 1289 1338 1425 1350 1440 1342 1360 1365 1372 1295 1382 1311 1345 1385 1377 1397 1414 1360 1379 1345 1366 1409 1391 1350 1378 1337 1317 1340 1446 1368 1391 1376 1397 1389 1398 1374 1407 1371 1377 1362 1423 1418 1381 1453 1364 1438 1314 1351 1443 1405 1285 1360 1433 1383 1308 1395 1395 1371 1388 1371 1433 1417 1379 1402 1448 1410 1458 1408 1463 1363 1425 1416 1415 1445 1399 1363 1485 1385 1480 1421 1366 1380 1414 1387 1410 1385 1429 1444 1362 1430 1337 1392 1314 1346 1384 1361 1354 1421 1385 1376 1356 1358 1368 1335 1378 1355 1381 1364 1393 1385 1269 1444 1354 1381 1269 1383 1370 1297 1343 1408 1354 1390 1347 1397 1344 1332 1385 1304 1365 1364 1359 1427 1339 1343 1349 1318 1376 1395 1386 1345 1366 1321 1312 1454 1341 1401 1361 1362 1397 1324 1355 1315 1363 1358 1307 1311 1374 1350 1341 1364 1347 1365 1307 1413 1357 1355 1348 1369 1375 1369 1329 1396 1337 1342 1345 1362 1320 1422 1300 1417 1385 1371 1374 1381 1382 1351 1350 1334 1371 1301 1360 1408 1381 1302 1332 1369 1330 1275 1321 1316 1336 1372 1401 1367 1288 1338 1377 1366 1353 1311 1327 1323 1336 1267 1343 1278 1382 1346 1312 1354 1363 1344 1324 1297 1331 1397 1338 1392 1311 1389 1322 1388 1408 1362 1370 1365 1365 1289 1317 1295 1342 1353 1357 1373 1287 1337 1346 1375 1361 1320 1304 1451 1341 1334 1357 1310 1359 1278 1354 1406 1327 1268 1359 1336 1312 1255 1341 1321 1316 1386 1417 1344 1357 1344 1283 1342 1319 1300 1391 1342 1348 1348 1337 1377 1339 1352 1353 1379 1347 1391 1396 1335 1264 1346 1299 1314 1387 1316 1416 1364 1337 1353 1339 1363 1292 1326 1353 1365 1348 1329 1343 1423 1332 1356 1363 1346 1371 1280 1353 1373 1353 1325 1303 1373 1280 1381 1305 1321 1407 1284 1300 1354 1360 1315 1330 1357 1362 1372 1308 1313 1426 1400 1409 1275 1344 1329 1338 1287 1348 1313 1340 1298 1397 1315 1374 1355 1338 1380 1337 1357 1318 1398 1374 1349 1350 1332 1334 1425 1369 1391 1358 1381 1353 1359 1329 1354 1246 1374 1304 1328 1364 1327 1382 1341 1382 1322 1387 1277 1434 1389 1294 1394 1285 1400 1339 1369 1441 1319 1334 1297 1302 1331 1276 1383 1342 1323 1323 1384 1406 1368 1404 1334 1308 1338 1377 1384 1337 1337 1326 1380 1377 1274 1294 1332 1294 1268 1314 1355 1280 1332 1424 1341 1312 1287 1357 1317 1316 1388 1394 1344 1365 1396 1332 1317 1404 1367 1303 1318 1352 1366 1323 1351 1352 1327 1371 1358 1341 1320 1375 1339 1339 1346 1342 1356 1366 1392 1378 1381 1368 1395 1409 1337 1366 1314 1393 1378 1328 1328 1349 1362 1379 1344 1394 1377 1407 1412 1293 1347 1374 1335 1438 1401 1272 1346 1308 1396 1384 1356 1350 1341 1367 1379 1366 1383 1406 1336 1365 1383 1359 1437 1357 1440 1390 1374 1416 1447 1523 1441 1472 1459 1448 1466 1511 1437 1544 1435 1447 1436 1473 1437 1421 1436 1492 1458 1430 1467 1476 1437 1491 1396 1432 1416 1444 1457 1355 1426 1457 1468 1485 1437 1464 1453 1458</counts>
			</dataPoints>
		</scan>
	</xrdMeasurement>
</xrdMeasurements>
