<?xml version="1.0"?>
<xrdMeasurements xmlns="http://www.xrdml.com/XRDMeasurement/2.3" xmlns:xsi="http://www.w3.org/2001/XMLSchema-instance" xsi:schemaLocation="http://www.xrdml.com/XRDMeasurement/2.3 http://www.xrdml.com/XRDMeasurement/2.3/XRDMeasurement.xsd" status="Completed" recordIdentifier="{CC100414-2ED9-430E-8C86-EA290818E7AF}">
	<comment>
		<entry/>
	</comment>
	<sample type="To be analyzed">
		<id>GPSS_Li1p8Co0p55Zn0p55Cl4_122625_694efed0ae15af25ac374c5c</id>
		<name></name>
		<preparedBy></preparedBy>
	</sample>
	<xrdMeasurement measurementType="Scan" status="Completed" sampleMode="Reflection">
		<usedWavelength intended="K-Alpha 1">
			<kAlpha1 unit="Angstrom">1.5405980</kAlpha1>
			<kAlpha2 unit="Angstrom">1.5444260</kAlpha2>
			<kBeta unit="Angstrom">1.3922500</kBeta>
			<ratioKAlpha2KAlpha1>0.5000</ratioKAlpha2KAlpha1>
		</usedWavelength>
		<incidentBeamPath>
			<radius unit="mm">145.00</radius>
			<xRayTube id="1010048" name="Empyrean Cu LFF HR (9430 033 7310x)">
				<tension unit="kV">40.0</tension>
				<current unit="mA">15.0</current>
				<anodeMaterial>Cu</anodeMaterial>
				<focus type="Line">
					<length unit="mm">12.0</length>
					<width unit="mm">0.4</width>
					<takeOffAngle unit="deg">6.0</takeOffAngle>
				</focus>
			</xRayTube>
			<sollerSlit id="21010002" name="Soller slits 0.04 rad.">
				<opening unit="rad">0.0400</opening>
			</sollerSlit>
			<mask id="22031000" name="Fixed mask 13 mm">
				<width unit="mm">9.00</width>
			</mask>
			<divergenceSlit id="22120001" name="Divergence slit 1°" xsi:type="fixedDivergenceSlitType">
				<distanceToSample unit="mm">50.00</distanceToSample>
				<height unit="mm">1.52</height>
			</divergenceSlit>
		</incidentBeamPath>
		<sampleMovement xsi:type="spinningSampleMovementType">
			<spinnerRevolutionTime unit="seconds">1.0</spinnerRevolutionTime>
		</sampleMovement>
		<diffractedBeamPath>
			<radius unit="mm">145.00</radius>
			<antiScatterSlit id="22090040" name="AS slit 9 mm (PIXcel)" xsi:type="fixedAntiScatterSlitType">
				<height unit="mm">9.00</height>
			</antiScatterSlit>
			<sollerSlit id="21020003" name="Large Soller slits 0.04 rad.">
				<opening unit="rad">0.0400</opening>
			</sollerSlit>
			<filter id="20030001" name="Large beta-filter Nickel">
				<material>Ni</material>
				<thickness unit="mm">0.020</thickness>
			</filter>
			<detector id="7010019" name="PIXcel1D-Medipix3 detector" xsi:type="rtmsDetectorType">
				<phd unit="keV">
					<lowerLevel>4.02</lowerLevel>
					<upperLevel>11.27</upperLevel>
				</phd>
				<mode>Scanning</mode>
				<activeLength unit="deg">5.542</activeLength>
			</detector>
		</diffractedBeamPath>
		<scan appendNumber="0" mode="Continuous" scanAxis="Gonio" status="Completed">
			<header>
				<startTimeStamp>2025-12-29T12:33:33-08:00</startTimeStamp>
				<endTimeStamp>2025-12-29T12:41:40-08:00</endTimeStamp>
				<author>
					<name>AutomatedUser</name>
				</author>
				<source>
					<applicationSoftware version="1.7b (136)">PANalytical Aeris Instrument Suite</applicationSoftware>
					<instrumentControlSoftware version="3.2.00000000 20240306">AERIS</instrumentControlSoftware>
					<instrumentID>950485</instrumentID>
				</source>
			</header>
			<dataPoints>
				<positions axis="2Theta" unit="deg">
					<startPosition>10.00943322</startPosition>
					<endPosition>99.99442286</endPosition>
				</positions>
				<positions axis="Omega" unit="deg">
					<startPosition>5.00471661</startPosition>
					<endPosition>49.99721143</endPosition>
				</positions>
				<commonCountingTime unit="seconds">12.495</commonCountingTime>
				<counts unit="counts">3080 3096 3026 3120 3126 3051 3099 3089 3143 3130 2992 3156 3028 3130 3008 3032 3121 3088 3128 3039 3080 3092 3096 3066 3134 3079 3087 3116 3215 3099 3067 3228 3118 3143 3185 3080 3174 3065 3141 3133 3106 3156 2997 2984 3237 3216 3048 3077 3174 3071 3027 3221 3129 3069 3099 3045 3102 3104 3081 3096 3119 3049 3162 3166 3121 3193 3107 3191 3144 3155 3173 3166 3185 3130 3037 3144 3136 3083 3077 3256 3029 3179 3291 3180 3324 3210 3094 3170 3251 3232 3229 3145 3185 3156 3238 3171 3180 3159 3265 3207 3261 3349 3164 3202 3089 3204 3316 3124 3289 3169 3132 3139 3272 3130 3188 3233 3074 3204 3197 3223 3262 3147 3235 3173 3099 3261 3201 3311 3272 3274 3233 3120 3194 3140 3336 3163 3074 3236 3148 3164 3228 3167 3246 3181 3171 3261 3234 3210 3210 3243 3201 3253 3251 3176 3213 3232 3302 3260 3254 3201 3365 3297 3331 3282 3324 3207 3209 3174 3251 3262 3242 3131 3207 3243 3225 3226 3077 3204 3186 3193 3195 3272 3264 3270 3252 3237 3133 3245 3194 3246 3198 3242 3242 3215 3247 3161 3226 3105 3220 3176 3147 3177 3076 3135 3136 3215 3145 3176 3163 3175 3148 3092 3230 3114 3211 3131 3174 3191 3153 3145 3076 3184 3186 3214 3193 3099 3175 3188 3195 3201 3321 3175 3268 3053 3127 3162 3070 3160 3105 3162 3093 3165 3223 3121 3102 3200 3041 3082 3132 3175 3144 3226 3173 3151 3118 3059 3129 3075 3052 3193 3137 3171 3205 3150 3057 3190 3032 3070 3124 3102 3127 3123 3105 3146 3130 3147 3123 3095 3225 3129 3062 3118 3095 3150 3100 3262 3101 3062 3188 3150 3142 3100 3181 3180 3076 3152 3157 3151 3129 3170 3140 3162 3201 3220 3176 3137 3063 3067 3248 3177 3140 3187 3216 3183 3236 3190 3277 3165 3164 3155 3178 3181 3208 3186 3163 3255 3205 3188 3253 3304 3241 3299 3329 3189 3250 3315 3341 3282 3296 3213 3348 3308 3320 3253 3286 3308 3425 3226 3332 3242 3376 3470 3306 3400 3430 3432 3388 3462 3372 3378 3498 3385 3325 3467 3511 3415 3479 3339 3435 3425 3491 3415 3536 3530 3404 3576 3514 3485 3543 3510 3592 3540 3688 3502 3456 3531 3643 3592 3583 3581 3594 3543 3561 3609 3586 3604 3611 3746 3685 3752 3633 3658 3700 3623 3707 3778 3585 3640 3700 3739 3910 3829 3832 3828 3807 3848 3760 3811 3919 3845 3882 3810 3906 3775 3817 3785 3750 3915 3781 3855 3811 3873 3732 3744 3791 3646 3598 3672 3725 3542 3606 3765 3707 3713 3686 3636 3614 3680 3834 3796 3782 3747 3806 3670 3655 3715 3833 3867 3781 3745 3856 3800 3635 3738 3904 3782 3914 3879 3822 3777 3874 3835 4004 3888 3959 3917 3953 4081 3992 4083 4088 4023 3992 4090 3987 4164 4142 4079 4007 4158 4024 4045 4100 4041 3892 3945 3884 3945 3796 4029 3942 3814 3844 3851 3842 4036 3802 3909 3991 3966 4120 4054 4149 4025 4132 4066 3943 3968 3946 3949 3896 3926 3713 3727 3769 3513 3580 3579 3467 3582 3446 3572 3580 3510 3480 3496 3512 3507 3471 3463 3354 3365 3428 3359 3288 3385 3466 3379 3400 3348 3347 3313 3345 3314 3443 3384 3354 3291 3250 3300 3242 3361 3290 3292 3291 3275 3384 3297 3381 3294 3259 3299 3264 3375 3335 3241 3275 3303 3276 3280 3398 3270 3144 3414 3252 3288 3226 3244 3250 3386 3235 3212 3237 3237 3332 3226 3228 3218 3287 3197 3238 3040 3042 3123 3167 3213 3199 3219 3142 3174 3179 3213 3149 3158 3150 3110 3223 3096 3128 3216 3160 3152 3176 3010 3129 3146 3139 3216 3173 3199 3279 3128 3136 3251 3160 3226 3175 3068 3207 3105 3119 3122 3143 3164 3078 3216 3098 3174 3108 3041 3147 3068 3181 3201 3075 3112 3083 3047 3159 3066 3090 3093 3148 3098 3155 3069 3080 3034 3216 3165 3123 3091 3106 3161 3093 3119 3100 3164 3077 3119 3129 3194 3181 3115 3215 3152 3248 3139 3130 3137 3202 3189 3246 3212 3240 3291 3191 3221 3057 3223 3266 3189 3259 3170 3093 3162 3122 3078 3064 3091 3196 3074 3055 3103 3206 3073 3070 3066 2994 3135 3046 3142 3087 2886 3067 3097 3039 2978 3038 2984 3030 3001 3067 3056 3134 2973 3122 3104 3069 3004 3091 3011 3025 3089 3019 3007 3041 2997 3041 3063 3007 3107 3127 3157 3073 3081 3067 3090 3133 3100 3029 3008 3055 3111 3069 3036 3087 3008 3066 3038 3043 3074 2996 3092 3058 3065 3056 3166 3158 3151 3183 3053 3148 3137 3216 3179 3225 3183 3198 3212 3255 3269 3295 3227 3198 3287 3178 3148 3121 3131 3154 3180 3238 3089 3116 3172 3127 3197 3068 3122 3127 3183 3134 3257 3248 3210 3137 3254 3228 3219 3300 3354 3307 3375 3348 3271 3258 3320 3399 3275 3500 3364 3381 3373 3437 3444 3448 3522 3390 3408 3456 3432 3261 3261 3164 3184 3195 3115 3128 3042 3057 3011 2964 3055 2989 2938 2965 2992 2986 2911 3026 3055 2970 2979 2952 2961 2954 3076 2886 2994 3046 2984 2970 3078 2980 2991 2888 2891 2841 2952 2951 2962 2986 2905 2951 2993 2920 2949 2986 2927 2873 2989 2946 2904 3050 3042 2931 2888 2805 2967 2847 2969 2977 2881 2869 2914 2768 2945 2883 2949 2767 2859 2849 2938 2934 2900 2856 2995 2836 2807 2921 2885 2946 2860 2958 2886 2910 2952 2882 2857 2888 2889 2899 2911 2890 2890 2915 2856 2896 2895 2978 2931 2854 2903 2942 2859 2916 3003 2956 2913 2909 2912 2949 2932 2936 2925 2922 2873 3002 2764 2957 2846 2830 2881 2834 2847 2863 2949 2864 2884 2926 2862 2863 2847 2747 2938 2864 2845 2944 2977 2934 2857 2839 2832 2959 2866 2750 2813 2762 2910 2881 2848 2738 2870 2789 2874 2887 2778 2853 2863 2844 2753 2845 2769 2775 2762 2824 2768 2893 2746 2805 2835 2881 2875 2938 2804 2841 2856 2877 2768 2784 2851 2867 2976 2811 2785 2870 2713 2876 2776 2758 2865 2820 2815 2739 2910 2975 2833 3016 2858 2818 2802 2826 2825 2856 2845 2813 2895 2888 2873 2988 2905 2815 2893 2799 2792 2830 2873 2889 2767 2890 2922 2825 2858 2978 2985 2787 2872 2865 2816 2890 2893 2906 2827 2874 2971 2960 2853 2930 2829 2876 2802 2949 2835 2888 2888 2909 2915 2911 2981 2872 2794 2806 2967 2895 2876 2879 2836 2899 2792 2840 2951 2897 2868 2990 2815 2792 2873 2822 2876 2907 2924 2801 2856 2868 2845 2874 2852 2820 2926 2811 2866 2909 2858 2795 2940 2751 2855 2901 2922 2932 2759 2732 2767 2869 2903 2881 2888 2790 2853 2804 2732 2819 2946 2848 2831 2867 2794 2764 2915 2745 2802 2848 2836 2764 2859 2851 2813 2800 2681 2779 2664 2910 2734 2750 2787 2792 2864 2742 2786 2828 2675 2721 2718 2758 2779 2691 2756 2680 2744 2771 2819 2802 2651 2791 2707 2751 2729 2714 2720 2666 2691 2687 2607 2744 2678 2726 2630 2650 2584 2750 2682 2661 2637 2686 2622 2672 2654 2563 2664 2594 2525 2596 2565 2633 2608 2526 2609 2604 2596 2637 2595 2588 2582 2548 2582 2591 2636 2623 2620 2631 2545 2515 2448 2526 2557 2519 2527 2534 2671 2516 2534 2533 2444 2587 2581 2585 2484 2566 2490 2553 2552 2520 2604 2580 2471 2527 2537 2454 2449 2515 2524 2522 2459 2403 2472 2369 2444 2456 2484 2497 2536 2483 2573 2415 2491 2444 2424 2469 2430 2445 2478 2402 2405 2363 2421 2460 2485 2409 2372 2451 2455 2434 2393 2429 2523 2398 2422 2496 2408 2418 2449 2470 2520 2517 2520 2415 2554 2452 2482 2591 2393 2497 2514 2559 2533 2460 2494 2384 2518 2506 2485 2481 2504 2431 2504 2468 2503 2423 2574 2466 2451 2554 2424 2587 2497 2504 2514 2580 2580 2601 2522 2627 2669 2632 2612 2568 2730 2694 2714 2716 2717 2767 2711 2723 2656 2648 2632 2575 2626 2578 2598 2571 2546 2523 2427 2435 2362 2400 2369 2393 2444 2466 2441 2375 2333 2361 2411 2492 2357 2325 2469 2341 2302 2360 2419 2456 2428 2419 2375 2436 2375 2454 2338 2358 2378 2380 2340 2398 2369 2329 2395 2397 2428 2358 2300 2278 2365 2281 2294 2365 2380 2263 2430 2402 2344 2310 2238 2359 2343 2358 2344 2432 2356 2298 2477 2369 2372 2387 2307 2338 2303 2381 2289 2432 2404 2348 2494 2441 2366 2393 2504 2364 2442 2363 2472 2421 2446 2444 2411 2390 2568 2560 2465 2321 2495 2390 2479 2480 2522 2537 2475 2496 2539 2396 2504 2281 2441 2441 2511 2379 2347 2315 2403 2376 2380 2314 2430 2362 2354 2366 2412 2390 2399 2314 2433 2333 2412 2355 2397 2345 2395 2303 2407 2448 2297 2379 2456 2311 2281 2279 2393 2354 2421 2295 2358 2373 2384 2334 2400 2350 2364 2297 2378 2319 2408 2302 2388 2362 2356 2368 2310 2336 2513 2300 2334 2293 2308 2323 2360 2384 2328 2284 2298 2310 2341 2338 2276 2335 2392 2314 2468 2378 2342 2379 2390 2304 2289 2276 2306 2307 2321 2347 2270 2218 2346 2218 2272 2323 2363 2264 2383 2246 2302 2318 2321 2309 2316 2272 2230 2355 2307 2225 2293 2252 2356 2252 2250 2198 2358 2235 2294 2307 2181 2269 2221 2287 2259 2147 2247 2207 2210 2250 2259 2228 2290 2195 2166 2205 2223 2256 2101 2230 2225 2237 2278 2152 2235 2240 2126 2177 2179 2178 2163 2236 2218 2185 2216 2204 2233 2077 2151 2170 2266 2156 2215 2216 2292 2218 2190 2226 2247 2204 2178 2244 2179 2260 2182 2080 2146 2223 2233 2213 2248 2201 2089 2177 2210 2206 2206 2196 2133 2183 2164 2346 2255 2276 2139 2246 2277 2267 2206 2226 2270 2305 2211 2327 2248 2267 2296 2209 2251 2175 2285 2274 2298 2215 2107 2188 2220 2313 2240 2163 2190 2154 2171 2157 2166 2108 2153 2183 2200 2153 2179 2248 2225 2120 2236 2200 2186 2228 2186 2226 2303 2231 2193 2247 2191 2302 2278 2177 2303 2246 2200 2224 2114 2245 2211 2170 2168 2190 2098 2160 2176 2253 2203 2129 2107 2199 2174 2260 2290 2164 2336 2262 2257 2281 2293 2297 2270 2417 2324 2405 2463 2519 2546 2515 2594 2501 2587 2487 2679 2628 2624 2578 2527 2511 2499 2412 2467 2319 2357 2342 2326 2244 2284 2336 2208 2265 2171 2272 2192 2189 2303 2225 2281 2226 2231 2180 2270 2200 2217 2295 2173 2164 2292 2216 2257 2199 2212 2174 2208 2217 2286 2294 2222 2234 2280 2187 2265 2266 2255 2285 2196 2146 2225 2110 2133 2214 2140 2208 2281 2288 2226 2256 2267 2356 2258 2368 2301 2397 2309 2422 2436 2525 2449 2436 2441 2436 2350 2276 2334 2338 2416 2349 2446 2479 2470 2369 2426 2358 2487 2486 2542 2633 2622 2585 2573 2635 2698 2821 2805 2762 2847 2819 2990 2945 3140 3240 3392 3509 3539 3665 3796 3887 3833 4010 3908 3997 3966 4014 3964 3899 3883 3753 3637 3603 3589 3454 3258 3328 3107 3065 3040 3028 2822 2839 2679 2601 2574 2583 2345 2411 2328 2355 2251 2222 2204 2133 2234 2141 2138 2067 2153 2107 2177 2040 2135 2187 2043 2056 1907 2044 2021 2025 2032 2040 2001 2110 1977 2023 2025 2021 2060 2021 1957 1915 1999 1976 1915 1977 1947 1981 1992 2048 1991 2016 2020 2069 2113 2062 2123 2117 2093 2091 2087 2032 2119 2139 2107 2256 2241 2168 2185 2108 2157 2190 2178 2184 2184 2258 2225 2164 2095 2149 2103 2143 2114 2130 2153 2106 2045 2060 1978 2123 1998 2024 1984 2078 1999 1985 2109 2019 2093 1996 2163 1983 2016 2072 2105 2079 2080 2112 2083 2172 2146 2058 2118 2120 2123 2217 2050 2090 2286 2084 2099 2007 2110 2020 2048 2123 2021 2032 1916 2011 1919 1989 1914 1925 1919 1835 1857 1924 1842 1862 1851 1895 1882 1801 1801 1879 1878 1854 1851 1824 1843 1902 1818 1924 1842 1780 1830 1776 1921 1861 1779 1861 1788 1892 1885 1936 1831 1895 1791 1896 1864 1845 1815 1850 1820 1812 1829 1845 1820 1807 1802 1749 1874 1874 1847 1886 1856 1818 1801 1926 1803 1872 1813 1881 1944 1838 1957 1859 1913 1840 1890 1906 1938 1894 1880 1847 1895 1977 1903 1828 1868 1781 1917 1760 1815 1833 1911 1853 1857 1881 1867 1862 1819 1860 1893 1806 1757 1777 1837 1816 1779 1806 1757 1758 1779 1863 1806 1812 1811 1843 1901 1829 1857 1802 1722 1834 1834 1824 1887 1858 1779 1780 1814 1816 1795 1815 1771 1843 1807 1853 1843 1878 1842 1818 1729 1789 1863 1796 1766 1859 1749 1797 1773 1816 1743 1841 1825 1778 1831 1744 1764 1837 1795 1781 1798 1838 1849 1728 1813 1835 1801 1859 1723 1782 1741 1839 1820 1753 1823 1784 1922 1765 1850 1757 1762 1757 1813 1856 1784 1785 1893 1792 1831 1891 1841 1782 1854 1831 1735 1891 1852 1870 1798 1810 1855 1833 1806 1889 1728 1765 1787 1811 1817 1864 1827 1890 1797 1834 1812 1748 1830 1824 1842 1808 1854 1751 1877 1788 1816 1800 1884 1873 1896 1854 1853 1900 1900 1869 1893 1893 1892 1844 1873 1859 1889 1817 1868 1880 1956 1879 1898 1952 1935 1970 2031 1975 1988 2011 2053 2052 2046 2071 2102 2216 2127 2179 2111 2270 2170 2109 2220 2142 2189 2286 2269 2304 2277 2270 2370 2426 2497 2536 2593 2743 2781 2872 2941 2906 2932 3014 3014 3073 3122 3121 3224 3322 3351 3348 3306 3502 3376 3496 3496 3618 3536 3650 3566 3644 3606 3478 3536 3432 3474 3245 3220 3112 3087 2939 2952 2891 2787 2760 2766 2513 2623 2514 2591 2457 2486 2521 2478 2449 2470 2517 2587 2512 2457 2578 2506 2431 2537 2494 2535 2531 2496 2417 2531 2523 2427 2449 2375 2565 2432 2407 2407 2361 2413 2360 2241 2405 2379 2304 2369 2372 2256 2296 2402 2330 2263 2346 2326 2338 2388 2461 2424 2496 2415 2382 2405 2399 2441 2435 2347 2381 2490 2440 2369 2411 2397 2354 2366 2396 2535 2501 2359 2311 2255 2245 2224 2263 2238 2162 2215 2066 2099 2148 2045 1989 1987 1960 1950 2000 1885 1855 1925 1884 1894 1936 1986 1844 1912 1833 1893 1848 1887 1876 1866 1879 1827 1892 1818 1881 1904 1791 1886 1755 1864 1842 1802 1820 1804 1810 1822 1758 1786 1841 1715 1783 1727 1790 1810 1808 1893 1831 1836 1835 1762 1761 1888 1804 1853 1820 1712 1779 1804 1811 1770 1779 1787 1799 1870 1778 1788 1751 1769 1748 1713 1852 1785 1865 1815 1787 1786 1726 1783 1849 1851 1779 1760 1752 1704 1726 1759 1751 1768 1783 1894 1717 1817 1747 1850 1793 1825 1746 1788 1778 1754 1723 1794 1809 1692 1711 1797 1734 1768 1763 1778 1821 1830 1691 1783 1747 1747 1731 1783 1718 1759 1736 1767 1829 1757 1767 1766 1715 1792 1773 1761 1766 1799 1776 1744 1740 1767 1719 1802 1839 1809 1718 1818 1689 1798 1813 1729 1779 1784 1848 1823 1775 1699 1848 1834 1810 1796 1879 1822 1879 1818 1895 1832 1769 1894 1770 1830 1915 1785 1804 1874 1866 1828 1795 1820 1880 1829 1919 1866 1872 1872 1851 1916 1899 1919 1860 1955 1898 1907 1909 1886 1768 1901 1780 1904 1815 1787 1795 1831 1873 1830 1835 1871 1802 1841 1837 1820 1799 1783 1788 1817 1803 1851 1792 1776 1789 1813 1769 1759 1796 1772 1850 1771 1742 1798 1749 1834 1738 1805 1786 1804 1763 1861 1768 1756 1785 1769 1815 1750 1732 1765 1764 1778 1681 1736 1759 1717 1842 1798 1720 1810 1795 1780 1746 1761 1815 1753 1844 1772 1747 1773 1809 1784 1830 1720 1762 1805 1815 1837 1909 1854 1776 1844 1828 1798 1746 1803 1872 1795 1795 1827 1873 1820 1837 1694 1807 1844 1855 1752 1796 1763 1826 1810 1914 1814 1777 1866 1868 1835 1837 1862 1816 1777 1814 1813 1812 1791 1875 1753 1832 1792 1817 1869 1742 1813 1846 1859 1802 1824 1824 1830 1760 1868 1866 1851 1841 1801 1815 1770 1811 1843 1864 1847 1802 1881 1875 1939 1986 1835 1873 1881 1914 1906 1869 1964 1887 1979 1952 1995 1878 2031 1983 2001 1956 2028 2037 1996 2006 2050 2044 1952 2026 2003 1916 2036 1971 1931 1976 1990 1968 1936 1967 1878 1856 1895 1810 1876 1771 1792 1790 1773 1759 1724 1816 1828 1794 1801 1749 1791 1827 1756 1836 1670 1765 1721 1726 1698 1755 1721 1700 1764 1702 1810 1724 1760 1723 1709 1750 1847 1655 1788 1740 1767 1701 1771 1789 1799 1721 1727 1766 1713 1743 1739 1729 1717 1703 1822 1815 1826 1805 1687 1766 1785 1803 1832 1776 1761 1737 1790 1745 1816 1850 1873 1753 1713 1808 1773 1724 1836 1709 1733 1712 1743 1816 1689 1791 1793 1772 1691 1754 1709 1775 1809 1757 1747 1825 1762 1790 1814 1707 1710 1766 1746 1712 1706 1691 1746 1672 1777 1799 1748 1655 1782 1772 1784 1791 1720 1781 1718 1733 1703 1760 1718 1763 1722 1734 1661 1867 1760 1698 1737 1783 1701 1746 1694 1766 1745 1720 1746 1673 1772 1697 1691 1714 1731 1726 1734 1725 1723 1672 1730 1637 1698 1750 1745 1729 1767 1650 1778 1788 1753 1787 1780 1686 1758 1756 1850 1753 1730 1720 1761 1781 1771 1792 1762 1768 1704 1776 1733 1709 1726 1752 1744 1737 1796 1739 1788 1782 1725 1802 1700 1744 1670 1751 1745 1798 1821 1734 1747 1843 1723 1771 1699 1746 1737 1695 1762 1727 1688 1699 1719 1760 1773 1710 1758 1763 1769 1754 1748 1780 1706 1764 1765 1841 1751 1717 1794 1750 1718 1712 1769 1813 1789 1764 1727 1752 1770 1753 1735 1700 1743 1802 1755 1795 1768 1769 1778 1743 1754 1765 1726 1875 1784 1862 1800 1841 1833 1804 1862 1860 1847 1800 1868 1773 1862 1830 1828 1880 1877 1835 1864 1776 1919 1918 1793 1909 1853 1831 1860 1892 1895 1825 1865 1844 1823 1796 1895 1875 1899 1841 1864 1865 1837 1783 1849 1836 1817 1828 1805 1822 1849 1749 1870 1815 1759 1815 1786 1717 1760 1722 1782 1781 1771 1802 1750 1731 1816 1754 1725 1730 1758 1744 1825 1750 1763 1787 1743 1707 1752 1761 1753 1771 1832 1853 1785 1835 1787 1827 1821 1771 1810 1746 1798 1832 1858 1898 1854 1843 1758 1716 1799 1692 1742 1827 1779 1741 1817 1829 1852 1818 1788 1750 1782 1764 1856 1726 1728 1775 1731 1757 1761 1782 1780 1702 1708 1735 1749 1742 1804 1721 1697 1722 1780 1768 1816 1669 1750 1763 1698 1726 1801 1751 1675 1729 1774 1775 1726 1742 1772 1760 1808 1650 1760 1780 1737 1746 1766 1737 1760 1804 1732 1724 1748 1710 1719 1750 1778 1719 1785 1797 1738 1778 1782 1748 1731 1801 1786 1718 1765 1804 1773 1819 1798 1808 1732 1706 1753 1792 1738 1733 1834 1773 1850 1798 1702 1736 1698 1841 1701 1721 1826 1778 1763 1764 1768 1752 1726 1843 1805 1757 1773 1742 1736 1727 1774 1751 1777 1789 1722 1724 1683 1724 1732 1834 1835 1793 1760 1810 1803 1705 1872 1813 1780 1719 1762 1808 1789 1780 1823 1795 1916 1761 1809 1876 1886 1762 1920 1870 1797 1908 1908 1868 1828 1895 1929 1980 1903 1964 1959 1999 1925 2104 2036 2091 1996 2068 2059 2080 2021 2112 2141 2195 2043 2139 2030 2091 2015 2184 1949 2082 2093 2059 2050 2131 2034 2018 2059 2053 2039 1962 2011 1988 1959 2125 2016 2005 1955 1956 2011 1883 1874 1884 1891 1932 1850 1921 1784 1837 1873 1815 1849 1882 1796 1930 1859 1866 1796 1797 1761 1878 1830 1931 1858 1891 1856 1748 1826 1908 1851 1760 1809 1841 1846 1812 1862 1813 1754 1873 1806 1845 1870 1849 1827 1785 1867 1842 1851 1861 1797 1845 1805 1843 1754 1818 1817 1851 1854 1817 1825 1808 1794 1810 1825 1814 1884 1869 1826 1854 1842 1834 1751 1870 1817 1856 1824 1914 1778 1865 1909 1809 1870 1768 1859 1833 1897 1796 1837 1891 1910 1959 1877 1872 1919 1856 1890 1834 1903 1899 1895 1812 1903 1840 1895 1825 1892 1922 1855 1869 1907 1827 1788 1694 1842 1873 1816 1765 1794 1803 1908 1754 1817 1834 1824 1800 1763 1771 1782 1823 1890 1873 1823 1795 1776 1774 1845 1813 1862 1838 1789 1790 1752 1774 1804 1754 1754 1725 1817 1797 1814 1793 1827 1790 1947 1793 1755 1870 1801 1723 1831 1804 1809 1782 1836 1769 1772 1831 1829 1788 1787 1790 1788 1802 1822 1816 1713 1833 1835 1768 1931 1842 1786 1692 1751 1786 1770 1796 1775 1782 1799 1852 1748 1773 1754 1788 1805 1821 1784 1782 1748 1773 1672 1766 1788 1793 1766 1763 1777 1719 1771 1733 1770 1752 1811 1754 1665 1766 1716 1740 1802 1802 1783 1768 1776 1803 1716 1803 1794 1797 1835 1733 1788 1868 1734 1792 1774 1846 1752 1755 1791 1815 1792 1727 1749 1745 1751 1792 1855 1805 1726 1851 1766 1776 1729 1744 1808 1826 1834 1770 1824 1796 1783 1851 1866 1865 1780 1832 1918 1860 1815 1779 1854 1841 1847 1844 1887 1791 1911 1841 1854 1869 1738 1822 1921 1863 1881 1967 1959 1933 1858 1904 1905 1834 1899 1894 1980 1924 1869 1844 1927 1905 1869 1888 1842 1863 1879 1881 1922 1909 1891 1866 1847 1890 1930 1883 1881 1892 1828 1871 1885 1857 1860 1813 1973 1885 1934 1836 1835 1912 1933 2006 1970 2021 2078 1926 1961 2060 2019 1991 2037 2065 2043 2125 2090 2187 2176 2241 2213 2283 2323 2464 2425 2414 2540 2602 2613 2702 2819 2815 2796 2921 2923 2993 3063 3028 3222 3119 3287 3368 3374 3401 3458 3455 3287 3358 3263 3189 3284 3253 3335 3253 3234 3218 3296 3226 3356 3099 3053 2980 2914 2859 2788 2654 2780 2619 2622 2536 2575 2622 2556 2482 2493 2395 2352 2469 2310 2359 2263 2255 2261 2215 2197 2220 2134 2188 2067 2146 2165 2124 1983 2072 2056 2038 2059 2057 2134 1988 2012 2017 2035 1970 1962 1981 1942 1971 1952 1958 1883 1906 1876 1941 1917 1885 1942 1953 1967 1953 1941 1975 1873 1946 1935 2053 1990 1933 1970 2057 1978 2034 1962 1950 1944 1955 1938 1974 1963 1892 1890 1906 1989 2000 1970 1936 1957 1923 2079 1944 2031 1934 2057 1976 1966 2050 1987 2036 2135 2062 2142 2155 2166 2139 2140 2131 2239 2160 2186 2155 2184 2232 2262 2268 2299 2209 2257 2262 2254 2253 2209 2184 2194 2158 2120 2173 2093 2076 2111 2140 2132 2121 2055 2057 1940 1999 1948 1975 1940 1905 1908 1842 2022 1888 1859 1832 1837 1913 1962 1801 1833 1867 1867 1913 1801 1885 1776 1895 1862 1866 1830 1881 1733 1933 1907 1891 1830 1928 1825 1831 1875 1936 1941 1874 1792 1836 1903 1830 1818 1800 1805 1862 1873 1825 1858 1884 1874 1839 1899 1808 1838 1884 1869 1823 1780 1852 1861 1883 1770 1891 1965 1744 1913 1973 1817 1871 1901 1865 1872 1902 1947 1948 1905 1861 1884 1940 1830 1885 1854 1804 1767 1847 1921 1960 1851 1806 1817 1835 1884 1827 1915 1848 1764 1849 1807 1845 1885 1797 1869 1780 1869 1924 1851 1858 1915 1871 1856 1826 1811 1775 1894 1869 1842 1928 1875 1910 1874 1943 1910 1991 1945 1866 1909 1963 1952 1968 1909 1929 1912 1924 1959 1932 1977 1961 1928 1888 1925 1830 1925 1938 1919 2014 1904 1957 2003 1916 1943 1978 1927 1928 1932 1985 1878 1915 1899 1881 1905 1979 1943 1881 1861 1885 1860 1907 1857 1886 1855 1916 1859 1890 1892 1829 1851 1895 1869 1901 1931 1815 1906 1901 1821 1942 1903 1932 1902 1927 1923 1979 1992 1993 1857 1869 1949 1842 1918 1986 1940 1983 1967 1915 1888 1949 1984 1932 1974 1961 1933 1944 1927 2004 1999 1983 1941 1901 1885 1995 1913 1960 1903 1865 1899 2001 1844 1863 1791 1852 1794 1803 1885 1878 1846 1827 1848 1817 1868 1787 1834 1809 1867 1936 1829 1850 1870 1789 1808 1869 1739 1814 1791 1728 1793 1810 1802 1764 1799 1831 1799 1767 1908 1824 1772 1843 1833 1807 1800 1836 1713 1752 1725 1802 1849 1770 1808 1849 1786 1834 1779 1840 1794 1791 1825 1809 1758 1800 1846 1851 1804 1803 1734 1747 1742 1716 1754 1720 1747 1728 1821 1803 1778 1709 1834 1735 1812 1706 1803 1765 1721 1778 1766 1804 1745 1799 1736 1700 1721 1850 1712 1804 1787 1857 1754 1849 1721 1791 1818 1750 1779 1815 1820 1757 1783 1725 1809 1732 1702 1784 1772 1805 1750 1723 1755 1814 1771 1742 1754 1802 1757 1804 1737 1762 1850 1818 1753 1752 1753 1826 1661 1734 1757 1764 1762 1689 1742 1664 1817 1809 1766 1782 1814 1832 1810 1796 1739 1792 1748 1852 1729 1715 1863 1732 1771 1702 1763 1792 1746 1799 1747 1791 1875 1755 1705 1762 1809 1666 1682 1758 1792 1735 1808 1816 1752 1803 1702 1759 1760 1741 1837 1777 1760 1740 1787 1801 1890 1852 1772 1794 1772 1800 1791 1798 1753 1796 1828 1835 1779 1853 1821 1821 1760 1863 1866 1859 1855 1843 1806 1803 1810 1800 1865 1885 1832 1827 1774 1830 1872 1784 1832 1823 1828 1833 1839 1804 1819 1830 1756 1733 1772 1839 1804 1769 1813 1827 1760 1836 1814 1758 1806 1816 1790 1842 1789 1753 1833 1731 1788 1758 1818 1843 1746 1715 1854 1832 1816 1700 1747 1714 1758 1784 1804 1749 1759 1766 1778 1799 1800 1705 1860 1771 1765 1752 1787 1732 1758 1804 1816 1746 1784 1723 1780 1774 1754 1762 1803 1747 1841 1805 1747 1818 1765 1822 1826 1699 1750 1824 1776 1814 1764 1829 1790 1722 1736 1845 1798 1792 1720 1744 1754 1763 1804 1740 1804 1755 1720 1698 1791 1744 1752 1772 1820 1728 1753 1773 1750 1730 1776 1830 1780 1749 1806 1818 1775 1766 1691 1704 1860 1768 1803 1746 1857 1802 1813 1788 1864 1680 1795 1842 1826 1830 1794 1716 1796 1797 1864 1769 1782 1857 1764 1829 1838 1824 1882 1828 1791 1837 1778 1735 1780 1749 1835 1768 1770 1841 1801 1789 1807 1728 1899 1854 1828 1805 1836 1830 1805 1859 1799 1831 1784 1833 1867 1871 1863 1783 1818 1894 1867 1849 1866 1830 1809 1862 1907 1854 1883 1883 1900 1827 1770 1908 1892 1905 1882 1933 1869 1860 1871 1898 1849 1860 1895 1798 1879 1866 1796 1877 1875 1857 1887 1899 1834 1791 1847 1853 1913 1901 1892 1858 1886 1966 1891 1887 1841 1810 1896 1899 1910 1942 1902 1924 1803 1983 1983 1903 1969 1970 1932 1970 1991 1911 1973 2007 2074 2001 2038 2067 2050 2136 2118 2134 2104 2191 2157 2148 2122 2166 2221 2245 2181 2186 2170 2286 2233 2304 2273 2349 2226 2249 2181 2223 2177 2223 2177 2121 2299 2212 2204 2216 2139 2120 2083 2094 2086 2023 2068 2105 2116 2012 2016 2008 1960 2006 1963 2003 2023 1905 1918 1950 1949 1925 1863 1889 1942 1922 2025 1806 1998 1945 1933 1858 2012 1933 1949 1921 1949 1989 1916 1938 1907 1885 1873 1922 1903 1925 1899 1857 1951 1916 1886 1854 1901 1851 1953 1899 1958 1848 1861 1899 1813 1914 1769 1841 1889 1927 1830 1805 1884 1801 1813 1798 1813 1832 1735 1795 1834 1777 1813 1945 1821 1844 1867 1801 1814 1818 1782 1767 1738 1833 1859 1842 1781 1810 1795 1871 1787 1784 1786 1774 1800 1719 1823 1799 1732 1809 1816 1787 1803 1753 1728 1729 1764 1777 1810 1776 1765 1846 1781 1834 1735 1709 1781 1737 1715 1697 1822 1861 1780 1775 1771 1738 1847 1747 1762 1731 1753 1806 1749 1789 1795 1722 1747 1732 1807 1723 1775 1825 1832 1818 1756 1831 1836 1830 1750 1745 1782 1733 1814 1798 1746 1825 1796 1720 1689 1814 1769 1719 1789 1725 1674 1778 1794 1797 1763 1789 1770 1747 1803 1761 1766 1787 1824 1800 1787 1752 1824 1736 1787 1781 1785 1832 1770 1825 1737 1810 1823 1751 1677 1713 1741 1779 1880 1826 1755 1804 1739 1806 1752 1746 1803 1842 1836 1749 1780 1820 1762 1736 1850 1848 1822 1796 1838 1845 1851 1912 1823 1816 1919 1798 1899 1825 1890 1901 1862 1791 1950 1848 1949 1927 1880 1872 1959 1948 1932 1930 1985 1949 1905 1969 1940 1948 1923 1943 2075 1948 2007 2001 2065 2019 1943 1935 1957 1982 1967 1920 1997 1989 1908 1930 1963 1996 1956 1921 1869 1876 1956 1892 1870 1848 1881 1855 1898 1841 1905 1894 1933 1939 1924 1800 1894 1751 1904 1817 1865 1770 1879 1810 1886 1824 1869 1876 1827 1840 1766 1891 1873 1787 1881 1856 1811 1792 1868 1770 1896 1823 1805 1779 1801 1822 1806 1806 1872 1853 1790 1869 1899 1862 1859 1876 1890 1790 1828 1874 1852 1846 1825 1810 1825 1866 1792 1869 1884 1825 1807 1819 1873 1873 1883 1837 1866 1828 1841 1867 1811 1823 1900 1799 1887 1843 1841 1839 1838 1750 1919 1775 1751 1826 1817 1867 1868 1777 1808 1852 1850 1790 1861 1830 1865 1821 1816 1810 1824 1829 1778 1868 1823 1850 1862 1841 1807 1867 1965 1854 1830 1851 1877 1870 1844 1893 1772 1858 1840 1882 1895 1876 1866 1974 1894 1855 1841 1947 1895 1938 1942 1927 1963 1932 1914 1930 1918 1945 1871 1948 1915 1947 1846 1922 1972 1906 1908 1914 1992 1968 1930 1919 1965 1949 1838 1889 1884 1823 1975 1937 1879 1916 1852 1880 1916 1852 1818 1917 1921 1834 1895 1772 1847 1843 1929 1848 1912 1867 1787 1894 1873 1893 1865 1832 1863 1893 1823 1839 1834 1883 1860 1799 1839 1772 1861 1863 1745 1780 1817 1831 1809 1845 1812 1835 1839 1856 1870 1847 1911 1787 1866 1870 1767 1891 1798 1822 1822 1809 1780 1847 1845 1848 1843 1795 1826 1925 1802 1779 1846 1895 1843 1749 1787 1794 1828 1860 1796 1799 1794 1822 1806 1813 1832 1851 1770 1708 1750 1821 1779 1855 1886 1853 1836 1881 1831 1820 1834 1843 1809 1794 1863 1838 1805 1862 1812 1913 1862 1929 1814 1870 1847 1844 1819 1891 1798 1859 1881 1865 1826 1790 1898 1868 1821 1845 1855 1851 1864 1849 1769 1859 1827 1765 1785 1858 1774 1825 1821 1846 1749 1842 1914 1906 1897 1839 1831 1778 1793 1784 1846 1779 1814 1827 1836 1785 1839 1841 1794 1849 1826 1820 1801 1825 1827 1879 1790 1773 1830 1839 1810 1777 1937 1857 1757 1768 1819 1832 1817 1826 1867 1817 1885 1745 1802 1826 1814 1751 1788 1830 1829 1727 1754 1786 1805 1817 1839 1747 1766 1861 1743 1840 1824 1809 1787 1778 1712 1827 1889 1840 1807 1818 1856 1744 1754 1842 1806 1855 1763 1757 1784 1743 1839 1762 1767 1825 1866 1825 1797 1778 1719 1749 1802 1815 1752 1731 1821 1786 1716 1813 1747 1709 1745 1793 1757 1765 1765 1762 1858 1770 1776 1802 1870 1830 1789 1793 1755 1795 1811 1800 1804 1802 1762 1801 1783 1765 1817 1835 1816 1797 1805 1823 1777 1752 1830 1778 1826 1834 1706 1816 1765 1848 1827 1778 1823 1854 1848 1796 1825 1836 1793 1803 1830 1804 1761 1869 1866 1857 1703 1900 1795 1761 1788 1824 1807 1839 1869 1828 1903 1817 1849 1673 1820 1840 1734 1865 1728 1846 1822 1789 1809 1805 1796 1815 1839 1914 1748 1884 1789 1918 1818 1926 1829 1852 1881 1905 1924 1833 1810 1851 1866 1798 1857 1803 1791 1898 1817 1944 1809 1922 1768 1845 1811 1899 1757 1827 1776 1861 1896 1861 1840 1839 1742 1781 1663 1890 1770 1804 1760 1728 1828 1835 1864 1870 1828 1804 1767 1773 1800 1735 1873 1758 1777 1901 1781 1845 1712 1804 1804 1859 1809 1747 1811 1753 1832 1763 1803 1754 1803 1787 1844 1747 1796 1838 1750 1780 1828 1818 1746 1809 1833 1690 1878 1768 1766 1826 1798 1859 1700 1796 1877 1762 1828 1811 1816 1751 1917 1841 1812 1726 1796 1839 1816 1817 1851 1844 1850 1809 1767 1722 1791 1754 1863 1810 1803 1771 1813 1787 1795 1830 1815 1862 1812 1738 1828 1805 1783 1809 1836 1807 1785 1805 1763 1775 1771 1748 1847 1765 1777 1738 1840 1840 1754 1761 1865 1789 1813 1752 1826 1804 1764 1770 1802 1853 1780 1789 1856 1839 1730 1819 1790 1778 1834 1870 1821 1816 1796 1822 1809 1828 1791 1869 1816 1795 1825 1798 1798 1803 1847 1864 1900 1864 1849 1728 1862 1852 1894 1793 1863 1850 1839 1811 1807 1897 1812 1917 1817 1832 1819 1903 1768 1885 1783 1889 1827 1821 1839 1865 1848 1819 1771 1844 1910 1868 1853 1791 1817 1837 1796 1818 1743 1855 1837 1842 1747 1791 1833 1710 1750 1799 1827 1753 1806 1753 1889 1798 1776 1699 1746 1852 1822 1769 1811 1742 1783 1864 1827 1887 1838 1836 1752 1760 1782 1809 1897 1800 1810 1800 1780 1817 1866 1855 1746 1858 1831 1819 1796 1856 1868 1859 1790 1777 1859 1781 1797 1834 1844 1804 1844 1866 1761 1828 1853 1830 1733 1861 1811 1887 1858 1825 1855 1762 1770 1862 1901 1871 1768 1795 1849 1826 1881 1836 1815 1830 1762 1834 1861 1945 1862 1845 1909 1889 1842 1879 1908 1868 1871 1858 1852 1840 1789 1900 1854 1872 1889 1845 1845 1880 1839 1802 1802 1839 1736 1873 1796 1871 1732 1817 1877 1817 1771 1810 1782 1812 1830 1815 1806 1849 1818 1878 1805 1842 1838 1714 1897 1749 1866 1826 1819 1832 1835 1838 1800 1747 1823 1848 1811 1843 1810 1885 1827 1883 1821 1851 1778 1825 1845 1837 1809 1830 1851 1829 1782 1796 1828 1772 1760 1788 1717 1810 1798 1890 1798 1763 1711 1840 1815 1884 1826 1860 1812 1786 1829 1798 1890 1841 1853 1804 1825 1852 1858 1840 1779 1804 1857 1794 1751 1834 1819 1860 1799 1795 1841 1800 1791 1789 1823 1809 1824 1916 1818 1877 1833 1765 1778 1774 1810 1810 1806 1819 1860 1803 1803 1836 1829 1743 1822 1820 1885 1799 1719 1925 1728 1848 1842 1813 1842 1810 1879 1854 1825 1778 1907 1895 1842 1930 1812 1904 1884 1837 1767 1900 2005 1867 1827 1883 1883 1988 2008 1999 1954 1943 1958 2022 2014 2088 1994 2062 2002 2064 2017 2039 2044 2000 1936 2059 1930 2053 2052 2069 2073 2051 2007 2089 2094 1972 2011 2029 1991 2037 1957 2011 1875 1990 1987 1941 1968 1887 1939 1978 1876 1946 1972 1948 1978 1922 1953 1959 1925 1905 1880 1872 1889 1897 1905 1843 1874 1811 1865 1890 1874 1904 1862 1902 1876 1843 1877 1891 1884 1899 1888 1792 1898 1823 1807 1884 1902 1838 1814 1840 1819 1884 1846 1874 1753 1904 1850 1826 1821 1751 1807 1759 1850 1869 1882 1850 1870 1825 1809 1896 1770 1796 1833 1881 1884 1797 1839 1829 1845 1794 1883 1828 1837 1835 1790 1782 1933 1831 1864 1827 1850 1849 1832 1842 1785 1852 1800 1798 1835 1792 1878 1888 1892 1890 1750 1774 1879 1808 1919 1829 1789 1909 1940 1812 1803 1828 1837 1829 1791 1858 1872 1842 1751 1853 1837 1855 1815 1875 1838 1852 1728 1883 1845 1837 1819 1789 1866 1870 1902 1805 1862 1824 1824 1885 1863 1828 1902 1878 1882 1925 1786 1841 1846 1929 1830 1848 1898 1858 1839 1890 1817 1821 1901 1867 1821 1852 1897 1933 1862 1800 1826 1906 1872 1873 1865 1856 1864 1958 1851 1918 1888 1905 1856 1906 1964 1772 1839 1842 1862 1836 1859 1873 1858 1897 1790 1845 1887 1905 1883 1825 1845 1854 1862 1909 1915 1818 1823 1831 1861 1886 1857 1787 1849 1841 1804 1806 1832 1870 1824 1855 1856 1803 1892 1803 1890 1828 1893 1835 1788 1857 1810 1864 1880 1808 1868 1833 1846 1832 1876 1879 1833 1766 1817 1835 1882 1839 1844 1998 1867 1888 1802 1894 1849 1858 1867 1897 1908 1857 1841 1871 1881 1752 1865 1882 1841 1854 1799 1866 1884 1834 1778 1782 1826 1866 1720 1788 1848 1863 1721 1764 1863 1827 1917 1906 1804 1850 1759 1760 1810 1819 1837 1813 1885 1911 1855 1896 1823 1854 1809 1876 1804 1810 1849 1880 1813 1847 1820 1831 1828 1803 1774 1763 1837 1871 1830 1878 1739 1849 1780 1866 1886 1859 1897 1865 1875 1857 1774 1877 1799 1845 1800 1796 1767 1877 1821 1868 1735 1831 1811 1850 1900 1815 1799 1844 1857 1849 1758 1879 1805 1876 1822 1868 1863 1819 1794 1752 1892 1812 1888 1833 1780 1738 1907 1808 1756 1797 1806 1838 1784 1767 1840 1858 1786 1850 1793 1796 1842 1899 1852 1808 1847 1819 1906 1839 1773 1868 1888 1789 1808 1829 1796 1807 1831 1700 1765 1799 1779 1806 1847 1818 1782 1754 1768 1775 1835 1811 1796 1784 1852 1852 1819 1819 1775 1851 1820 1829 1775 1836 1886 1766 1866 1838 1806 1893 1829 1823 1835 1830 1842 1915 1876 1910 1804 1783 1884 1831 1802 1893 1740 1815 1802 1845 1824 1924 1901 1859 1881 1823 1783 1871 1857 1860 1807 1846 1844 1881 1800 1830 1822 1919 1931 1876 1807 1886 1877 1865 1851 1795 1806 1921 1932 1895 1782 1852 1927 1811 1905 1860 1926 1872 1792 1768 1869 1880 1816 1869 1866 1823 1914 1883 1788 1911 1748 1760 1855 1873 1805 1858 1874 1918 1805 1867 1862 1854 1898 1829 1738 1730 1896 1774 1801 1974 1812 1830 1857 1822 1840 1842 1815 1839 1918 1826 1804 1882 1858 1836 1839 1746 1836 1850 1777 1879 1870 1753 1844 1759 1837 1783 1835 1744 1835 1877 1818 1801 1851 1806 1794 1779 1841 1801 1867 1924 1849 1852 1852 1846 1910 1806 1766 1767 1858 1854 1840 1832 1867 1808 1796 1849 1867 1846 1787 1863 1852 1827 1856 1800 1848 1848 1946 1856 1846 1923 1884 1820 1795 1795 1766 1886 1930 1789 1909 1806 1850 1804 1869 1861 1886 1801 1818 1864 1883 1834 1846 1877 1906 1860 1767 1809 1839 1825 1857 1850 1862 1866 1858 1914 1881 1813 1913 1874 1964 1932 1864 1856 1942 1843 1878 1941 1909 1857 1969 1877 1956 1824 1993 1958 1959 1894 1894 1951 1892 1922 1858 1866 1878 1862 1814 1910 1776 1878 1919 1911 1835 1968 1905 1886 1914 1892 1894 1892 1919 1968 1930 1939 1985 1853 1887 1961 1884 1881 1884 1875 1985 1855 1871 1897 1940 1987 1942 1914 1916 1942 1911 1995 1914 1909 1938 1962 1969 1898 1920 1999 1931 1995 1898 1915 1936 2050 2046 2001 2042 1962 1955 1993 1989 1964 2006 2044 1979 2004 1987 1981 2005 1952 1936 1966 1999 1895 1966 1986 2054 1898 1993 1949 1985 1998 1919 1937 1946 1930 1861 1968 1968 1934 1953 1927 1984 1922 1979 1984 1987 1981 1927 1879 1977 1866 1925 1934 1927 1883 1919 1944 1978 1908 1932 1893 1881 1890 1872 1918 1800 1814 1878 1803 1921 1900 1919 1836 1847 1838 1949 1810 1886 1902 1889 1858 1806 1836 1948 1822 1897 1797 1881 1880 1891 1910 1847 1788 1906 1792 1834 1876 1863 1851 1837 1871 1911 1854 1882 1833 1898 1767 1831 1866 1906 1814 1914 1817 1920 1799 1826 1882 1844 1913 1841 1915 1807 1790 1919 1869 1895 1837 1790 1827 1825 1842 1869 1892 1815 1871 1831 1748 1845 1818 1773 1871 1820 1894 1892 1791 1950 1832 1858 1945 1765 1838 1838 1839 1939 1853 1903 1887 1877 1853 1907 1913 1793 1924 1875 1925 1874 1754 1826 1817 1919 1931 1855 1855 1804 1821 2017 1888 1931 1879 1850 1833 1862 1888 1957 1878 1842 1895 1863 1929 1934 1845 1964 1873 1941 1905 1984 1868 1942 1893 1946 1896 1951 1879 1872 1882 1970 1907 1918 1907 1969 1849 1894 1836 1881 1977 1913 1898 1901 1953 1979 1936 1904 1999 1930 1967 1944 1989 1977 1950 2010 1965 2005 2016 1945 2044 1958 1979 1982 1979 1981 2026 2086 2002 2051 1925 2047 2036 2058 1988 2104 2111 2033 2007 2112 2061 2030 2079 2064 2136 2015 2081 2136 2030 2044 2023 2012 2095 2086 2007 2007 2044 2011 2044 2031 2074 1998 2117 2054 2015 1915 2020 2049 2081 2032 1999 2006 1972 1927 1991 2054 2026 2006 2025 1990 1972 1997 1978 2007 1901 2041 1942 1992 1960 1919 1985 1956 1967 1960 1931 1918 1971 1936 2002 1944 1966 1898 1933 1916 1992 1950 1967 1986 1928 1998 1950 1936 1940 1947 1866 1860 1898 1940 1917 1943 1908 1954 1858 1935 1931 1937 1918 1868 1849 1928 1897 1963 1961 1961 1853 1935 1934 1937 1911 1987 1898 1878 1850 1954 1962 1823 1947 1898 1916 1797 1877 1926 1880 1839 1877 1927 1951 1874 1887 1919 1968 1877 1887 1995 1896 1945 1849 1893 1879 2005 1963 1960 1863 1847 1886 1869 1830 1908 1931 1942 1907 1862 1896 1850 1950 1933 1922 1957 1939 1827 1936 1848 1887 1947 1937 1939 1844 1931 1910 1970 1848 1876 1964 1869 1915 1925 1893 1908 1822 1959 1912 1860 1945 1903 1864 1942 1908 1922 1906 1910 1924 1838 1897 1962 1912 1865 1975 2002 1956 1972 1988 1933 1877 1931 1842 1953 1940 1879 1932 2065 1983 1907 1908 1830 2011 1985 1958 1876 1873 1913 1952 1912 1896 1926 1937 1886 1841 1941 1936 1902 2013 1990 1981 1925 2001 1962 2018 2020 1984 1901 1986 1970 1915 2027 2023 1965 2060 2015 1982 1878 2011 1980 1927 1972 1984 1978 1963 1998 2038 1999 1976 1963 2071 1984 2020 1967 2059 2011 1952 2041 2059 2004 2006 1925 2017 1940 2024 1986 1965 1997 2032 2037 1872 1981 1954 1910 1985 1877 1976 1991 1950 1999 1909 1988 1916 1969 1876 1933 1895 1984 1980 1883 2006 1942 1940 1914 1967 1965 1963 1910 1832 1985 1970 1862 1931 1884 1920 1876 1894 1909 1973 1874 1906 1937 1861 1896 1899 1899 1845 1877 1822 1834 1918 1865 1845 1889 1854 1932 1848 1844 1866 1851 1930 1897 1908 1874 1800 1864 1847 1824 1783 1917 1835 1905 1818 1798 1856 1875 1930 1886 1883 1897 1905 1834 1846 1859 1876 1842 1835 1771 1945 1760 1790 1939 1928 1910 1870 1824 1853 1900 1805 1832 1889 1807 1869 1914 1822 1840 1974 1818 1879 1846 1918 1923 1871 1825 1859 1846 1819 1799 1843 1894 1904 1848 1876 1883 1907 1799 1889 1904 1843 1877 1897 1873 1873 1842 1899 1934 1889 1884 1807 1853 1894 1923 1890 1863 1880 1865 1848 1855 1863 1796 1899 1924 1929 1926 1899 1869 1941 1972 1909 1888 1830 1958 1881 1848 1843 1965 1852 1835 1843 1766 1850 1857 1876 1884 1932 1889 1876 1948 1887 1899 1800 1854 1832 1935 1939 1879 1893 1785 1849 1859 1805 1881 1865 1899 1813 1908 1876 1840 1928 1787 1819 1812 1885 1940 1876 1856 1942 1884 1818 1853 1916 1913 1873 1919 1887 1991 1825 1895 1941 1793 1870 1946 1918 1879 1843 1886 1798 1944 1839 1886 1853 1905 1903 1888 1889 1934 1785 1830 1884 1880 1921 1884 1908 1870 1896 1899 1914 1864 1903 1990 1862 1869 1962 1902 1854 1933 1844 1896 1913 1945 1854 1824 1810 1890 1832 1873 1875 1857 1830 1859 1878 1869 1823 1841 1839 1871 1963 1854 1851 1889 1844 1895 1871 1919 1826 1884 1788 1920 1938 1900 1853 1910 1877 1853 1861 1929 1890 1857 1827 1871 1888 1834 1956 1866 1898 1872 1928 1862 1921 1866 1835 1802 1818 1888 1839 1889 1811 1893 1799 1928 1852 1878 1928 1888 2001 1960 1880 1918 1830 1847 1904 1805 1880 1897 1880 1897 1946 1904 1864 1855 1927 1885 1860 1948 1908 1956 1904 1893 1866 1908 1909 1911 1825 1887 1857 1803 1876 2006 1847 1878 1881 1833 1918 1880 1911 1972 1906 2000 1948 1966 1843 1885 1903 1918 1962 1952 1887 1922 1905 1946 1872 1961 1954 1960 2005 1953 1907 1928 1910 1882 1998 1921 1955 1841 1867 1957 1894 1895 1969 1880 1992 1970 1906 1900 1910 1843 1932 1931 1938 1884 1909 1946 1887 1871 1944 1892 1779 1925 1941 1889 1872 1833 1871 1841 1885 1880 1905 1878 1941 1916 1924 1908 1884 1870 1800 1873 1836 1895 1858 1854 1896 1938 1861 1949 1994 1908 1988 1931 1930 1874 1910 1866 1838 1884 1980 1858 1981 1863 1911 1858 1887 1872 1960 1885 1979 1905 1941 1905 1837 1843 1947 1948 1922 1981 1943 1980 1974 1996 1908 1942 1984 1918 1878 1961 1908 1960 1945 1914 1989 1951 1868 1908 1941 1859 2003 1960 1984 2029 1901 1969 1966 1919 1988 1901 1964 1987 1874 1946 1900 1904 1954 1939 1891 1922 1956 1983 1919 1924 1944 1969 1909 1957 1895 1911 1932 1872 1939 1928 1992 1828 1876 1869 1874 1922 1883 1882 1905 1983 1908 1965 1899 1900 1950 1865 1932 1846 1903 1879 1894 1894 1908 1920 1881 1834 1860 1920 1912 1974 1904 1906 1904 1957 1874 1934 1888 1944 1857 1890 1924 1959 1924 1862 1895 1919 1956 1914 1882 1898 1965 1817 1912 1815 1878 1972 1875 1867 1956 1850 1908 1978 1992 1861 1965 1826 1922 1866 1846 1902 2024 1882 1922 1917 1950 1926 1907 1937 1938 1906 1852 2022 1992 1951 1955 1965 1973 1953 1957 1958 1960 2023 1919 1992 1943 1947 1932 1923 2053 2006 1998 2055 2025 1946 1957 1950 1988 2017 2055 2122 2011 2004 2121 2057 1991 2078 2098 2039 2037 2098 2107 2059 2001 2146 2108 2072 2083 2089 2005 2076 1992 2157 2032 2124 1959 2071 2036 2109 2051 2228 2075 2211 2085 2120 2149 2054 2030 2056 2017 2136 2002 2048 2154 2098 2114 2109 2036 2019 2098 2072 2059 1997 2101 2072 2033 2032 2006 1957 2048 1919 1989 1954 2002 2013 2059 2030 2000 1898 1980 1918 2082 1999 2053 2041 1918 1993 1999 1911 2013 2018 2100 2014 1941 1949 2001 1951 1871 1920 1949 1967 1986 1984 1949 1994 1924 1865 1930 1937 1941 1878 1890 1934 1893 1985 2004 2031 1915 1967 1975 1980 1894 1977 1992 2008 1910 1962 1953 1899 1957 1933 1968 2010 1997 1913 1914 1893 1935 2041 1900 1955 1958 1942 1990 1927 1938 1882 1849 1946 1964 1902 1918 1947 1956 1952 2040 1872 1827 1958 1951 2061 1880 1907 1886 1903 1917 1924 1999 1924 1963 1950 1889 1875 1943 1918 1900 1938 1913 2007 1960 1867 1959 1979 1971 1986 1949 1897 1845 1903 1903 1944 2028 1969 1991 1965 1856 1985 1957 1964 1955 2006 1921 2014 1913 1939 1903 1938 1957 1992 2000 1882 1947 1917 1822 1883 1931 1946 1885 1958 1943 1895 2027 1975 1925 1920 1878 2000 1870 1945 1848 1927 1929 1964 1930 1910 1858 1887 1891 1908 1926 1840 1942 1919 1943 1900 1907 1965 1932 1873 1939 1931 1893 1931 1936 1871 1842 1920 1899 1859 1869 1866 1976 1937 1934 1879 1995 1864 1911 1972 1952 1924 1937 1899 1932 1932 1909 1871 1829 1957 1898 1911 1863 1932 1928 1903 1908 1802 1959 1931 1905 1909 1950 1910 1874 1924 1942 1995 1882 1912 1931 2003 1923 1998 1865 1957 1971 1985 1912 1903 1979 1936 1954 1982 1868 1901 1834 1956 1981 1986 1968 1926 2019 1847 1953 1964 1959 1928 1945 1920 2001 1907 1939 1945 1915 1937 1962 1966 1921 1882 1943 1959 1939 1953 1851 1924 1996 1908 2005 1927 1973 1896 1974 1969 1998 1928 1949 1984 1862 1865 1871 1971 1937 1932 1950 1994 1957 1951 1917 1888 1978 1908 1965 1941 1888 1906 1898 1857 1944 1931 1963 1927 1977 1907 1893 1956 1982 1944 1926 1950 1981 1941 1997 1931 1853 1955 1909 1838 1929 1883 1926 1849 1962 1927 1910 2018 1952 2009 1816 1956 1901 1941 1803 1913 1913 1898 1946 1937 1868 1992 1919 1928 1963 1899 1905 1867 1894 1880 1882 1923 1876 1917 1917 1885 1899 1844 1940 1920 1937 1926 1958 1952 2012 1879 1887 1915 1925 1958 1915 1909 1879 1969 1897 1933 1900 1820 1877 1952 1863 1951 1945 1874 1942 1925 1898 1962 1883 1903 1841 1897 1828 1944 1875 1979 1895 1978 1923 1923 1890 1875 1880 1905 1903 1968 1904 1949 1916 2011 1859 1889 1906 1927 1896 1919 1911 1927 1917 1901 1957 1929 1909 1968 1942 1810 2016 1915 1986 1867 1924 1935 1987 1906 1876 1933 1959 1818 1933 1965 1963 1897 1986 1972 1891 1971 1944 1858 1953 1937 1955 1913 1884 1860 1931 1925 1917 1918 1882 1955 1945 1895 1937 1986 1912 1958 2009 1922 1915 1974 1907 1971 1909 1945 1936 1903 1924 1878 1983 1905 1905 2014 1959 1999 1894 1955 1987 2022 1946 1915 1913 1955</counts>
			</dataPoints>
		</scan>
	</xrdMeasurement>
</xrdMeasurements>
