<?xml version="1.0"?>
<xrdMeasurements xmlns="http://www.xrdml.com/XRDMeasurement/2.3" xmlns:xsi="http://www.w3.org/2001/XMLSchema-instance" xsi:schemaLocation="http://www.xrdml.com/XRDMeasurement/2.3 http://www.xrdml.com/XRDMeasurement/2.3/XRDMeasurement.xsd" status="Completed" recordIdentifier="{84659B8A-F356-4990-B954-71812D9EEBD9}">
	<comment>
		<entry/>
	</comment>
	<sample type="To be analyzed">
		<id>GPSS_Li1p9Co0p45Fe0p45Sc0p1Cl4_111225_691549b847a6a0fd7c6580c8</id>
		<name></name>
		<preparedBy></preparedBy>
	</sample>
	<xrdMeasurement measurementType="Scan" status="Completed" sampleMode="Reflection">
		<usedWavelength intended="K-Alpha 1">
			<kAlpha1 unit="Angstrom">1.5405980</kAlpha1>
			<kAlpha2 unit="Angstrom">1.5444260</kAlpha2>
			<kBeta unit="Angstrom">1.3922500</kBeta>
			<ratioKAlpha2KAlpha1>0.5000</ratioKAlpha2KAlpha1>
		</usedWavelength>
		<incidentBeamPath>
			<radius unit="mm">145.00</radius>
			<xRayTube id="1010048" name="Empyrean Cu LFF HR (9430 033 7310x)">
				<tension unit="kV">40.0</tension>
				<current unit="mA">15.0</current>
				<anodeMaterial>Cu</anodeMaterial>
				<focus type="Line">
					<length unit="mm">12.0</length>
					<width unit="mm">0.4</width>
					<takeOffAngle unit="deg">6.0</takeOffAngle>
				</focus>
			</xRayTube>
			<sollerSlit id="21010002" name="Soller slits 0.04 rad.">
				<opening unit="rad">0.0400</opening>
			</sollerSlit>
			<mask id="22031000" name="Fixed mask 13 mm">
				<width unit="mm">9.00</width>
			</mask>
			<divergenceSlit id="22120001" name="Divergence slit 1°" xsi:type="fixedDivergenceSlitType">
				<distanceToSample unit="mm">50.00</distanceToSample>
				<height unit="mm">1.52</height>
			</divergenceSlit>
		</incidentBeamPath>
		<sampleMovement xsi:type="spinningSampleMovementType">
			<spinnerRevolutionTime unit="seconds">1.0</spinnerRevolutionTime>
		</sampleMovement>
		<diffractedBeamPath>
			<radius unit="mm">145.00</radius>
			<antiScatterSlit id="22090040" name="AS slit 9 mm (PIXcel)" xsi:type="fixedAntiScatterSlitType">
				<height unit="mm">9.00</height>
			</antiScatterSlit>
			<sollerSlit id="21020003" name="Large Soller slits 0.04 rad.">
				<opening unit="rad">0.0400</opening>
			</sollerSlit>
			<filter id="20030001" name="Large beta-filter Nickel">
				<material>Ni</material>
				<thickness unit="mm">0.020</thickness>
			</filter>
			<detector id="7010019" name="PIXcel1D-Medipix3 detector" xsi:type="rtmsDetectorType">
				<phd unit="keV">
					<lowerLevel>4.02</lowerLevel>
					<upperLevel>11.27</upperLevel>
				</phd>
				<mode>Scanning</mode>
				<activeLength unit="deg">5.542</activeLength>
			</detector>
		</diffractedBeamPath>
		<scan appendNumber="0" mode="Continuous" scanAxis="Gonio" status="Completed">
			<header>
				<startTimeStamp>2025-11-16T14:39:21-08:00</startTimeStamp>
				<endTimeStamp>2025-11-16T14:47:28-08:00</endTimeStamp>
				<author>
					<name>AutomatedUser</name>
				</author>
				<source>
					<applicationSoftware version="1.7b (136)">PANalytical Aeris Instrument Suite</applicationSoftware>
					<instrumentControlSoftware version="3.2.00000000 20240306">AERIS</instrumentControlSoftware>
					<instrumentID>950485</instrumentID>
				</source>
			</header>
			<dataPoints>
				<positions axis="2Theta" unit="deg">
					<startPosition>10.00943322</startPosition>
					<endPosition>99.99442286</endPosition>
				</positions>
				<positions axis="Omega" unit="deg">
					<startPosition>5.00471661</startPosition>
					<endPosition>49.99721143</endPosition>
				</positions>
				<commonCountingTime unit="seconds">12.495</commonCountingTime>
				<counts unit="counts">3029 3097 3092 3094 3020 3120 3122 3078 3124 3033 3137 3102 3009 3192 3117 3083 3102 3222 3141 3067 3138 3064 3059 3114 2985 3079 3074 3076 3162 3135 3094 3104 2990 3160 3138 3088 3085 3129 3082 3122 3056 3165 3213 3098 3169 3203 3106 3297 3172 3159 3182 3122 3162 3202 3218 3191 3293 3241 3150 3265 3201 3231 3154 3164 3247 3204 3284 3277 3212 3201 3310 3195 3274 3296 3189 3349 3283 3271 3238 3306 3308 3346 3305 3325 3287 3324 3398 3381 3395 3369 3427 3417 3385 3356 3348 3461 3425 3335 3398 3338 3341 3493 3391 3432 3295 3387 3438 3411 3374 3425 3395 3410 3486 3371 3398 3366 3526 3434 3431 3461 3383 3284 3343 3407 3376 3404 3381 3303 3491 3541 3336 3426 3465 3239 3315 3389 3378 3422 3326 3299 3437 3279 3535 3228 3348 3427 3313 3394 3405 3466 3318 3397 3296 3312 3379 3417 3415 3331 3382 3441 3381 3391 3499 3309 3261 3409 3341 3399 3349 3370 3397 3464 3302 3271 3368 3372 3302 3501 3357 3476 3342 3407 3526 3353 3379 3450 3405 3442 3438 3372 3304 3404 3333 3345 3359 3417 3381 3346 3407 3373 3460 3410 3300 3383 3367 3353 3367 3434 3417 3388 3431 3390 3413 3317 3344 3407 3334 3309 3389 3432 3380 3411 3422 3393 3326 3421 3323 3378 3404 3319 3334 3248 3345 3362 3366 3324 3341 3405 3483 3334 3485 3260 3375 3517 3300 3390 3343 3345 3429 3357 3439 3361 3384 3337 3435 3325 3367 3379 3327 3307 3337 3280 3398 3374 3346 3263 3437 3401 3347 3456 3340 3353 3457 3353 3396 3384 3339 3397 3497 3352 3392 3434 3240 3340 3508 3498 3367 3321 3319 3412 3385 3416 3348 3372 3343 3432 3395 3443 3555 3353 3440 3359 3466 3465 3335 3341 3392 3433 3347 3475 3454 3545 3489 3358 3426 3553 3388 3410 3461 3459 3460 3495 3455 3333 3523 3549 3533 3395 3497 3423 3448 3635 3457 3588 3466 3553 3543 3629 3549 3661 3525 3487 3421 3601 3648 3578 3641 3648 3575 3732 3605 3531 3575 3553 3629 3496 3670 3632 3575 3797 3599 3697 3571 3719 3727 3737 3587 3736 3616 3690 3636 3675 3717 3666 3800 3742 3772 3866 3672 3756 3774 3819 3693 3730 3718 3759 3813 3717 3762 3711 3771 3821 3805 3795 3881 3676 3909 3828 3772 3819 3858 3781 3985 3840 3860 3807 3819 3862 3862 3870 3963 3925 3853 3878 3980 3857 3949 3896 3952 3952 4138 4081 4019 3966 3978 3955 3965 4062 3972 4077 4124 4037 4201 4099 4093 4164 4069 4161 4033 4225 4251 4165 4134 4205 4215 4280 4347 4334 4208 4286 4393 4311 4403 4477 4539 4545 4618 4515 4645 4675 4556 4639 4673 4647 4872 4922 4970 4953 4985 5064 4966 5163 5193 5154 5093 5175 5276 5192 5219 5155 5328 5114 5247 5125 5302 5365 5275 5348 5344 5233 5296 5340 5284 5431 5367 5259 5215 5211 5192 5077 5037 5043 5044 5098 4851 4901 4873 4802 4703 4675 4559 4635 4446 4433 4327 4289 4267 4085 4174 4172 4128 4184 4031 3935 3994 3981 4011 4002 3955 3984 3920 3894 3888 3834 3808 3807 3791 3826 3844 3878 3752 3878 3775 3850 3774 3882 3801 3838 3830 3714 3752 3701 3679 3736 3756 3795 3796 3595 3816 3764 3750 3694 3576 3734 3724 3609 3691 3634 3671 3662 3711 3573 3643 3660 3675 3584 3668 3622 3628 3639 3583 3685 3581 3630 3690 3558 3588 3609 3499 3573 3646 3701 3524 3571 3577 3623 3549 3609 3678 3784 3572 3598 3726 3563 3645 3543 3572 3530 3604 3585 3556 3601 3584 3606 3606 3622 3568 3532 3578 3587 3521 3568 3414 3692 3449 3547 3510 3504 3518 3593 3498 3566 3577 3539 3664 3603 3563 3636 3630 3694 3456 3568 3570 3525 3518 3592 3563 3568 3495 3606 3553 3597 3592 3646 3606 3590 3590 3639 3663 3850 3658 3638 3677 3732 3637 3677 3700 3659 3748 3668 3759 3676 3668 3632 3620 3713 3815 3732 3756 3669 3678 3753 3768 3807 3733 3743 3747 3664 3711 3799 3643 3685 3792 3660 3674 3730 3615 3782 3719 3761 3663 3711 3721 3667 3706 3784 3764 3838 3669 3699 3667 3660 3579 3633 3655 3623 3700 3725 3524 3555 3600 3632 3543 3624 3579 3439 3614 3567 3568 3518 3544 3384 3623 3493 3526 3440 3568 3497 3465 3588 3556 3497 3542 3610 3533 3498 3541 3465 3459 3492 3523 3338 3474 3542 3539 3550 3438 3487 3477 3493 3502 3534 3451 3573 3493 3442 3399 3447 3486 3439 3468 3611 3446 3567 3445 3561 3364 3570 3564 3364 3488 3510 3514 3418 3433 3418 3449 3539 3427 3433 3397 3494 3499 3486 3529 3586 3393 3429 3401 3490 3423 3379 3431 3430 3558 3417 3517 3498 3447 3479 3522 3597 3506 3482 3441 3356 3522 3434 3443 3428 3470 3481 3459 3366 3439 3428 3460 3341 3406 3513 3487 3480 3571 3417 3496 3480 3543 3412 3439 3339 3403 3398 3413 3506 3301 3446 3502 3419 3424 3476 3444 3477 3381 3510 3517 3394 3497 3558 3302 3454 3444 3472 3482 3377 3460 3436 3360 3435 3391 3342 3447 3336 3363 3445 3363 3526 3405 3450 3347 3442 3416 3408 3399 3451 3394 3452 3347 3349 3508 3292 3488 3379 3407 3515 3524 3442 3377 3371 3399 3354 3447 3394 3438 3329 3382 3363 3357 3367 3404 3311 3335 3383 3389 3244 3311 3370 3258 3432 3388 3420 3290 3351 3202 3468 3454 3291 3423 3353 3312 3377 3336 3375 3406 3369 3401 3401 3330 3397 3405 3388 3475 3290 3313 3361 3322 3346 3367 3253 3249 3248 3379 3390 3413 3424 3365 3323 3274 3390 3296 3367 3394 3227 3359 3285 3387 3354 3498 3426 3403 3249 3440 3468 3291 3379 3300 3414 3397 3253 3309 3308 3365 3254 3292 3311 3373 3354 3337 3403 3356 3390 3302 3284 3409 3356 3329 3220 3436 3313 3303 3406 3325 3337 3167 3242 3285 3330 3346 3420 3428 3513 3260 3435 3400 3382 3325 3381 3369 3364 3335 3388 3381 3471 3387 3251 3440 3296 3413 3328 3274 3348 3408 3328 3323 3404 3404 3324 3368 3294 3396 3428 3400 3382 3336 3375 3376 3383 3354 3366 3428 3421 3404 3360 3306 3440 3349 3433 3414 3509 3312 3409 3303 3397 3360 3320 3491 3357 3370 3338 3413 3445 3294 3331 3454 3398 3359 3354 3494 3375 3451 3269 3421 3344 3487 3329 3370 3371 3376 3315 3420 3363 3447 3341 3428 3448 3439 3387 3443 3225 3431 3402 3231 3347 3304 3403 3416 3432 3402 3415 3353 3297 3401 3366 3492 3360 3500 3279 3404 3342 3335 3268 3331 3380 3314 3465 3357 3312 3488 3528 3353 3440 3419 3363 3346 3234 3390 3432 3403 3313 3391 3360 3452 3402 3387 3344 3325 3401 3343 3381 3357 3360 3375 3365 3421 3203 3200 3325 3278 3344 3352 3388 3366 3359 3279 3288 3309 3286 3249 3326 3439 3348 3314 3280 3239 3391 3376 3337 3226 3278 3289 3288 3284 3238 3263 3305 3282 3228 3285 3193 3176 3357 3236 3205 3161 3296 3294 3190 3129 3293 3222 3335 3262 3276 3221 3142 3166 3163 3194 3128 3234 3015 3232 3242 3211 3230 3145 3171 3158 3132 3104 3174 3225 3179 3105 3178 3174 3053 3105 3154 3037 3303 3077 3052 3144 3019 3129 3188 3068 3102 3085 3080 3145 3155 3055 3110 3007 2972 3149 3025 3257 3108 3110 3220 3092 3075 3115 3106 3070 3022 3052 3060 3161 3007 3185 3012 3158 3017 3080 3150 3117 2980 3016 3049 3061 2976 3047 3061 2928 3099 3000 3075 3062 3026 2956 2946 3002 2977 2974 2986 3129 2983 2989 2999 2904 3032 2984 2941 2976 2979 3006 2955 2962 3038 2895 2888 2950 3016 2988 3038 3046 3017 2986 3055 2996 2900 2924 3025 2943 2912 3121 3057 2990 3021 2962 2881 2957 2917 2992 2919 2981 3120 2922 3108 3008 2982 2956 2981 3067 3065 3081 3072 3038 3015 3016 3086 3193 2999 3160 3136 3094 3114 3076 3106 3199 3217 3116 3060 3091 3171 3080 3157 3218 3177 3107 3105 3181 3258 3173 3120 3184 3151 3088 3040 3133 3131 3127 3247 3083 3234 3258 3134 3208 3054 3163 3177 3140 3168 3153 3126 3223 3223 3025 3210 3115 3049 3041 3097 3143 3127 3137 3043 3181 3097 2921 3086 2955 3085 3000 2977 3069 3076 3013 3060 3167 3077 3007 2994 3013 3098 3036 3117 2990 2943 3001 2932 2994 2987 3044 2895 3119 2971 2933 3036 2995 2933 2873 3016 3016 2808 3040 2944 2989 3140 2974 2997 2968 2943 2919 2983 2878 2955 2956 2979 3098 2955 3002 3003 2959 2911 2862 3048 2849 3017 2900 2978 2946 2970 3065 2929 2939 3036 2995 2967 2977 2926 2969 3061 3023 2884 3015 3020 2964 3038 2929 3009 2995 2975 3041 2935 2966 2987 2914 2935 2961 2916 2944 2988 3025 2909 2997 3009 2995 2859 3039 3054 2933 2988 3012 2946 3028 2956 2847 3018 2876 2955 2967 2944 3081 3005 2989 3050 2892 2916 2940 2888 2870 2913 2975 2918 2931 2896 2922 2963 2912 2908 2899 2870 2988 2903 2957 2995 2876 3030 3011 2902 2993 2934 3038 3057 2930 2892 2926 2882 2847 3019 2899 2888 2927 2926 2840 2946 2837 2787 2975 2952 2817 2933 2905 2945 2918 2999 2873 2881 2817 2857 2814 2861 2839 2841 2809 3007 2819 2824 2911 2875 2814 2836 2950 2934 2850 2833 2813 2850 2776 2791 2906 2925 2891 2849 2897 2820 2889 2764 2821 2834 2808 2802 2771 2827 2819 2827 2709 2791 2842 2899 2850 2848 2666 2925 2826 2807 2734 2815 2710 2730 2672 2829 2805 2778 2674 2687 2742 2781 2778 2749 2790 2738 2757 2737 2792 2803 2694 2731 2799 2701 2755 2749 2862 2660 2676 2774 2757 2793 2714 2806 2732 2686 2738 2723 2708 2678 2755 2668 2760 2767 2835 2748 2743 2686 2794 2719 2800 2800 2686 2724 2713 2787 2657 2719 2677 2746 2721 2651 2775 2668 2700 2623 2727 2775 2679 2700 2793 2690 2681 2676 2693 2675 2667 2701 2650 2756 2657 2695 2701 2716 2759 2707 2678 2754 2700 2759 2656 2811 2769 2792 2747 2743 2810 2809 2653 2691 2694 2820 2836 2865 2834 2803 2868 2882 2868 2904 2880 2863 2932 2940 3000 2812 3002 2895 2943 3067 3006 3061 3081 3012 3062 3084 3110 3055 3159 3129 3112 3084 3193 3290 3167 3164 3183 3228 3327 3175 3219 3270 3242 3162 3242 3254 3170 3366 3249 3318 3206 3324 3207 3269 3311 3196 3244 3273 3278 3155 3203 3245 3226 3229 3181 3233 3134 3024 3147 3130 3133 3050 3005 2870 2972 2874 2853 2953 2909 2854 2846 2812 2802 2769 2757 2702 2701 2738 2713 2686 2723 2706 2628 2675 2881 2779 2583 2627 2586 2579 2678 2708 2648 2686 2686 2788 2658 2763 2832 2754 2723 2754 2715 2807 2711 2771 2766 2788 2862 2857 2842 2822 2899 2991 2973 2958 3028 3032 3041 3057 3169 3110 3103 3173 3107 3151 3260 3310 3242 3354 3348 3398 3410 3416 3457 3502 3515 3590 3650 3590 3652 3621 3691 3755 3633 3688 3752 3705 3875 3811 3854 3864 3888 3872 3877 3813 3815 3956 3892 3907 3842 3820 3830 3757 3811 3732 3690 3729 3650 3622 3572 3562 3485 3525 3385 3354 3206 3307 3244 3224 3118 2993 3021 2974 2755 2874 2899 2838 2773 2729 2689 2571 2714 2670 2577 2633 2587 2578 2591 2618 2637 2601 2583 2548 2596 2552 2583 2567 2499 2511 2490 2528 2423 2516 2646 2479 2617 2520 2586 2519 2456 2493 2575 2614 2412 2535 2525 2521 2517 2520 2450 2418 2495 2479 2567 2489 2499 2442 2517 2422 2498 2336 2511 2562 2493 2528 2455 2460 2488 2446 2426 2501 2459 2486 2546 2547 2462 2462 2485 2485 2488 2386 2507 2527 2427 2462 2539 2487 2492 2426 2474 2534 2465 2388 2454 2444 2509 2509 2499 2569 2524 2362 2541 2393 2528 2505 2478 2444 2380 2407 2423 2463 2471 2500 2391 2475 2429 2388 2477 2476 2540 2534 2498 2507 2396 2432 2438 2500 2410 2417 2368 2467 2290 2459 2436 2492 2404 2491 2512 2424 2447 2415 2560 2380 2426 2403 2455 2464 2416 2430 2487 2443 2430 2503 2477 2403 2467 2440 2508 2455 2491 2401 2429 2536 2389 2564 2412 2467 2528 2412 2503 2440 2444 2428 2536 2394 2465 2511 2443 2441 2403 2487 2487 2372 2402 2404 2415 2417 2407 2439 2465 2452 2393 2451 2413 2386 2428 2449 2429 2502 2471 2335 2415 2432 2385 2497 2453 2393 2482 2428 2496 2433 2464 2377 2385 2384 2393 2343 2430 2376 2452 2462 2456 2436 2432 2408 2424 2524 2418 2343 2423 2399 2415 2387 2458 2451 2502 2474 2476 2377 2425 2376 2437 2457 2385 2390 2466 2382 2337 2382 2413 2428 2314 2447 2445 2485 2439 2483 2465 2419 2387 2385 2370 2526 2526 2469 2472 2445 2451 2349 2403 2548 2378 2493 2327 2435 2427 2305 2496 2429 2414 2500 2505 2404 2378 2537 2461 2397 2511 2444 2515 2581 2446 2429 2386 2467 2460 2563 2536 2483 2473 2520 2518 2496 2485 2483 2439 2460 2546 2411 2523 2437 2537 2509 2465 2459 2484 2443 2564 2550 2577 2535 2568 2546 2502 2567 2562 2503 2537 2541 2604 2498 2559 2592 2489 2643 2625 2551 2529 2658 2554 2681 2618 2631 2737 2578 2595 2703 2629 2679 2637 2685 2609 2723 2780 2873 2779 2880 2931 2952 3032 2882 3004 3016 3062 3110 3226 3253 3201 3238 3344 3429 3343 3411 3522 3698 3809 3770 3859 3798 4037 4006 4120 4092 4302 4349 4362 4520 4613 4561 4651 4779 4825 4814 4961 5160 5103 5256 5333 5423 5494 5622 5515 5643 5750 5787 6070 5988 6019 6145 6113 6172 6106 6275 6323 6114 6259 6258 6323 6143 6131 6202 6229 6173 6109 6227 6009 5969 6042 5653 5742 5488 5517 5563 5366 5335 4990 5018 4978 4909 4789 4682 4528 4424 4299 4362 4042 3976 3835 3704 3578 3516 3471 3417 3242 3287 3208 3118 2942 2913 3082 2970 2851 2870 2805 2745 2725 2796 2613 2681 2700 2620 2717 2611 2693 2688 2591 2619 2661 2590 2647 2600 2487 2627 2618 2544 2569 2515 2574 2453 2565 2516 2431 2492 2627 2531 2528 2519 2472 2397 2465 2538 2596 2510 2431 2497 2496 2380 2484 2308 2452 2532 2531 2452 2542 2410 2494 2442 2500 2474 2381 2393 2550 2453 2468 2430 2345 2499 2409 2377 2407 2452 2450 2430 2458 2379 2568 2428 2447 2481 2420 2369 2476 2391 2450 2388 2397 2438 2406 2414 2500 2399 2468 2399 2407 2496 2387 2546 2351 2396 2420 2443 2426 2367 2498 2346 2408 2432 2433 2453 2433 2514 2422 2426 2371 2381 2466 2445 2401 2416 2439 2402 2439 2466 2498 2348 2478 2415 2386 2397 2405 2375 2370 2358 2358 2382 2439 2397 2371 2431 2414 2388 2513 2416 2455 2431 2475 2382 2431 2383 2432 2361 2391 2381 2372 2409 2491 2465 2414 2498 2355 2387 2410 2327 2468 2415 2395 2401 2432 2395 2441 2418 2365 2303 2438 2380 2352 2379 2458 2356 2435 2390 2332 2445 2349 2454 2377 2373 2338 2400 2371 2447 2396 2450 2313 2371 2409 2522 2381 2372 2344 2480 2385 2467 2353 2456 2424 2381 2553 2437 2414 2433 2374 2412 2455 2461 2349 2431 2425 2480 2470 2494 2394 2348 2440 2421 2518 2374 2495 2456 2453 2373 2614 2399 2503 2539 2414 2497 2546 2478 2505 2521 2540 2576 2444 2575 2552 2522 2684 2590 2550 2590 2600 2574 2555 2551 2514 2530 2524 2544 2583 2541 2453 2453 2547 2437 2468 2537 2524 2470 2479 2526 2530 2492 2512 2456 2527 2484 2409 2455 2370 2377 2514 2400 2428 2456 2357 2442 2422 2368 2497 2370 2414 2403 2375 2335 2382 2392 2484 2344 2446 2371 2480 2342 2341 2474 2467 2425 2409 2442 2354 2394 2465 2425 2380 2399 2394 2372 2469 2456 2464 2387 2408 2504 2502 2462 2433 2439 2457 2303 2535 2426 2458 2452 2539 2410 2463 2514 2478 2452 2566 2445 2479 2508 2521 2498 2538 2504 2461 2591 2402 2592 2531 2489 2455 2466 2488 2560 2506 2587 2507 2497 2541 2456 2507 2499 2531 2431 2457 2401 2377 2463 2428 2374 2429 2409 2447 2416 2357 2334 2495 2474 2380 2388 2408 2370 2361 2364 2362 2390 2348 2369 2351 2385 2438 2348 2364 2382 2346 2383 2371 2365 2333 2324 2319 2375 2428 2416 2386 2291 2410 2349 2379 2378 2345 2358 2464 2438 2427 2353 2263 2294 2315 2277 2427 2466 2359 2396 2305 2282 2308 2445 2381 2386 2430 2463 2383 2402 2339 2257 2374 2387 2367 2268 2351 2360 2394 2310 2419 2409 2347 2320 2298 2356 2398 2344 2382 2342 2383 2409 2426 2355 2302 2356 2268 2255 2309 2314 2394 2357 2331 2283 2366 2345 2390 2314 2363 2278 2352 2324 2349 2397 2334 2345 2360 2307 2327 2324 2425 2341 2407 2324 2286 2345 2342 2407 2352 2293 2312 2335 2310 2275 2237 2387 2386 2308 2409 2335 2374 2256 2289 2292 2361 2285 2407 2415 2395 2275 2373 2308 2401 2353 2429 2398 2450 2322 2395 2427 2318 2483 2359 2326 2317 2399 2313 2403 2371 2346 2353 2380 2333 2355 2320 2321 2319 2368 2317 2313 2353 2367 2337 2358 2279 2373 2342 2364 2336 2380 2331 2382 2407 2381 2385 2388 2403 2321 2388 2383 2406 2368 2312 2295 2292 2422 2407 2416 2330 2373 2388 2473 2268 2300 2291 2309 2347 2387 2304 2367 2294 2448 2352 2394 2307 2355 2375 2351 2366 2311 2364 2395 2390 2289 2401 2358 2321 2392 2372 2413 2345 2306 2294 2309 2278 2275 2320 2342 2362 2326 2277 2267 2367 2254 2357 2356 2381 2217 2367 2328 2369 2349 2348 2364 2318 2343 2369 2277 2414 2350 2381 2348 2366 2358 2358 2360 2391 2312 2285 2360 2465 2375 2390 2273 2325 2394 2302 2339 2343 2355 2453 2342 2360 2325 2415 2304 2404 2376 2421 2397 2389 2312 2330 2365 2350 2398 2453 2436 2351 2400 2386 2438 2469 2459 2476 2491 2410 2373 2432 2262 2484 2461 2577 2434 2416 2410 2394 2471 2477 2495 2441 2455 2454 2557 2509 2395 2497 2437 2364 2437 2400 2467 2415 2428 2377 2401 2391 2426 2303 2400 2352 2400 2382 2320 2379 2395 2428 2351 2331 2417 2328 2410 2263 2455 2387 2402 2347 2372 2371 2284 2325 2398 2394 2356 2440 2317 2349 2362 2358 2336 2377 2414 2417 2412 2314 2286 2460 2355 2377 2327 2419 2355 2335 2264 2377 2299 2240 2331 2341 2346 2240 2309 2324 2368 2352 2272 2359 2459 2373 2385 2288 2276 2352 2356 2316 2322 2346 2320 2353 2371 2359 2315 2367 2355 2331 2328 2284 2319 2347 2343 2254 2277 2293 2365 2359 2344 2333 2348 2361 2365 2460 2277 2448 2340 2283 2370 2415 2362 2338 2392 2267 2372 2361 2357 2263 2470 2404 2380 2352 2333 2344 2324 2295 2329 2430 2364 2257 2357 2378 2359 2325 2384 2359 2341 2368 2371 2359 2306 2329 2280 2309 2358 2395 2358 2355 2361 2334 2334 2344 2373 2425 2332 2294 2331 2449 2406 2384 2297 2365 2412 2380 2288 2252 2369 2418 2363 2267 2308 2365 2343 2356 2379 2381 2371 2357 2313 2348 2349 2249 2366 2448 2318 2275 2286 2348 2333 2444 2448 2377 2387 2379 2408 2421 2337 2416 2304 2291 2504 2415 2411 2447 2451 2361 2360 2434 2489 2478 2358 2517 2605 2618 2433 2607 2574 2491 2591 2497 2531 2612 2522 2582 2654 2536 2616 2633 2657 2674 2606 2645 2676 2824 2660 2704 2723 2741 2783 2766 2856 2701 2741 2793 2887 2815 2761 2904 2804 2818 2773 2919 2769 2828 2947 2847 2853 2824 2883 2840 2741 2762 2772 2783 2859 2791 2726 2774 2675 2761 2692 2695 2647 2701 2736 2801 2656 2606 2633 2591 2563 2503 2606 2560 2571 2508 2506 2466 2529 2416 2467 2601 2537 2484 2352 2507 2349 2452 2375 2346 2457 2477 2433 2428 2391 2438 2401 2274 2401 2344 2338 2403 2361 2331 2401 2333 2393 2330 2309 2368 2399 2439 2413 2468 2376 2427 2305 2271 2338 2337 2287 2318 2381 2371 2393 2356 2387 2357 2331 2325 2387 2311 2452 2256 2378 2367 2344 2391 2381 2393 2382 2318 2357 2318 2346 2386 2352 2249 2331 2427 2395 2409 2242 2330 2306 2294 2286 2251 2396 2304 2463 2284 2327 2233 2305 2301 2393 2278 2339 2298 2344 2368 2343 2354 2313 2397 2250 2291 2402 2269 2333 2314 2296 2358 2368 2296 2352 2326 2331 2365 2349 2312 2271 2306 2375 2372 2387 2405 2287 2284 2380 2230 2264 2360 2307 2386 2424 2386 2399 2302 2331 2270 2380 2332 2303 2331 2377 2310 2318 2323 2483 2359 2347 2294 2297 2376 2315 2333 2393 2292 2249 2448 2341 2306 2318 2302 2317 2390 2330 2343 2296 2402 2354 2340 2334 2336 2347 2387 2322 2369 2308 2316 2363 2363 2370 2399 2327 2385 2260 2404 2411 2287 2371 2410 2393 2417 2395 2311 2352 2282 2364 2364 2368 2453 2357 2329 2373 2346 2367 2394 2390 2454 2376 2295 2384 2450 2413 2395 2382 2408 2474 2369 2300 2386 2334 2351 2391 2326 2314 2385 2385 2345 2344 2501 2434 2421 2409 2275 2349 2267 2419 2355 2333 2331 2443 2397 2404 2465 2420 2429 2364 2414 2408 2429 2325 2367 2325 2387 2377 2349 2394 2319 2410 2435 2468 2443 2331 2355 2356 2347 2369 2410 2410 2363 2294 2359 2410 2352 2483 2397 2382 2367 2356 2448 2273 2355 2378 2418 2417 2388 2441 2379 2339 2370 2314 2380 2405 2350 2436 2370 2402 2447 2424 2445 2409 2418 2433 2423 2399 2473 2450 2431 2499 2502 2477 2524 2629 2541 2497 2641 2538 2607 2694 2598 2626 2747 2695 2796 2765 2934 2871 2896 2796 2974 2998 3094 3055 3136 3198 3139 3273 3375 3343 3495 3355 3419 3580 3635 3615 3741 3735 3775 3818 3875 3985 3822 3978 3994 4055 4044 4223 4019 4299 4213 4310 4220 4325 4266 4271 4325 4353 4349 4188 4290 4320 4283 4201 4383 4295 4353 4217 4189 4246 4080 4033 4018 4083 3923 3835 3710 3803 3638 3613 3608 3598 3449 3402 3473 3357 3342 3268 3177 3134 3142 3112 2970 3028 2998 2894 2929 2827 2861 2782 2797 2852 2772 2776 2709 2787 2627 2711 2659 2556 2590 2559 2669 2645 2599 2589 2562 2494 2551 2458 2489 2538 2515 2531 2469 2405 2426 2540 2497 2478 2488 2344 2425 2500 2416 2464 2422 2521 2458 2493 2442 2459 2413 2418 2429 2407 2484 2488 2393 2388 2412 2489 2431 2499 2356 2418 2409 2372 2453 2408 2270 2379 2358 2393 2419 2358 2539 2357 2362 2359 2368 2461 2449 2255 2340 2376 2314 2385 2379 2418 2350 2381 2387 2301 2391 2318 2393 2359 2313 2385 2415 2358 2458 2311 2294 2412 2398 2332 2309 2381 2306 2282 2369 2330 2254 2383 2364 2359 2415 2409 2340 2363 2343 2339 2375 2357 2297 2357 2361 2363 2445 2338 2413 2370 2319 2243 2327 2302 2357 2442 2378 2352 2394 2382 2251 2298 2398 2413 2433 2312 2437 2401 2355 2348 2398 2435 2490 2390 2487 2587 2463 2521 2475 2506 2439 2447 2485 2523 2577 2587 2564 2547 2589 2562 2541 2593 2585 2544 2602 2545 2529 2587 2639 2716 2603 2678 2699 2726 2556 2642 2649 2659 2598 2701 2571 2660 2591 2686 2706 2653 2704 2695 2751 2701 2699 2646 2605 2703 2617 2661 2535 2636 2646 2624 2600 2639 2535 2640 2571 2511 2695 2576 2526 2627 2524 2622 2509 2537 2462 2565 2562 2523 2644 2474 2524 2556 2527 2557 2533 2558 2530 2579 2516 2424 2497 2550 2514 2348 2467 2456 2540 2329 2410 2527 2500 2452 2475 2314 2457 2513 2461 2428 2427 2409 2377 2357 2429 2401 2400 2373 2348 2413 2403 2374 2388 2442 2471 2472 2408 2309 2485 2370 2428 2535 2459 2310 2368 2304 2379 2364 2350 2385 2279 2443 2356 2386 2338 2363 2381 2399 2407 2370 2367 2377 2316 2358 2272 2273 2317 2407 2354 2382 2293 2418 2356 2443 2311 2255 2359 2336 2369 2333 2307 2405 2333 2360 2365 2366 2296 2377 2368 2298 2303 2336 2285 2405 2324 2366 2390 2358 2273 2336 2297 2368 2438 2326 2400 2306 2370 2329 2288 2339 2443 2348 2316 2386 2326 2271 2335 2333 2300 2404 2332 2389 2305 2280 2401 2383 2393 2334 2401 2315 2340 2305 2427 2304 2392 2366 2335 2293 2320 2399 2355 2312 2316 2433 2325 2373 2338 2319 2391 2436 2362 2362 2250 2204 2322 2334 2316 2389 2399 2398 2393 2291 2363 2333 2362 2289 2287 2339 2426 2348 2348 2336 2341 2294 2378 2451 2225 2291 2268 2297 2329 2330 2345 2313 2421 2300 2342 2312 2272 2362 2321 2303 2334 2294 2356 2249 2301 2271 2266 2333 2364 2348 2327 2312 2265 2294 2414 2287 2281 2253 2351 2314 2459 2441 2354 2351 2343 2264 2341 2298 2368 2415 2302 2343 2414 2362 2333 2377 2195 2352 2318 2263 2313 2313 2290 2318 2331 2301 2220 2280 2396 2305 2302 2332 2315 2286 2299 2436 2304 2361 2343 2353 2394 2337 2368 2348 2330 2342 2294 2232 2279 2165 2294 2238 2296 2323 2385 2377 2318 2371 2296 2269 2270 2320 2205 2308 2335 2313 2336 2376 2294 2367 2393 2370 2349 2323 2325 2425 2393 2320 2436 2343 2279 2322 2260 2270 2287 2475 2385 2471 2244 2286 2229 2404 2345 2354 2305 2349 2380 2353 2394 2282 2351 2308 2338 2397 2380 2297 2379 2415 2388 2347 2355 2329 2414 2391 2389 2309 2339 2320 2374 2319 2364 2465 2252 2331 2277 2395 2379 2353 2381 2351 2332 2277 2297 2358 2394 2349 2321 2398 2365 2385 2370 2339 2378 2426 2350 2298 2393 2456 2368 2291 2318 2296 2404 2280 2337 2363 2347 2311 2323 2350 2313 2291 2271 2469 2253 2331 2366 2270 2334 2361 2333 2296 2343 2410 2353 2343 2330 2242 2283 2331 2368 2367 2403 2377 2230 2295 2183 2281 2308 2362 2268 2282 2291 2312 2332 2277 2385 2280 2310 2219 2401 2286 2324 2234 2330 2410 2292 2323 2377 2330 2428 2367 2347 2389 2358 2326 2332 2271 2348 2321 2256 2332 2287 2347 2398 2360 2314 2365 2245 2269 2297 2241 2341 2295 2342 2175 2433 2292 2340 2353 2262 2367 2353 2369 2402 2303 2382 2300 2315 2382 2328 2352 2392 2357 2363 2291 2324 2256 2288 2372 2355 2195 2254 2368 2383 2320 2275 2337 2357 2262 2408 2396 2426 2307 2356 2349 2354 2334 2341 2392 2343 2329 2360 2388 2387 2316 2317 2284 2308 2402 2358 2382 2323 2354 2374 2422 2323 2392 2334 2343 2315 2387 2301 2452 2464 2431 2422 2386 2369 2413 2384 2398 2407 2495 2407 2415 2425 2449 2399 2403 2409 2408 2403 2351 2341 2419 2369 2473 2454 2330 2495 2433 2432 2447 2374 2465 2344 2499 2487 2447 2463 2503 2444 2459 2585 2485 2433 2560 2500 2520 2427 2555 2440 2439 2628 2509 2501 2550 2511 2457 2409 2572 2597 2575 2589 2634 2571 2563 2561 2549 2623 2585 2568 2570 2600 2543 2602 2541 2525 2583 2609 2564 2614 2593 2615 2625 2660 2561 2624 2520 2538 2628 2584 2511 2457 2593 2593 2579 2541 2530 2539 2596 2491 2603 2519 2429 2516 2522 2417 2428 2476 2484 2394 2520 2503 2436 2419 2455 2374 2387 2495 2430 2370 2380 2406 2383 2462 2359 2395 2448 2462 2347 2331 2383 2396 2387 2356 2372 2427 2383 2348 2305 2381 2438 2310 2357 2311 2245 2257 2293 2329 2316 2419 2420 2309 2310 2293 2335 2268 2344 2349 2323 2288 2305 2341 2347 2265 2327 2256 2269 2350 2355 2410 2282 2342 2410 2280 2263 2294 2385 2266 2396 2354 2334 2371 2365 2332 2407 2337 2343 2333 2341 2284 2311 2300 2368 2368 2294 2269 2328 2306 2376 2315 2278 2337 2308 2295 2259 2281 2293 2276 2348 2343 2307 2291 2379 2410 2316 2393 2346 2390 2371 2305 2338 2310 2281 2373 2344 2289 2346 2400 2306 2312 2253 2210 2370 2328 2337 2306 2263 2294 2370 2289 2405 2261 2263 2310 2337 2319 2330 2254 2301 2346 2416 2374 2400 2346 2254 2337 2312 2394 2355 2346 2323 2273 2338 2345 2332 2453 2321 2317 2382 2321 2374 2330 2323 2370 2310 2273 2283 2388 2374 2293 2293 2387 2400 2282 2379 2332 2372 2364 2310 2368 2358 2311 2309 2289 2392 2326 2389 2336 2381 2442 2326 2434 2442 2433 2487 2407 2429 2498 2359 2529 2394 2554 2523 2589 2531 2570 2535 2653 2556 2504 2639 2629 2560 2633 2594 2616 2681 2698 2644 2745 2760 2681 2767 2788 2901 2901 2846 2836 2796 2782 2778 2887 2870 2860 2926 2881 2875 2912 2921 2956 3019 2986 2968 2917 2801 2928 2976 2822 2932 2827 2843 2872 2855 2813 2834 2780 2805 2764 2763 2741 2842 2856 2754 2758 2732 2822 2685 2620 2611 2683 2662 2644 2554 2510 2591 2583 2528 2529 2578 2561 2513 2571 2448 2566 2360 2451 2529 2400 2533 2421 2405 2447 2445 2377 2437 2436 2432 2308 2473 2412 2335 2399 2317 2329 2456 2362 2376 2299 2407 2416 2298 2331 2331 2371 2390 2386 2307 2320 2289 2349 2391 2354 2432 2333 2342 2354 2339 2357 2287 2250 2298 2314 2363 2325 2307 2365 2370 2386 2424 2398 2364 2351 2358 2319 2315 2233 2296 2438 2391 2347 2290 2359 2326 2324 2326 2322 2299 2287 2329 2330 2334 2268 2304 2338 2297 2362 2435 2274 2310 2407 2400 2293 2278 2387 2359 2401 2275 2299 2305 2381 2303 2380 2352 2380 2326 2341 2408 2383 2340 2393 2323 2376 2379 2392 2396 2368 2471 2409 2457 2374 2440 2385 2499 2432 2383 2416 2499 2393 2426 2459 2404 2383 2420 2474 2485 2501 2426 2345 2462 2489 2482 2516 2537 2471 2443 2562 2549 2565 2459 2625 2532 2472 2498 2673 2455 2549 2527 2621 2467 2657 2544 2468 2506 2526 2482 2484 2537 2505 2524 2457 2463 2526 2540 2528 2498 2500 2517 2438 2487 2509 2489 2364 2452 2522 2465 2438 2435 2374 2460 2452 2361 2446 2429 2427 2394 2444 2473 2452 2351 2358 2328 2491 2394 2395 2381 2418 2447 2402 2337 2405 2308 2384 2333 2321 2338 2410 2461 2364 2405 2455 2386 2309 2387 2306 2365 2363 2313 2403 2286 2278 2386 2332 2322 2322 2277 2341 2338 2358 2318 2347 2281 2361 2331 2304 2319 2424 2290 2308 2329 2381 2447 2395 2321 2341 2283 2303 2334 2326 2359 2350 2291 2283 2333 2379 2264 2250 2394 2300 2308 2353 2407 2330 2284 2264 2381 2359 2318 2332 2357 2289 2352 2272 2272 2386 2428 2319 2331 2286 2382 2312 2290 2296 2360 2261 2216 2301 2319 2333 2328 2440 2342 2341 2326 2266 2307 2279 2303 2332 2250 2320 2454 2349 2251 2322 2266 2324 2274 2355 2211 2259 2213 2239 2324 2351 2303 2360 2283 2286 2368 2370 2208 2353 2284 2216 2242 2313 2393 2423 2357 2267 2290 2298 2264 2268 2263 2302 2341 2335 2298 2349 2300 2289 2274 2365 2318 2437 2301 2371 2282 2299 2308 2256 2447 2236 2244 2293 2278 2235 2303 2290 2338 2285 2289 2336 2324 2415 2328 2344 2362 2315 2319 2281 2336 2431 2416 2346 2324 2245 2318 2321 2312 2391 2357 2280 2355 2300 2341 2339 2331 2292 2320 2303 2293 2330 2278 2363 2257 2288 2232 2357 2385 2280 2422 2416 2305 2297 2330 2360 2389 2298 2353 2292 2335 2343 2288 2303 2270 2400 2324 2379 2313 2342 2336 2376 2320 2380 2406 2333 2296 2297 2309 2346 2344 2221 2324 2394 2362 2320 2337 2403 2279 2338 2356 2348 2376 2353 2378 2321 2355 2257 2356 2262 2381 2378 2295 2274 2352 2306 2414 2323 2351 2344 2353 2367 2281 2307 2298 2349 2381 2214 2415 2412 2431 2393 2360 2391 2415 2357 2400 2365 2442 2381 2266 2337 2355 2291 2331 2350 2380 2316 2339 2383 2260 2377 2306 2444 2330 2329 2324 2250 2192 2398 2352 2337 2399 2302 2344 2389 2198 2338 2319 2371 2285 2337 2359 2265 2311 2300 2355 2268 2376 2287 2297 2312 2355 2300 2304 2419 2326 2309 2282 2390 2344 2278 2314 2338 2379 2338 2281 2388 2255 2353 2284 2278 2370 2371 2303 2307 2277 2290 2320 2340 2361 2315 2348 2298 2273 2296 2223 2325 2286 2334 2312 2297 2296 2275 2364 2294 2206 2276 2342 2349 2344 2293 2371 2252 2335 2237 2437 2296 2324 2308 2311 2350 2420 2346 2325 2284 2358 2295 2375 2334 2310 2318 2313 2412 2313 2211 2336 2268 2361 2366 2415 2280 2392 2359 2243 2433 2231 2298 2348 2286 2281 2347 2328 2308 2306 2348 2391 2401 2355 2284 2361 2279 2344 2291 2343 2296 2326 2383 2424 2349 2360 2395 2398 2325 2301 2412 2378 2411 2418 2408 2345 2275 2390 2384 2448 2407 2384 2428 2374 2390 2337 2453 2445 2379 2417 2472 2466 2390 2292 2308 2387 2395 2427 2269 2435 2362 2491 2451 2526 2344 2436 2449 2504 2436 2398 2354 2445 2551 2390 2431 2383 2366 2396 2486 2339 2398 2417 2388 2316 2419 2370 2454 2400 2335 2390 2296 2345 2324 2371 2365 2286 2337 2408 2319 2291 2280 2315 2327 2392 2269 2483 2396 2347 2331 2382 2299 2398 2408 2370 2338 2302 2247 2454 2330 2268 2306 2317 2309 2235 2349 2344 2344 2310 2332 2316 2313 2303 2369 2281 2304 2342 2336 2349 2285 2375 2313 2305 2331 2369 2308 2400 2293 2338 2355 2352 2352 2356 2312 2303 2367 2345 2296 2289 2279 2291 2261 2352 2420 2294 2346 2236 2389 2328 2366 2394 2347 2351 2312 2339 2327 2338 2323 2385 2350 2288 2281 2298 2339 2340 2389 2221 2324 2363 2324 2310 2329 2335 2285 2341 2349 2317 2271 2344 2364 2289 2339 2374 2398 2305 2266 2210 2284 2361 2188 2286 2314 2423 2306 2266 2339 2330 2376 2327 2361 2313 2454 2331 2247 2327 2235 2312 2314 2300 2387 2384 2342 2299 2274 2374 2398 2261 2395 2408 2340 2331 2366 2248 2429 2267 2325 2344 2273 2284 2330 2392 2268 2244 2252 2322 2253 2354 2278 2365 2385 2429 2289 2393 2307 2282 2265 2264 2313 2280 2355 2334 2334 2312 2388 2328 2407 2336 2322 2349 2325 2347 2307 2380 2366 2430 2203 2376 2377 2286 2315 2297 2317 2367 2338 2242 2401 2347 2315 2316 2393 2361 2397 2425 2350 2409 2376 2330 2338 2385 2340 2378 2423 2470 2358 2446 2375 2316 2372 2321 2410 2431 2404 2386 2363 2420 2425 2291 2379 2441 2351 2398 2309 2383 2403 2482 2352 2441 2468 2397 2478 2492 2385 2388 2375 2459 2411 2461 2434 2420 2488 2372 2375 2537 2496 2425 2511 2433 2444 2367 2497 2550 2484 2531 2515 2420 2532 2439 2433 2499 2482 2433 2480 2439 2530 2474 2452 2462 2496 2552 2466 2522 2495 2540 2506 2499 2619 2592 2612 2510 2537 2446 2588 2567 2565 2534 2478 2567 2514 2526 2621 2521 2409 2539 2465 2450 2398 2441 2429 2488 2409 2481 2497 2494 2408 2488 2433 2486 2443 2411 2401 2352 2440 2373 2389 2436 2315 2440 2338 2443 2378 2322 2301 2270 2344 2368 2437 2348 2401 2430 2443 2325 2335 2350 2355 2300 2317 2334 2268 2336 2275 2418 2390 2284 2285 2266 2343 2343 2323 2337 2347 2404 2343 2413 2325 2273 2293 2447 2436 2316 2418 2361 2265 2328 2360 2422 2360 2422 2271 2393 2374 2357 2327 2317 2295 2320 2287 2388 2358 2297 2361 2424 2327 2269 2355 2304 2379 2381 2348 2352 2296 2371 2337 2302 2292 2218 2280 2345 2288 2259 2447 2464 2310 2332 2315 2341 2341 2283 2323 2400 2254 2327 2271 2311 2322 2315 2330 2347 2324 2289 2360 2401 2372 2286 2343 2375 2305 2356 2416 2340 2315 2377 2294 2407 2282 2342 2382 2304 2365 2346 2348 2323 2297 2293 2304 2345 2425 2363 2413 2351 2345 2316 2391 2281 2293 2272 2365 2274 2334 2479 2345 2242 2434 2352 2319 2342 2426 2318 2363 2384 2407 2360 2330 2384 2350 2361 2350 2361 2306 2287 2379 2295 2399 2307 2344 2338 2273 2341 2367 2333 2289 2388 2423 2298 2366 2350 2398 2297 2530 2298 2337 2341 2360 2344 2340 2363 2337 2442 2334 2289 2369 2369 2291 2303 2312 2334 2378 2395 2286 2349 2429 2290 2388 2348 2353 2312 2397 2335 2338 2372 2371 2223 2324 2263 2383 2344 2371 2313 2336 2444 2301 2399 2397 2253 2321 2425 2389 2336 2290 2373 2332 2320 2294 2452 2396 2273 2350 2306 2358 2287 2345 2436 2319 2272 2274 2276 2286 2374 2295 2324 2397 2438 2385 2318 2381 2400 2333 2379 2344 2351 2266 2436 2353 2352 2306 2331 2324 2327 2269 2355 2290 2335 2366 2279 2285 2309 2387 2235 2298 2311 2367 2316 2386 2288 2370 2350 2339 2273 2335 2371 2427 2330 2320 2407 2308 2338 2424 2308 2405 2342 2338 2379 2244 2421 2443 2339 2413 2354 2437 2346 2423 2282 2327 2381 2373 2451 2296 2376 2396 2304 2298 2353 2343 2267 2312 2261 2362 2294 2371 2243 2313 2477 2310 2355 2334 2303 2340 2317 2268 2428 2287 2396 2427 2399 2356 2368 2396 2356 2364 2357 2319 2274 2369 2440 2323 2351 2312 2338 2373 2359 2413 2372 2381 2376 2358 2287 2258 2353 2214 2302 2301 2449 2315 2279 2381 2311 2316 2349 2358 2407 2386 2410 2387 2225 2390 2384 2360 2313 2343 2367 2300 2417 2320 2356 2353 2348 2417 2292 2369 2392 2385 2300 2385 2222 2337 2380 2314 2341 2274 2396 2247 2366 2383 2349 2320 2507 2315 2390 2290 2334 2384 2427 2339 2224 2292 2420 2387 2389 2385 2350 2355 2439 2377 2411 2305 2428 2373 2363 2365 2409 2344 2419 2258 2301 2339 2380 2379 2364 2312 2346 2365 2459 2364 2290 2437 2298 2338 2429 2346 2385 2277 2287 2345 2321 2320 2304 2343 2302 2338 2308 2387 2348 2429 2381 2340 2313 2285 2343 2257 2292 2364 2336 2395 2255 2376 2400 2432 2371 2268 2366 2299 2354 2416 2382 2388 2401 2319 2338 2361 2361 2321 2326 2372 2456 2329 2353 2424 2325 2306 2334 2323 2399 2408 2450 2346 2329 2390 2301 2426 2306 2426 2386 2322 2327 2411 2399 2323 2273 2403 2316 2368 2291 2402 2315 2340 2331 2298 2331 2313 2292 2315 2355 2325 2285 2396 2376 2342 2446 2434 2377 2327 2393 2364 2276 2342 2294 2416 2399 2302 2400 2352 2503 2422 2299 2401 2329 2452 2456 2459 2349 2404 2381 2398 2392 2398 2413 2347 2301 2454 2414 2447 2452 2382 2413 2368 2384 2360 2295 2387 2396 2339 2400 2383 2261 2362 2446 2408 2370 2474 2336 2481 2525 2449 2496 2432 2445 2481 2448 2424 2401 2391 2419 2435 2488 2444 2412 2500 2399 2429 2427 2504 2411 2356 2495 2411 2424 2449 2439 2428 2462 2485 2418 2559 2455 2510 2427 2385 2483 2440 2467 2556 2442 2419 2583 2393 2499 2516 2470 2495 2416 2474 2510 2437 2519 2541 2508 2440 2505 2486 2496 2460 2517 2471 2529 2424 2521 2544 2505 2464 2463 2424 2394 2441 2488 2428 2439 2496 2499 2452 2495 2471 2487 2439 2505 2467 2449 2455 2348 2419 2387 2374 2366 2341 2372 2437 2398 2430 2436 2303 2316 2355 2414 2399 2416 2356 2515 2371 2356 2329 2371 2336 2396 2341 2290 2336 2439 2324 2368 2390 2451 2435 2387 2381 2434 2407 2362 2338 2326 2312 2323 2332 2383 2411 2299 2335 2439 2356 2324 2341 2444 2434 2438 2346 2410 2415 2434 2383 2390 2329 2379 2408 2453 2377 2398 2356 2386 2428 2438 2280 2311 2462 2402 2365 2315 2328 2249 2479 2382 2379 2329 2347 2349 2350 2389 2341 2411 2364 2305 2335 2345 2441 2426 2424 2461 2390 2414 2400 2372 2403 2328 2302 2448 2374 2400 2377 2419 2399 2360 2356 2393 2384 2362 2347 2421 2369 2374 2378 2332 2386 2356 2360 2431 2439 2394 2430 2404 2391 2355 2357 2383 2318 2412 2329 2378 2441 2420 2402 2331 2362 2418 2381 2478 2348 2388 2393 2376 2382 2445 2389 2478 2335 2491 2443 2504 2420 2448 2520 2550 2495 2500 2522 2473 2554 2546 2483 2476 2524 2526 2646 2472 2527 2623 2520 2648 2609 2579 2661 2661 2760 2657 2620 2687 2667 2713 2638 2660 2725 2609 2749 2796 2689 2739 2756 2666 2747 2789 2683 2726 2726 2826 2879 2835 2822 2758 2872 2738 2762 2777 2763 2794 2843 2794 2957 2720 2875 2790 2732 2752 2884 2757 2750 2718 2895 2810 2813 2749 2838 2762 2697 2778 2726 2745 2826 2608 2748 2678 2733 2701 2626 2783 2723 2739 2658 2703 2684 2811 2736 2645 2681 2599 2582 2622 2586 2761 2645 2622 2616 2571 2634 2496 2653 2627 2468 2584 2535 2593 2520 2555 2494 2562 2454 2613 2504 2459 2542 2613 2551 2554 2478 2530 2490 2456 2521 2477 2485 2525 2444 2453 2473 2467 2536 2387 2431 2475 2436 2433 2431 2491 2423 2476 2408 2445 2409 2395 2425 2468 2439 2408 2497 2409 2291 2410 2341 2578 2472 2446 2406 2405 2403 2425 2405 2381 2493 2470 2432 2368 2449 2442 2458 2393 2499 2453 2391 2438 2394 2373 2426 2377 2438 2512 2342 2474 2411 2319 2404 2330 2324 2459 2434 2444 2384 2567 2416 2464 2399 2501 2409 2487 2405 2463 2468 2487 2371 2420 2528 2492 2423 2448 2447 2487 2370 2445 2517 2515 2512 2431 2393 2364 2433 2365 2478 2403 2466 2466 2449 2388 2404 2453 2497 2522 2386 2436 2421 2454 2424 2453 2467 2445 2499 2520 2413 2481 2374 2458 2418 2478 2456 2398 2401 2426 2431 2484 2489 2531 2464 2434 2420 2419 2404 2447 2360 2428 2461 2517 2392 2398 2489 2406 2414 2378 2457 2431 2403 2390 2414 2361 2502 2417 2392 2322 2401 2370 2380 2389 2448 2352 2326 2362 2396 2428 2482 2381 2289 2480 2371 2396 2349 2427 2391 2432 2391 2391 2459 2390 2446 2470 2432 2440 2356 2470 2455 2322 2364 2385 2327 2454 2370 2428 2322 2341 2364 2315 2395 2356 2371 2413 2377 2383 2417 2317 2329 2431 2373 2389 2347 2470 2386 2393 2344 2353 2376 2419 2391 2426 2346 2447 2360 2423 2396 2424 2313 2297 2385 2444 2381 2369 2343 2315 2290 2388 2374 2465 2347 2396 2436 2404 2308 2418 2440 2372 2289 2317 2393 2403 2335 2311 2351 2439 2345 2374 2384 2376 2378 2384 2426 2422 2444 2375 2430 2351 2350 2372 2432 2456 2331 2430 2366 2403 2386 2387 2418 2391 2381 2416 2334 2419 2357 2367 2383 2333 2413 2375 2389 2295 2416 2426 2372 2480 2343 2470 2368 2424 2439 2425 2413 2298 2355 2342 2364 2430 2435 2369 2451 2400 2333 2375 2406 2292 2395 2393 2380 2453 2402 2350 2314 2339 2475 2480 2415 2371 2405 2342 2320 2402 2438 2389 2333 2303 2391 2378 2339 2450 2265 2438 2390 2421 2434 2320 2447 2314 2375 2354 2319 2321 2410 2421 2358 2408 2327 2386 2307 2389 2300 2390 2421 2236 2381 2474 2393 2489 2413 2414 2449 2344 2375 2423 2403 2386 2325 2317 2419 2397 2346 2383 2319 2437 2350 2453 2376 2364 2331 2320 2398 2457 2304 2403 2382 2348 2275 2321 2425 2288 2320 2374 2378 2424 2358 2460 2422 2369 2349 2301 2306 2331 2396 2418 2436 2345 2390 2343 2332 2442 2358 2422 2333 2287 2404 2408 2334 2381 2390 2424 2384 2293 2464 2379 2419 2322 2336 2332 2413 2422 2342 2473 2388 2402 2423 2429 2374 2454 2356 2400 2378 2310 2356 2378 2396 2326 2399 2404 2352 2351 2343 2484 2368 2369 2380 2402 2308 2432 2422 2388 2381 2334 2348 2446 2414 2406 2405 2372 2359 2329 2351 2403 2248 2379 2345 2424 2370 2387 2487 2501 2451 2457 2399 2525 2342 2391 2325 2402 2356 2334 2416 2424 2462 2338 2339 2437 2361 2343 2419 2436 2375 2413 2446 2444 2515 2443 2509 2518 2422 2473 2416 2414 2363 2426 2512 2346 2396 2502 2343 2439 2311 2390 2366 2377 2455 2298 2463 2382 2499 2396 2390 2513 2417 2379 2320 2372 2410 2354 2355 2521 2390 2483 2376 2550 2459 2388 2416 2408 2472 2448 2510 2449 2480 2396 2419 2368 2362 2413 2345 2461 2369 2457 2357 2371 2432 2376 2413 2391 2514 2395 2421 2439 2400 2386 2604 2432 2400 2438 2450 2390 2412 2465 2444 2462 2422 2416 2468 2424 2370 2429 2359 2436 2452 2423 2491 2429 2372 2371 2498 2429 2397 2485 2449 2429 2437 2434 2365 2436 2526 2359 2479 2413 2421 2438 2415 2408 2388 2487 2397 2451 2380 2362 2405 2413 2358 2415 2504 2376 2385 2394 2388 2362 2407 2357 2438 2461 2456 2317 2353 2426 2470 2437 2451 2378 2415 2404 2359 2386 2434 2489 2470 2355 2465 2449 2442 2443 2359 2367 2370 2329 2333 2373 2322 2364 2422 2363 2403 2432 2434 2384 2391 2423 2374 2405 2370 2386 2377 2333 2460 2335 2414 2332 2414 2416 2316 2432 2350 2348 2333 2433 2390 2363 2358 2389 2441 2315 2446 2374 2411 2397 2391 2370 2269 2386 2370 2435 2293 2317 2380 2473 2410 2434 2316 2437 2358 2445 2411 2390 2359 2460 2361 2315 2473 2471 2412 2445 2348 2407 2304 2407 2384 2357 2385 2359 2325 2382 2400 2384 2409 2382 2388 2378 2396 2279 2379 2377 2419 2351 2403 2376 2341 2334 2353 2290 2405 2359 2444 2368 2346 2364 2412 2415 2347 2440 2431 2361 2316 2383 2348 2408 2327 2388 2358 2393 2440 2417 2359 2474 2353 2356 2370 2333 2470 2356 2377 2431 2385 2354 2359 2493 2462 2411 2362 2437 2461 2443 2431 2378 2418 2419 2416 2444 2375 2461 2508 2401 2515 2402 2453 2368 2440 2492 2494 2465 2481 2534 2399 2450 2417 2433 2499 2486 2482 2439 2527 2465 2445 2556 2498 2470 2521 2404 2512 2573 2578 2507 2617 2626 2543 2502 2615 2490 2573 2623 2605 2660 2582 2571 2666 2626 2579 2700 2669 2643 2735 2600 2688 2694 2578 2630 2615 2652 2668 2679 2600 2675 2628 2625 2675 2672 2588 2600 2653 2559 2665 2651 2673 2595 2582 2680 2579 2618 2620 2671 2634 2570 2618 2576 2637 2588 2630 2554 2610 2636 2576 2510 2508 2567 2572 2525 2536 2502 2662 2633 2604 2566 2552 2541 2603 2544 2556 2600 2514 2562 2525 2480 2586 2572 2538 2575 2545 2474 2543 2512 2523 2559 2518 2398 2386 2497 2448 2458 2448 2540 2516 2468 2526 2434 2453 2482 2475 2451 2476 2452 2409 2524 2468 2541 2396 2435 2489 2444 2435 2481 2512 2480 2452 2436 2425 2448 2367 2455 2376 2482 2479 2381 2440 2525 2461 2521 2385 2521 2515 2504 2386 2434 2334 2465 2449 2466 2397 2471 2386 2308 2431 2286 2458 2442 2472 2393 2431 2404 2468 2415 2415 2495 2343 2479 2393 2410 2409 2445 2374 2432 2443 2405 2409 2328 2452 2372 2386 2459 2437 2356 2438 2387 2437 2374 2432 2394 2502 2413 2461 2404 2402 2395 2426 2437 2344 2365 2347 2386 2387 2467 2416 2545 2429 2498 2497 2391 2367 2359 2579 2474 2430 2411 2333 2506 2423 2419 2362 2432 2409 2478 2392 2525 2494 2416 2556 2408 2387 2371 2476 2407 2484 2437 2411 2350 2345 2429 2449 2432 2478 2479 2409 2508 2480 2526 2391 2408 2533 2523 2470 2453 2392 2417 2406 2454 2452 2413 2431 2547 2436 2438 2458 2397 2391 2410 2455 2437 2437 2452 2398 2401 2461 2373 2365 2478 2456 2539 2481 2533 2370 2374 2468 2468 2491 2481 2456 2456 2404 2413 2418 2300 2330 2424 2359 2393 2406 2342 2612 2477 2359 2365 2424 2390 2424 2328 2512 2371 2351 2337 2344 2449 2483 2332 2486 2406 2435 2486 2398 2443 2445 2436 2402 2397 2315 2369 2438 2425 2501 2448 2498 2340 2328 2411 2336 2434 2453 2332 2346 2431 2416 2510 2423 2390 2326 2338 2359 2297 2423 2418 2312 2410 2408 2353 2426 2342 2345 2493 2416 2483 2388 2422 2321 2365 2499 2301 2405 2351 2483 2348 2430 2399 2356 2296 2409 2450 2364 2388 2450 2350 2417 2382 2391 2328 2386 2421 2511 2318 2449 2420 2390 2370 2416 2327 2509 2428 2351 2372 2420 2418 2500 2343 2450 2442 2413 2402 2471 2391 2398 2452 2364 2353 2404 2416 2381 2445 2383 2363 2330 2355 2383 2452 2429 2485 2346 2407 2358 2363 2380 2432 2480 2426 2388 2390 2404 2361 2463 2382 2235 2404 2411 2357 2423 2360 2420 2403 2380 2429 2422 2394 2321 2388 2404 2387 2397 2415 2413 2430 2419 2415 2503 2344 2401 2378 2372 2518 2346 2329 2414 2472 2412 2424 2456 2410 2354 2357 2367 2321 2317 2307 2401 2361 2395 2532 2441 2389 2374 2386 2355 2384 2394 2403 2382 2433 2425 2353 2337 2368 2362 2405 2382 2405 2432 2462 2397 2466 2463 2410 2443 2298 2374 2368 2498 2433 2441 2310 2413 2445</counts>
			</dataPoints>
		</scan>
	</xrdMeasurement>
</xrdMeasurements>
