<?xml version="1.0"?>
<xrdMeasurements xmlns="http://www.xrdml.com/XRDMeasurement/2.3" xmlns:xsi="http://www.w3.org/2001/XMLSchema-instance" xsi:schemaLocation="http://www.xrdml.com/XRDMeasurement/2.3 http://www.xrdml.com/XRDMeasurement/2.3/XRDMeasurement.xsd" status="Completed" recordIdentifier="{3AC20633-D769-4F45-98F5-B4B267D6E569}">
	<comment>
		<entry/>
	</comment>
	<sample type="To be analyzed">
		<id>GPSS_Li1p6Hf0p2Zn0p8Cl4_110825_690fcd71f040177efa2b8c52</id>
		<name></name>
		<preparedBy></preparedBy>
	</sample>
	<xrdMeasurement measurementType="Scan" status="Completed" sampleMode="Reflection">
		<usedWavelength intended="K-Alpha 1">
			<kAlpha1 unit="Angstrom">1.5405980</kAlpha1>
			<kAlpha2 unit="Angstrom">1.5444260</kAlpha2>
			<kBeta unit="Angstrom">1.3922500</kBeta>
			<ratioKAlpha2KAlpha1>0.5000</ratioKAlpha2KAlpha1>
		</usedWavelength>
		<incidentBeamPath>
			<radius unit="mm">145.00</radius>
			<xRayTube id="1010048" name="Empyrean Cu LFF HR (9430 033 7310x)">
				<tension unit="kV">40.0</tension>
				<current unit="mA">15.0</current>
				<anodeMaterial>Cu</anodeMaterial>
				<focus type="Line">
					<length unit="mm">12.0</length>
					<width unit="mm">0.4</width>
					<takeOffAngle unit="deg">6.0</takeOffAngle>
				</focus>
			</xRayTube>
			<sollerSlit id="21010002" name="Soller slits 0.04 rad.">
				<opening unit="rad">0.0400</opening>
			</sollerSlit>
			<mask id="22031000" name="Fixed mask 13 mm">
				<width unit="mm">9.00</width>
			</mask>
			<divergenceSlit id="22120001" name="Divergence slit 1°" xsi:type="fixedDivergenceSlitType">
				<distanceToSample unit="mm">50.00</distanceToSample>
				<height unit="mm">1.52</height>
			</divergenceSlit>
		</incidentBeamPath>
		<sampleMovement xsi:type="spinningSampleMovementType">
			<spinnerRevolutionTime unit="seconds">1.0</spinnerRevolutionTime>
		</sampleMovement>
		<diffractedBeamPath>
			<radius unit="mm">145.00</radius>
			<antiScatterSlit id="22090040" name="AS slit 9 mm (PIXcel)" xsi:type="fixedAntiScatterSlitType">
				<height unit="mm">9.00</height>
			</antiScatterSlit>
			<sollerSlit id="21020003" name="Large Soller slits 0.04 rad.">
				<opening unit="rad">0.0400</opening>
			</sollerSlit>
			<filter id="20030001" name="Large beta-filter Nickel">
				<material>Ni</material>
				<thickness unit="mm">0.020</thickness>
			</filter>
			<detector id="7010019" name="PIXcel1D-Medipix3 detector" xsi:type="rtmsDetectorType">
				<phd unit="keV">
					<lowerLevel>4.02</lowerLevel>
					<upperLevel>11.27</upperLevel>
				</phd>
				<mode>Scanning</mode>
				<activeLength unit="deg">5.542</activeLength>
			</detector>
		</diffractedBeamPath>
		<scan appendNumber="0" mode="Continuous" scanAxis="Gonio" status="Completed">
			<header>
				<startTimeStamp>2025-11-11T14:30:05-08:00</startTimeStamp>
				<endTimeStamp>2025-11-11T14:38:12-08:00</endTimeStamp>
				<author>
					<name>AutomatedUser</name>
				</author>
				<source>
					<applicationSoftware version="1.7b (136)">PANalytical Aeris Instrument Suite</applicationSoftware>
					<instrumentControlSoftware version="3.2.00000000 20240306">AERIS</instrumentControlSoftware>
					<instrumentID>950485</instrumentID>
				</source>
			</header>
			<dataPoints>
				<positions axis="2Theta" unit="deg">
					<startPosition>10.00943322</startPosition>
					<endPosition>99.99442286</endPosition>
				</positions>
				<positions axis="Omega" unit="deg">
					<startPosition>5.00471661</startPosition>
					<endPosition>49.99721143</endPosition>
				</positions>
				<commonCountingTime unit="seconds">12.495</commonCountingTime>
				<counts unit="counts">2760 2617 2650 2665 2718 2643 2707 2747 2735 2713 2777 2606 2740 2557 2612 2610 2701 2745 2776 2749 2656 2657 2653 2676 2736 2736 2728 2713 2792 2589 2729 2694 2828 2681 2692 2575 2792 2722 2628 2773 2648 2738 2851 2736 2808 2734 2796 2774 2701 2762 2649 2717 2754 2707 2750 2663 2832 2720 2736 2737 2780 2762 2774 2736 2721 2663 2778 2812 2753 2767 2750 2755 2863 2866 2833 2795 2902 2786 2908 2838 2833 2906 2909 2883 2910 2924 2870 2931 2876 2875 2825 2846 2930 2847 2767 2818 2804 2865 2864 2824 2658 2849 2948 2793 2896 2923 2860 2819 2947 2831 2775 2806 2865 2873 2831 2846 2905 2834 2875 2856 2835 2816 2806 2905 2855 2863 2747 2889 2831 2779 2880 2922 2737 2865 2898 2825 2808 2921 2806 2774 2877 2921 2849 2782 2760 2884 2843 2814 2851 2834 2876 2727 2872 2843 2814 2839 2938 3016 2885 2925 2889 2899 2758 2853 2900 2917 2922 2911 2922 2924 2954 2940 2911 2922 2886 3024 2951 3045 2961 3086 2916 2894 2926 2923 3011 2981 3000 2969 3019 2959 2971 2913 3017 3063 2976 2974 3046 3016 3030 2981 3079 2996 3025 3030 2948 3126 3029 2946 3077 3039 3066 3015 3068 2954 3101 3016 3016 3006 3108 3005 3042 3043 3027 3110 3128 3016 3096 3121 3052 3088 3110 3113 3092 3077 3126 3067 3189 3145 3108 3081 3034 3163 3153 2942 3101 3095 3147 3137 2925 3002 3046 3089 2944 3026 3010 2911 3016 3010 2905 3005 2832 3044 3088 3074 3051 3020 2990 2976 2994 2908 2922 3004 2981 2921 2916 2905 2971 2839 2826 2938 2909 2883 2919 2863 2787 2768 2793 2758 2891 2744 2825 2758 2778 2787 2878 2867 2733 2788 2839 2754 2747 2803 2807 2650 2700 2761 2802 2725 2825 2759 2838 2788 2748 2849 2802 2755 2814 2750 2780 2828 2745 2899 2771 2785 2798 2919 2813 2832 2789 2855 2898 2862 2983 2881 2969 2969 2948 3021 3010 3137 3025 3122 3079 3124 3061 3028 3044 3099 2962 3090 3024 3044 3006 2970 2975 3006 2945 2961 2968 2881 2975 2969 2989 3026 3060 2999 3057 3000 3063 3014 2993 3065 3130 3105 3060 3127 3145 3165 3056 3087 3147 3134 3041 3044 3128 3075 3039 3121 3059 3053 3135 3120 3036 3136 3119 3069 3120 3182 3139 3127 3109 3147 3145 3217 3239 3147 3239 3163 3183 3268 3212 3148 3170 3259 3223 3215 3283 3224 3289 3289 3315 3078 3197 3182 3153 3316 3299 3310 3251 3201 3299 3264 3355 3278 3342 3273 3232 3221 3350 3224 3450 3379 3416 3351 3320 3456 3482 3400 3407 3416 3397 3455 3411 3222 3379 3279 3362 3353 3311 3308 3271 3357 3343 3294 3289 3242 3294 3224 3263 3231 3191 3346 3331 3138 3276 3223 3314 3173 3193 3298 3119 3273 3188 3262 3288 3183 3214 3214 3159 3045 3068 3074 3142 3069 3237 3068 3099 2975 3094 3034 3064 3030 3023 3015 2972 2999 3019 3045 2944 2941 2950 3041 3056 3094 3058 3040 2993 2932 3101 3102 2992 2932 2989 3030 3134 3061 3008 3076 3002 3032 3087 3115 3130 3117 3170 3218 3156 3321 3370 3333 3433 3366 3573 3543 3632 3822 3678 3660 3679 3475 3532 3534 3495 3530 3390 3270 3354 3205 3263 3171 3189 3159 3132 3165 3215 3230 3087 3131 3049 3127 3139 3041 3025 3191 3154 3140 3143 2993 2924 3059 3059 3101 2954 2942 2869 2991 2808 2950 2874 2973 2893 2837 2792 2822 2785 2747 2758 2785 2863 2788 2778 2778 2754 2638 2773 2698 2705 2671 2681 2714 2734 2708 2724 2657 2715 2722 2687 2758 2745 2657 2770 2670 2709 2831 2638 2765 2800 2756 2731 2741 2709 2657 2676 2740 2608 2657 2698 2711 2669 2683 2559 2688 2778 2744 2742 2717 2752 2797 2821 2924 2904 2829 3060 3008 3096 2932 3027 3069 2973 2847 2944 2919 3055 2872 2835 2682 2824 2840 2639 2591 2694 2605 2716 2684 2618 2705 2736 2648 2677 2700 2713 2635 2577 2640 2652 2696 2677 2688 2624 2611 2606 2701 2556 2632 2678 2569 2619 2626 2609 2564 2573 2556 2632 2634 2667 2686 2710 2630 2630 2595 2655 2584 2553 2648 2598 2636 2669 2542 2582 2570 2758 2620 2659 2567 2634 2555 2690 2599 2611 2617 2699 2726 2729 2679 2756 2789 2886 2734 2992 2950 3006 2959 3153 3150 3366 3589 3659 3729 3874 4018 4303 4270 4277 4409 4251 4161 4016 3788 3832 3572 3434 3270 3224 3232 3097 3069 2953 2988 2993 2874 2943 3023 2960 2903 2988 3031 3095 3057 3049 2965 3006 2969 3014 3043 3101 3063 3087 3005 3095 3168 3133 3105 3182 3155 3107 3176 3090 3222 3183 3304 3108 3041 3038 2872 2938 2797 2778 2765 2628 2637 2646 2674 2537 2613 2634 2522 2604 2579 2598 2588 2600 2667 2632 2645 2597 2606 2604 2528 2548 2498 2601 2446 2489 2602 2547 2499 2531 2511 2473 2490 2424 2365 2450 2372 2507 2440 2384 2463 2403 2475 2404 2491 2469 2394 2455 2429 2349 2454 2429 2454 2378 2428 2477 2384 2411 2388 2370 2498 2356 2330 2456 2427 2370 2420 2377 2384 2406 2338 2325 2412 2316 2365 2348 2330 2348 2301 2455 2410 2445 2325 2325 2306 2426 2369 2284 2343 2423 2463 2386 2366 2441 2361 2380 2498 2575 2561 2612 2668 2642 2751 2856 2933 2886 2921 2864 2829 2757 2911 2925 2794 2772 2725 2702 2554 2587 2540 2556 2420 2452 2485 2319 2343 2331 2379 2401 2386 2502 2416 2536 2457 2456 2474 2430 2360 2363 2458 2436 2409 2386 2342 2313 2268 2355 2311 2354 2309 2236 2217 2255 2328 2291 2204 2217 2231 2335 2228 2225 2116 2203 2239 2224 2201 2290 2163 2216 2181 2242 2161 2257 2228 2185 2115 2202 2198 2116 2200 2290 2145 2182 2220 2134 2136 2265 2188 2203 2178 2190 2265 2164 2201 2179 2221 2187 2233 2188 2168 2226 2190 2284 2219 2227 2331 2163 2205 2144 2173 2241 2193 2162 2215 2239 2164 2238 2239 2226 2212 2202 2190 2287 2137 2281 2144 2191 2200 2168 2251 2232 2156 2274 2236 2230 2315 2195 2271 2222 2351 2274 2273 2219 2216 2160 2208 2254 2229 2210 2177 2177 2189 2320 2301 2184 2165 2275 2177 2188 2207 2330 2350 2193 2346 2217 2328 2327 2283 2214 2290 2313 2313 2253 2280 2276 2354 2355 2317 2297 2401 2315 2321 2371 2447 2522 2441 2444 2545 2549 2473 2536 2539 2519 2515 2483 2425 2442 2466 2531 2389 2349 2460 2423 2400 2296 2292 2324 2368 2368 2372 2313 2301 2337 2324 2476 2345 2374 2294 2321 2351 2372 2356 2455 2316 2401 2402 2302 2336 2360 2397 2382 2258 2378 2276 2307 2331 2329 2257 2335 2230 2254 2165 2280 2266 2174 2146 2161 2183 2183 2191 2210 2222 2124 2175 2193 2210 2224 2185 2182 2230 2253 2142 2205 2182 2193 2137 2225 2238 2146 2098 2022 2109 2060 2092 2036 1995 2065 2113 2063 1982 2037 1982 2091 1954 1973 2010 2009 1958 1999 1993 2084 2044 2030 2083 2081 2012 1957 2049 1995 2052 2036 2022 2106 2051 2086 2060 2185 2006 2174 1991 2088 2096 2174 2127 2092 2144 2196 2026 2089 2036 2034 2046 2049 2012 1894 1908 1922 1925 1931 1833 1877 1823 1816 1810 1912 1920 1806 1810 1799 1862 1807 1824 1819 1828 1801 1823 1812 1810 1752 1795 1828 1885 1866 1902 1889 1789 1936 1857 1900 2026 2037 2079 2175 2112 2222 2208 2275 2260 2152 2219 2231 2091 2123 2115 2034 1879 1938 1840 1883 1802 1746 1744 1727 1737 1783 1738 1727 1743 1693 1762 1751 1720 1746 1785 1691 1814 1795 1848 1730 1774 1739 1699 1742 1715 1683 1748 1755 1678 1614 1638 1594 1635 1676 1632 1662 1562 1560 1613 1636 1590 1597 1601 1597 1590 1641 1573 1595 1522 1603 1606 1546 1532 1543 1591 1579 1621 1577 1611 1488 1563 1695 1530 1575 1618 1560 1649 1518 1557 1522 1572 1535 1521 1588 1488 1531 1605 1595 1549 1573 1597 1572 1626 1513 1632 1573 1640 1552 1520 1617 1547 1600 1564 1578 1575 1529 1541 1616 1547 1614 1577 1592 1581 1594 1638 1603 1565 1637 1570 1633 1540 1644 1665 1598 1639 1636 1541 1586 1652 1587 1686 1603 1614 1591 1676 1636 1715 1659 1721 1747 1663 1688 1712 1757 1707 1729 1650 1686 1761 1705 1674 1644 1790 1780 1809 1838 1792 1740 1797 1841 1792 1930 1852 1882 1976 1936 1951 1846 1842 1836 1817 1963 1900 1865 1797 1853 1818 1803 1884 1720 1763 1783 1735 1713 1754 1741 1726 1771 1725 1798 1803 1763 1704 1719 1731 1704 1737 1732 1722 1699 1683 1686 1748 1732 1731 1690 1653 1639 1674 1591 1619 1608 1688 1654 1693 1654 1639 1567 1657 1610 1566 1517 1552 1573 1551 1564 1642 1485 1548 1539 1569 1564 1616 1573 1571 1552 1588 1566 1543 1637 1532 1499 1577 1504 1525 1519 1517 1518 1628 1584 1572 1557 1527 1506 1549 1583 1539 1603 1488 1536 1526 1609 1580 1547 1534 1535 1583 1499 1542 1551 1554 1544 1582 1533 1528 1547 1521 1579 1568 1571 1559 1553 1528 1506 1541 1513 1492 1542 1519 1536 1519 1492 1543 1520 1498 1476 1528 1614 1450 1485 1512 1549 1607 1446 1497 1556 1549 1624 1509 1592 1665 1386 1482 1552 1549 1499 1479 1471 1472 1425 1483 1468 1396 1396 1496 1515 1470 1465 1418 1521 1522 1588 1506 1623 1614 1709 1635 1740 1861 1939 2123 2100 2315 2516 2556 2800 2987 3075 3339 3383 3500 3457 3551 3462 3501 3439 3289 3423 3230 3259 3176 2906 2903 2721 2586 2444 2482 2387 2215 2177 2030 2022 2017 2013 2043 1947 2073 1931 2126 2255 2184 2364 2380 2537 2558 2765 2706 2726 2796 2799 2752 2685 2679 2451 2464 2291 2262 2158 2050 2055 2017 1905 1856 1832 1720 1758 1858 1719 1746 1835 1715 1708 1815 1701 1641 1697 1589 1583 1649 1623 1590 1569 1666 1540 1594 1589 1568 1486 1558 1571 1476 1538 1548 1435 1480 1486 1535 1430 1470 1443 1418 1435 1464 1445 1454 1428 1416 1431 1465 1498 1575 1575 1568 1669 1805 1826 1896 1978 2030 2097 2056 2149 2166 2081 2040 1984 1905 1873 1830 1868 1851 1920 1974 1887 1942 2109 2109 2334 2186 2315 2363 2357 2291 2287 2200 2126 2073 2092 1949 1905 1917 1804 1744 1710 1595 1638 1532 1575 1495 1576 1472 1534 1406 1479 1325 1471 1496 1456 1394 1417 1428 1388 1361 1346 1404 1391 1344 1317 1345 1284 1364 1269 1315 1307 1224 1233 1217 1191 1184 1217 1152 1144 1158 1091 1188 1145 1118 1140 1145 1147 1116 1166 1148 1193 1142 1223 1225 1204 1209 1267 1291 1376 1322 1357 1384 1391 1432 1432 1450 1532 1480 1477 1469 1419 1480 1341 1236 1348 1182 1233 1200 1212 1147 1110 1029 1070 1118 1044 1091 1141 1115 1116 1126 1112 1184 1176 1256 1273 1315 1333 1386 1445 1383 1482 1428 1405 1459 1364 1380 1329 1274 1298 1252 1274 1209 1153 1164 1124 1181 1112 1108 1022 1106 1033 1042 1091 1110 1051 1053 1173 1121 1127 1134 1100 1102 1064 1130 1099 1104 1147 1061 1171 1049 1065 1079 1028 1095 1032 1132 1112 1083 1106 1088 1100 1163 1170 1141 1182 1134 1243 1259 1256 1232 1255 1306 1379 1332 1379 1425 1533 1481 1610 1484 1588 1565 1520 1544 1577 1535 1616 1588 1647 1597 1637 1681 1707 1863 1900 1969 2144 2422 2524 2755 3212 3373 3764 4123 4062 4248 4368 4459 4437 4391 4324 4243 4371 4276 4010 3842 3535 3442 3170 3111 2807 2597 2577 2356 2188 1989 1869 1877 1784 1709 1760 1602 1579 1565 1547 1551 1534 1588 1553 1570 1556 1581 1579 1531 1463 1490 1472 1477 1444 1394 1354 1428 1308 1205 1218 1216 1228 1237 1244 1147 1127 1161 1126 1089 1085 1101 1123 1069 1138 1031 1069 1036 1081 1059 982 1075 1037 1096 1100 1143 1098 1127 1167 1211 1230 1355 1439 1562 1616 1663 1845 1936 2059 2171 2101 2045 1982 1950 1882 1824 1694 1631 1533 1492 1385 1334 1269 1213 1111 1074 1109 1039 1109 1001 1040 1032 984 1038 1025 1027 1062 1023 1061 955 998 1032 992 1039 1032 1051 1015 1025 1026 1043 991 972 987 913 1009 961 858 895 848 912 879 866 870 841 821 846 870 868 836 898 886 896 883 938 889 886 949 928 972 873 911 950 950 965 982 916 984 977 934 1006 928 939 914 972 993 931 915 929 937 894 863 893 922 867 805 800 841 834 860 844 894 885 873 877 883 907 805 831 862 851 853 846 799 815 875 798 858 850 851 810 835 834 815 802 827 824 763 819 821 827 786 806 833 819 822 805 812 809 769 887 778 809 800 829 772 806 770 782 821 819 797 837 811 741 764 803 838 784 770 876 809 846 855 836 847 811 906 844 909 906 883 859 900 816 881 849 872 824 929 829 920 884 944 887 884 975 918 935 926 984 893 946 968 965 943 976 986 1005 1062 1041 1055 1151 1113 1103 1123 1207 1168 1178 1215 1210 1176 1205 1212 1246 1174 1179 1086 1130 1100 1210 1135 1160 1209 1168 1135 1136 1033 1074 1085 1137 1166 1170 1169 1143 1114 1084 1068 1061 1022 998 1016 1028 976 982 947 925 896 881 931 865 876 871 849 842 833 848 893 822 841 852 803 848 907 881 812 842 863 842 874 876 837 818 885 905 910 842 846 851 844 843 769 878 870 798 835 794 843 839 862 811 775 776 808 838 842 775 838 831 759 846 775 794 762 815 810 778 805 760 814 792 773 788 817 831 851 816 884 848 858 837 833 815 795 860 877 883 867 886 876 851 881 907 899 949 926 963 1045 1102 1151 1140 1189 1248 1187 1223 1174 1187 1183 1123 1102 1142 984 984 971 959 896 920 839 764 788 775 826 769 736 739 745 735 767 756 796 787 747 763 715 757 755 696 759 757 755 706 702 724 685 722 730 707 659 726 690 700 693 658 728 698 662 701 641 701 666 637 693 670 695 634 667 721 665 682 708 701 651 658 669 691 713 742 731 718 720 742 678 760 713 758 825 774 788 812 765 829 759 786 748 774 780 772 764 726 753 688 691 705 693 737 697 673 694 655 675 654 693 679 676 691 694 714 705 683 673 691 696 668 674 699 713 674 651 715 665 738 676 688 670 652 657 702 649 686 673 704 684 727 700 704 698 672 669 667 698 707 719 701 702 711 708 718 744 715 701 730 694 762 736 711 712 744 749 756 738 728 739 699 774 739 755 731 846 806 888 868 969 962 964 945 924 970 987 933 931 881 917 892 926 901 859 794 784 754 782 753 719 697 751 702 663 653 704 662 694 695 650 741 671 697 698 653 723 712 636 676 699 729 693 697 700 668 663 721 723 700 670 711 697 626 692 714 722 695 723 778 739 808 857 804 843 857 870 884 835 820 829 783 854 850 866 853 804 758 839 798 804 857 878 885 953 832 925 933 919 866 836 899 864 844 803 813 849 813 802 827 787 793 780 796 753 730 738 830 761 786 745 780 772 736 767 717 774 723 735 713 709 681 691 657 690 701 676 648 634 705 663 625 690 639 637 624 632 646 641 645 658 630 639 619 656 634 658 616 648 710 632 626 579 636 642 615 603 622 626 609 632 631 663 670 692 680 719 692 688 697 714 762 719 774 740 768 781 730 754 792 737 725 786 746 712 704 758 732 678 694 692 725 671 717 701 684 697 658 637 678 645 716 706 636 647 684 695 654 721 653 666 670 651 609 692 697 633 630 696 658 706 749 654 641 725 719 693 697 701 730 697 708 744 785 767 730 810 844 900 987 984 1077 1083 1126 1185 1265 1237 1216 1221 1259 1255 1250 1156 1191 1208 1080 1083 1038 959 960 935 878 839 801 787 776 761 698 700 725 674 678 674 702 649 642 663 662 672 655 703 650 649 674 687 685 650 650 670 667 660 639 728 634 663 644 635 699 630 646 668 615 681 684 668 687 679 615 665 643 618 657 640 656 636 676 697 667 639 631 650 681 655 639 645 664 648 649 644 708 664 643 644 666 699 672 664 702 727 717 709 718 769 692 712 731 773 703 681 718 675 761 678 663 651 715 694 670 632 617 634 676 668 653 605 598 607 602 611 601 595 559 663 608 605 609 592 560 599 604 624 579 650 612 613 583 580 604 630 635 637 634 615 659 686 654 700 749 697 649 707 660 594 658 632 646 676 623 619 645 639 642 587 669 614 647 675 707 714 764 768 761 745 798 753 733 769 780 730 702 699 771 702 711 667 645 705 679 630 707 643 641 610 619 596 634 589 586 616 629 623 588 639 591 624 606 599 606 590 615 513 548 586 578 597 579 570 627 586 616 587 577 595 582 574 585 546 533 589 560 568 547 551 563 588 608 551 630 566 526 588 578 583 576 607 575 598 579 563 595 576 586 545 579 604 631 625 601 648 640 647 610 616 595 615 574 646 677 681 692 702 724 742 759 824 804 893 940 1029 987 996 1043 984 953 892 924 917 856 898 838 812 770 760 706 741 703 730 704 612 607 618 623 631 617 611 634 615 611 604 670 631 689 654 666 675 612 651 596 623 655 594 632 612 589 667 612 568 589 567 589 607 568 608 579 526 574 577 547 542 549 574 546 562 588 559 566 508 581 559 566 538 571 587 546 589 593 581 547 529 546 576 561 590 610 613 620 648 650 710 698 775 742 778 812 794 860 761 821 767 738 776 770 730 754 701 720 732 642 691 635 643 659 585 592 650 587 579 590 542 581 590 608 576 540 573 583 567 589 575 526 567 526 593 554 546 537 566 542 488 572 523 596 552 560 525 551 546 580 553 653 571 598 674 618 634 646 627 678 710 635 680 671 623 622 625 625 673 595 639 625 603 638 621 636 584 608 588 618 577 596 599 573 582 597 617 592 622 590 593 578 587 578 587 595 600 583 579 592 595 602 619 628 569 639 643 633 648 645 654 687 724 690 770 732 713 752 761 767 800 714 777 775 792 774 804 800 798 826 838 859 838 801 889 805 862 854 833 827 817 823 792 783 755 774 798 806 741 751 731 715 682 717 623 669 691 654 686 673 662 654 680 647 753 669 717 753 812 760 802 811 769 775 781 734 761 736 705 686 707 702 691 727 719 709 686 686 651 627 638 608 596 632 551 541 616 583 578 548 553 597 574 573 528 603 589 567 560 538 557 579 560 564 563 531 500 513 522 522 519 570 527 591 534 539 544 505 519 514 542 593 561 528 550 610 552 566 559 592 518 548 534 540 537 523 507 561 522 569 566 539 573 575 607 535 605 593 606 638 688 695 721 797 768 816 865 870 948 916 858 895 897 938 1037 1013 1044 1066 1072 1089 1065 1058 1014 994 960 914 908 888 849 797 839 845 829 820 783 741 725 701 721 758 697 680 750 669 762 733 715 743 680 733 703 740 723 652 701 747 737 674 734 723 748 701 673 714 694 763 773 725 751 664 659 700 684 731 714 670 660 719 641 677 704 686 657 659 653 649 679 641 644 635 663 669 680 663 694 656 642 704 646 705 694 703 721 694 745 786 769 780 765 807 812 762 833 880 912 959 946 1018 1142 1229 1255 1300 1377 1380 1424 1350 1306 1234 1215 1188 1261 1290 1254 1307 1310 1442 1536 1658 1634 1802 1840 1900 1961 1942 1953 1891 1892 1794 1645 1596 1584 1526 1483 1547 1504 1477 1499 1505 1350 1342 1306 1217 1188 1101 1120 1050 993 940 945 928 905 862 879 860 827 865 788 806 779 813 763 765 741 725 678 698 677 657 633 639 634 605 666 627 594 595 610 584 609 614 614 557 580 557 594 639 568 606 603 603 593 618 565 590 573 656 658 660 618 700 650 719 702 658 696 682 602 588 617 626 593 611 614 613 596 604 593 563 601 590 567 574 519 572 576 594 564 562 556 550 564 562 543 560 595 558 630 581 576 619 588 581 599 549 586 604 575 572 630 559 576 597 594 582 594 554 530 584 580 566 563 578 573 569 586 555 558 570 554 599 521 585 569 498 529 546 573 585 535 505 575 538 511 537 560 551 528 554 539 552 513 546 507 539 518 562 648 576 549 554 579 583 556 559 639 595 594 512 564 557 555 569 522 570 530 547 486 570 561 551 535 574 509 530 527 560 534 541 501 529 556 545 522 507 564 554 521 522 571 556 574 582 539 573 577 535 510 524 529 516 519 536 521 557 528 517 518 546 544 527 563 543 547 552 555 581 600 557 653 596 645 663 598 592 577 639 626 596 577 581 630 634 600 603 665 684 596 624 652 606 632 615 600 655 629 633 660 668 573 574 645 599 614 625 585 655 554 653 610 584 588 537 558 539 520 536 593 562 566 564 527 539 540 546 516 559 557 517 539 537 539 563 528 526 533 557 541 541 527 499 589 534 557 541 555 549 539 513 474 513 537 515 526 600 532 568 552 524 522 585 544 528 565 540 603 610 582 604 607 645 619 647 663 704 712 789 878 985 1066 1219 1455 1556 1796 2004 2045 2170 2253 2249 2256 2128 2142 2119 2049 1952 1955 1889 1791 1782 1621 1685 1630 1618 1434 1395 1245 1222 1193 1039 1076 984 908 869 832 778 780 772 716 734 702 678 677 643 706 690 631 612 629 632 614 605 632 593 555 593 577 543 578 572 589 559 582 503 564 526 516 574 531 516 510 456 494 476 511 469 477 470 491 463 512 491 519 499 539 498 463 481 496 475 491 504 503 505 475 477 481 486 501 525 472 493 492 492 475 481 532 494 499 470 506 541 487 495 496 517 511 530 480 496 510 503 510 447 509 484 470 489 474 479 487 480 476 468 490 529 475 436 494 506 484 499 497 482 479 474 506 478 552 546 553 568 512 564 552 548 538 517 543 556 560 497 522 506 512 545 499 536 538 493 525 507 484 532 510 482 488 458 468 466 457 419 464 475 448 460 449 458 471 471 462 468 456 457 444 432 475 420 500 458 407 403 415 410 437 431 425 426 455 457 450 436 447 440 406 407 410 408 466 446 460 409 432 437 420 442 454 462 417 472 468 440 442 430 483 454 481 442 466 479 479 437 483 482 447 474 440 441 414 441 455 457 480 434 419 457 460 446 477 465 428 409 447 476 451 449 483 442 456 447 440 464 451 494 476 483 448 480 428 450 463 493 447 487 475 470 456 472 459 440 430 436 448 444 425 454 430 480 473 479 437 474 487 466 442 416 425 420 466 397 470 411 444 410 422 389 404 442 425 422 444 430 406 398 410 416 412 391 395 425 427 413 403 414 415 418 404 439 414 370 397 428 394 428 410 391 410 428 412 407 414 427 399 433 411 427 420 457 418 417 425 448 417 415 426 434 432 420 433 444 474 448 408 459 444 416 405 448 407 468 430 455 468 458 481 473 542 479 582 488 548 545 559 548 534 541 554 539 515 496 522 475 491 560 545 541 519 545 553 557 550 505 575 526 506 489 499 509 443 477 475 490 479 500 504 504 542 575 625 639 651 588 580 555 494 525 493 506 475 519 499 504 521 545 562 521 506 491 507 509 523 460 496 482 536 520 508 577 548 605 577 574 559 591 505 564 559 580 593 636 645 641 659 684 723 751 720 742 734 723 738 627 675 616 626 632 582 590 600 628 619 610 615 568 588 541 568 557 538 503 556 537 566 580 537 568 596 606 557 561 591 579 516 528 527 531 515 518 521 554 511 530 517 524 572 479 561 479 572 454 490 501 482 527 486 494 495 512 514 491 509 487 494 508 567 558 568 550 558 549 563 580 555 574 566 525 603 570 606 599 548 560 523 554 560 516 574 569 509 540 545 536 480 515 470 519 567 541 535 514 510 511 579 589 656 612 645 610 686 619 616 641 621 641 591 584 561 487 560 537 539 550 566 607 593 595 619 593 603 548 546 546 560 520 487 498 515 531 431 498 472 497 478 484 459 464 439 437 457 456 457 442 460 477 440 429 457 489 491 468 433 452 503 501 491 493 512 517 507 548 535 546 501 525 506 519 556 564 549 483 516 572 479 536 538 523 516 503 464 492 517 505 514 473 508 553 482 511 513 527 575 564 546 511 560 525 507 481 489 484 441 497 493 420 509 412 484 473 436 487 460 446 488 484 439 453 456 411 421 395 409 432 398 430 410 382 418 389 411 385 383 360 431 408 380 377 411 432 372 393 384 413 369 392 417 395 424 433 427 446 435 404 428 458 472 434 400 444 401 450 397 413 441 431 442 426 424 454 456 456 438 410 443 390 396 383 422 451 415 434 400 402 404 430 404 391 386 337 376 393 418 393 380 397 388 387 387 415 366 424 416 390 390 416 418 368 374 387 344 405 434 401 387 364 377 390 346 398 369 373 399 412 380 386 401 403 406 400 392 371 340 326 348 353 355 391 356 382 356 387 366 360 383 337 378 334 333 361 325 349 343 369 384 365 378 367 378 387 381 402 450 403 455 444 430 439 484 489 499 487 462 451 444 420 456 414 450 409 409 397 383 477 421 446 431 410 420 402 410 424 370 401 356 361 400 358 347 359 379 350 368 385 417 368 372 385 406 376 381 434 392 358 382 344 382 381 390 362 374 338 403 365 387 368 411 369 373 381 383 369 397 366 338 359 365 383 390 371 378 370 331 372 370 341 354 318 349 329 336 357 369 354 361 375 368 361 347 329 381 340 334 366 380 363 395 393 404 337 370 385 413 409 394 401 371 360 329 366 361 392 394 407 394 475 403 446 394 454 444 470 441 484 517 468 476 438 446 469 468 458 435 434 438 428 418 417 447 445 429 441 420 424 390 428 392 394 384 404 386 400 390 360 406 397 402 404 370 398 368 389 381 373 386 385 357 397 360 387 389 432 412 431 438 444 444 468 467 447 487 498 526 540 566 551 550 543 512 542 521 485 477 521 498 474 482 471 508 455 465 447 458 495 462 479 455 451 422 436 426 411 409 395 429 410 423 361 390 399 368 355 401 391 385 376 368 363 374 374 348 410 358 375 376 382 396 399 360 400 359 386 368 373 407 371 394 365 357 378 394 357 365 386 407 384 400 412 437 432 405 417 423 380 386 391 447 413 392 379 419 405 382 376 376 369 363 369 327 370 357 400 379 404 347 388 363 352 380 361 325 390 403 430 367 390 406 408 414 389 398 396 360 365 396 376 364 386 406 432 368 403 401 407 386 409 424 406 452 404 403 446 431 366 411 368 359 383 378 408 415 389 394 397 422 395 411 399 447 433 452 442 409 421 457 406 440 451 394 386 424 422 445 406 419 370 366 370 368 382 358 396 396 394 370 398 416 363 396 364 391 330 401 358 348 349 330 345 399 364 372 341 326 327 338 356 369 371 374 330 357 375 347 366 372 320 377 364 384 382 364 358 395 389 369 403 344 331 353 366 346 343 368 335 322 334 365 344 349 350 366 327 365 333 314 324 352 339 323 339 320 351 338 338 357 337 331 329 362 352 317 330 330 324 362 305 325 323 324 309 312 352 278 355 305 309 300 395 332 306 342 319 328 341 343 338 348 325 321 317 312 317 338 331 310 316 303 312 322 346 314 331 308 307 283 312 300 348 318 306 315 313 350 306 336 300 306 351 294 344 339 327 335 385 335 344 343 374 320 355 320 363 347 344 343 327 324 376 288 349 314 339 314 326 325 335 328 305 311 304 299 316 343 306 331 318 314 304 300 281 296 291 295 304 340 294 311 297 295 321 301 310 299 308 317 324 320 303 345 325 294 316 297 338 313 386 296 333 346 376 325 309 354 323 355 340 351 305 365 369 337 330 338 355 355 324 343 329 331 369 340 313 359 355 318 335 313 340 346 333 357 330 358 348 364 366 363 338 347 336 334 343 327 343 335 318 349 336 327 337 358 318 364 334 346 332 358 353 350 329 334 339 299 282 329 340 342 318 326 336 299 314 336 330 334 294 334 313 330 340 322 305 298 302 344 331 313 327 319 317 294 356 294 305 324 310 331 259 311 291 313 314 317 322 314 347 309 296 317 342 322 323 272 312 374 344 325 327 350 345 350 334 352 339 362 353 348 355 416 376 411 375 423 409 416 443 381 389 390 401 367 386 383 374 383 370 344 375 373 368 350 387 363 405 343 343 353 341 324 355 369 303 326 329 331 354 348 344 298 284 297 282 262 313 318 323 300 345 296 291 300 304 307 312 286 329 305 287 317 322 321 303 300 313 296 303 282 333 291 353 284 348 325 333 362 339 372 397 379 374 350 345 318 365 352 340 353 328 344 344 348 327 347 352 299 340 370 369 359 357 371 333 341 364 352 353 305 376 329 341 335 319 346 307 306 340 325 341 326 322 335 304 337 326 326 322 306 292 319 333 341 296 306 290 318 287 287 297 244 302 326 323 325 288 280 297 306 333 319 338 304 320 310 283 303 322 313 316 313 290 337 318 306 275 320 333 334 324 321 309 344 309 308 319 320 321 314 328 315 289 327 340 303 294 315 358 308 330 290 351 307 293 290 353 308 305 311 273 299 317 318 292 324 284 292 281 320 315 278 289 298 318 302 342 300 317 311 283 301 295 292 302 319 326 322 290 310 272 294 282 331 323 331 307 283 322 320 294 283 313 302 304 306 305 279 298 312 276 301 295 293 286 288 324 319 305 328 291 297 322 317 302 298 326 344 323 294 324 306 305 310 297 320 335 328 329 338 312 296 303 320 332 303 317 319 310 303 314 315 354 317 338 348 316 347 310 328 292 362 321 340 349 331 315 309 339 345 336 336 321 317 341 368 319 333 349 323 332 368 304 307 311 370 311 363 322 345 276 324 325 294 307 328 307 311 286 327 347 306 306 324 342 324 327 315 311 292 282 322 332 297 311 320 323 339 327 337 332 289 292 291 296 291 318 306 337 289 312 291 311 326 319 294 273 296 285 288 303 308 310 318 292 320 303 290 320 316 295 302 321 353 335 334 313 312 283 322 339 332 358 378 350 341 347 335 359 401 292 360 314 331 365 337 374 369 363 297 350 336 348 333 317 364 337 325 343 363 354 359 345 360 344 337 318 348 300 327 293 307 339 366 304 327 371 338 379 352 342 360 385 362 352 375 345 358 360 372 345 298 346 345 376 330 324 342 345 355 330 371 362 347 336 375 383 382 353 373 396 409 446 445 488 475 535 473 533 555 534 589 571 571 518 536 513 479 482 435 426 465 449 459 440 503 586 550 589 587 535 589 594 564 546 490 510 512 521 449 424 447 418 385 383 413 424 406 401 419 381 392 405 365 364 385 397 384 386 354 333 332 341 348 366 332 286 288 331 334 320 337 316 302 315 313 303 305 313 348 307 346 295 323 327 328 317 343 300 331 324 339 320 283 326 311 286 296 303 309 264 321 307 300 276 309 308 292 275 282 314 289 290 307 317 333 326 315 311 294 313 308 294 281 303 319 321 296 309 302 310 294 298 301 304 309 298 286 351 291 305 300 283 308 280 292 301 298 323 341 299 272 300 306 323 327 304 277 301 306 321 269 269 309 298 288 287 324 297 300 292 305 302 306 321 293 323 273 279 319 320 313 325 299 302 308 303 306 321 311 293 318 296 289 296 309 346 329 322 327 324 321 316 346 321 328 326 307 305 286 330 307 351 318 305 306 314 280 301 318 309 306 324 313 298 311 282 287 315 323 336 321 323 344 275 312 273 275 300 298 319 299 269 306 272 300 289 291 290 295 291 311 292 285 324 314 317 328 322 313 353 311 298 282 307 301 283 274 306 289 315 296 308 294 311 329 311 302 311 285 311 296 290 306 285 297 298 325 308 309 333 319 319 312 309 328 307 311 282 343 366 326 328 337 345 357 386 366 360 381 330 353 378 334 348 322 362 332 347 352 366 346 357 345 400 344 399 361 376 365 339 320 390 338 320 343 357 363 332 334 336 329 336 354 360 360 366 353 342 341 390 343 370 354 331 356 332 370 309 360 367 388 378 382 373 355 366 360 364 340 352 398 354 347 383 359 393 359 362 379 397 366 373 375 381 349 348 344 364 335 359 341 362 371 378 357 319 349 326 325 345 348 337 334 353 310 310 335 320 314 319 323 359 349 343 347 346 329 357 350 368 386 368 355 379 322 362 373 361 326 348 340 318 350 357 354 337 354 380 345 355 364 334 392 363 386 374 378 354 341 385 343 328 318 346 372 378 332 323 344 333 319 318 356 342 377 358 356 353 352 389 339 354 334 330 352 303 347 372 343 341 308 352 340 329 376 359 357 370 368 387 404 384 362 394 394 379 382 392 360 358 398 364 356 399 346 331 333 364 368 357 366 387 393 406 397 388 388 415 374 414 424 374 393 334 402 426 360 422 386 315 401 333 394 378 365 363 368 396 357 380 337 386 372 413 393 369 391 385 373 395 422 348 389 375 374 403 357 356 368 357 353 367 333 375 384 352 329 385 363 376 364 344 352 374 367 357 375 420 366 384 377 431 419 425 374 347 399 396 376 379 379 410 364 406 411 450 434 435 404 392 396 399 374 355 386 367 401 320 377 377 394 396 373 356 363 367 333 361 338 353 353 374 347 323 341 348 345 369 331 340 332 303 350 328 328 323 336 276 283 316 323 322 315 297 290 291 317 317 327 315 295 287 300 297 318 326 288 297 297 305 321 296 277 311 263 321 288 292 335 293 308 309 307 337 336 300 286 332 312 293 291 280 351 327 332 304 283 314 310 318 306 294 317 344 336 326 313 349 315 344 348 319 331 275 308 352 321 327 341 341 349 298 335 305 327 309 328 310 327 330 346 318 337 314 337 363 364 367 357 346 362 366 373 382 387 389 371 343 315 335 308 341 361 337 333 311 353 354 333 332 340 374 315 371 371 337 366 352 405 387 369 380 361 362 423 374 360 381 338 362 353 341 316 343 358 344 336 312 340 318 372 333 365 366 330 384 346 353 386 352 363 356 341 340 369 328 372 365 352 331 340 330 345 372 354 356 362 368 348 349 366 384 352 435 376 342 411 392 385 395 368 412 378 361 350 352 347 306 373 332 326 368 348 322 337 342 351 333 352 333 362 347 352 385 359 372 356 294 304 337 307 346 333 340 357 329 321 318 319 334 311 298 330 292 339 317 291 315 344 306 373 304 326 325 343 323 354 334 388 374 372 317 353 366 339 377 366 367 358 360 348 347 321 324 312 345 350 362 338 334 367 343 368 366 401 339 395 395 361 372 357 322 307 322 352 323 320 328 322 307 330 312 340 310 334 362 371 362 366 318 347 321 331 302 327 350 284 342 329 304 300 316 307 305 302 360 269 328 306 329 307 301 323 293 291 311 343 314 314 287 309 317 272 318 305 310 308 312 294 305 302 284 294 313 276 317 339 285 314 297 303 296 324 306 342 322 288 307 283 324 312 311 335 299 323 334 291 355 304 333 317 331 312 334 316 310 321 327 324 280 288 281 350 308 317 334 275 358 329 307 347 321 337 325 362 352 333 352 343 304 337 317 331 337 267 308 319 351 274 329 319 320 337 338 337 323 319 375 326 329 330 340 322 324 303 367 343 327 322 307 297 313 306 317 337 312 282 281 316 293 311 283 298 270 307 311 321 270 288 318 290 311 284 298 296 283 306 324 283 285 293 277 285 300 302 331 323 325 282 305 325 317 297 324 302 285 298 327 323 297 273 312 281 311 263 306 290 261 293 270 293 284 324 273 318 305 305 275 306 289 279 307 290 297 268 308 291 268 274 280 278 290 281 307 256 293 307 283 288 292 316 305 311 303 310 328 293 272 273 317 294 310 311 286 273 250 275 281 309 302 311 293 299 295 312 290 282 304 279 296 313 289 306 291 297 301 321 312 303 328 285 281 330 322 300 310 306 293 344 280 290 325 292 323 332 270 296 323 322 279 315 304 310 300 309 294 306 307 323 330 313 289 308 299 293 338 327 318 317 350 322 313 342 317 333 314 319 303 303 305 330 308 332 323 289 304 285 320 281 334 290 312 288 294 316 284 324 303 305 315 348 304 313 289 321 311 291 299 300 325 321 312 323 315 342 330 280 299 272 319 311 327 344 305 285 309 279 311 291 313 309 315 356 318 329 326 340 314 311 314 322 297 269 300 304 298 284 293 263 310 313 287 314 299 317 311 323 327 327 294 262 322 330 297 312 292 352 314 361 357 337 323 328 337 351 336 343 351 341 341 368 359 341 339 317 337 321 324 309 309 321 318 304 313 301 321 315 304 347 323 377 349 308 373 345 321 317 320 332 336 325 338 318 327 345 290 318 330 288 351 328 347 321 318 324 334 338 309 335 302 294 312 272 301 264 296 322 283 298 319 300 296 322 285 313 284 311 289 283 299 306 317 247 297 301 283 285 307 319 289 313 298 284 304 304 311 269 288 289 312 271 281 301 284 313 302 322 306 279 292 284 310 319 315 288 316 309 306 279 299 311 308 318 324 342 316 277 274 298 288 309 271 307 303 284 292 309 332 293 324 278 310 323 315 295 294 323 304 299 331 316 304 328 313 315 306 309 317 322 300 327 313 313 311 314 288 333 314 314 335 319 303 326 308 299 320 337 335 326 307 333 326 296 301 317 293 334 310 314 298 305 313 332 318 322 334 331 304 305 355 318 359 351 366 365 358 339 333 327 325 339 335 340 355 319 332 326 360 334 372 344 321 360 328 370 378 370 349 403 340 360 381 359 349 344 380 347 356 374 343 311 269 301 351 339 337 325 294 301 316 323 348 332 360 355 327 357 308 317 378 300 328 365 321 349 305 340 333 317 328 357 313 339 336 352 331 319 351 307 329 326 296 312 345 322 299 316 322 304 276 313 298 324 295 305 305 317 315 279 336 324 318 325 358 350 343 348 330 347 340 318 336 336 337 332 354 339 337 308 340 341 315 346 302 348 340 310 353 290 328 320 292 332 336 344 328 350 352 282 353 349 315 326 382 331 338 333 350 305 334 348 344 325 384 363 331 397 333 371 355 354 344 318 317 324 327 330 357 322 303 311 324 322 311 317 302 301 362 314 307 351 304 321 311 326 328 341 337 380 353 378 326 313 324 308 322 342 318 351 347 297 317 295 295 316 325 302 302 323 304 305 266 314 305 328 306 318 316 322 334 323 325 314 302 304 283 305 320 322 334 366 312 343 315 304 355 333 331 318 286 308 333 353 353 337 329 334 295 317 279 304 304 292 309 346 308 272 326 294 320 299 296 299 279 314 299 334 302 338 281 307 289 304 336 300 333 326 262 332 309 323 334 347 284 315 325 340 336 321 317 320 299 312 335 317 338 316 346 320 340 328 362 304 361 372 339 384 386 396 406 392 431 376 397 366 413 411 336 357 368 372 388 310 340 378 367 369 356 363 388 409 390 406 448 416 484 443 449 403 483 446 459 426 414 427 422 426 378 414 425 393 384 433 423 387 418 381 401 358 361 406 369 400 353 367 375 354 378 342 357 348 318 365 363 377 362 342 355 351 359 332 351 298 364 352 330 311 319 303 307 321 319 319 308 298 302 301 320 316 276 298 336 281 321 287 282 283 283 262 318 285 283 291 267 292 302 290 281 304 282 262 245 294 261 306 274 305 291 300 295 289 345 277 316 301 276 272 272 289 312 298 309 326 299 296 295 268 268 294 284 325 312 288 297 286 284 297 270 301 279 282 287 266 310 304 287 303 315 306 281 281 284 280 276 284 293 281 295 261 291 277 303 280 302 316 281 293 283 276 245 308 265 305 276 258 279 315 269 267 296 300 338 264 291 301 275 277 284 297 284 287 291 317 266 284 303 289 290 280 309 294 285 275 298 296 282 312 273 281 292 298 310 298 303 315 290 294 294 290 299 295 310 295 298 285 296 230 274 292 281 314 286 294 292 287 285 305 290 286 310 260 288 288 240 287 256 287 268 239 299 298 304 304 315 292 331 265 312 276 311 279 323 306 319 295 304 283 312 293 314 353 328 338 315 323 316 279 318 309 296 272 301 274 292 280 323 304 314 316 319 309 316 294 311 318 313 315 309 292 327 306 285 312 312 308 342 312 294 297 284 276 281 287 335 335 285 345 307 307 294 304 312 293 285 263 262 315 249 299 300 267 307 284 299 284 289 324 320 300 297 299 301 307 311 305 266 288 292 278 301 309 300 284 283 276 281 258 317 280 314 282 281 297 275 282 311 298 299 289 288 294 330 323 302 326 287 283 312 332 325 316 350 366 344 315 309 315 318 336 271 302 315 340 283 305 291 315 284 276 278 310 282 332 318 320 309 308 337 303 274 336 300 318 305 299 289 334 318 354 292 338 325 334 304 350 339 298 315 320 340 290 307 282 305 317 272 307 250</counts>
			</dataPoints>
		</scan>
	</xrdMeasurement>
</xrdMeasurements>
