<?xml version="1.0"?>
<xrdMeasurements xmlns="http://www.xrdml.com/XRDMeasurement/2.3" xmlns:xsi="http://www.w3.org/2001/XMLSchema-instance" xsi:schemaLocation="http://www.xrdml.com/XRDMeasurement/2.3 http://www.xrdml.com/XRDMeasurement/2.3/XRDMeasurement.xsd" status="Completed" recordIdentifier="{846B1A27-3D28-479F-BF85-F01286EBE5F3}">
	<comment>
		<entry/>
	</comment>
	<sample type="To be analyzed">
		<id>GPSS_Li1p4Mg0p6Bi0p2Zr0p2Cl4_121825_6943d914f4d05ae3d69790bc</id>
		<name></name>
		<preparedBy></preparedBy>
	</sample>
	<xrdMeasurement measurementType="Scan" status="Completed" sampleMode="Reflection">
		<usedWavelength intended="K-Alpha 1">
			<kAlpha1 unit="Angstrom">1.5405980</kAlpha1>
			<kAlpha2 unit="Angstrom">1.5444260</kAlpha2>
			<kBeta unit="Angstrom">1.3922500</kBeta>
			<ratioKAlpha2KAlpha1>0.5000</ratioKAlpha2KAlpha1>
		</usedWavelength>
		<incidentBeamPath>
			<radius unit="mm">145.00</radius>
			<xRayTube id="1010048" name="Empyrean Cu LFF HR (9430 033 7310x)">
				<tension unit="kV">40.0</tension>
				<current unit="mA">15.0</current>
				<anodeMaterial>Cu</anodeMaterial>
				<focus type="Line">
					<length unit="mm">12.0</length>
					<width unit="mm">0.4</width>
					<takeOffAngle unit="deg">6.0</takeOffAngle>
				</focus>
			</xRayTube>
			<sollerSlit id="21010002" name="Soller slits 0.04 rad.">
				<opening unit="rad">0.0400</opening>
			</sollerSlit>
			<mask id="22031000" name="Fixed mask 13 mm">
				<width unit="mm">9.00</width>
			</mask>
			<divergenceSlit id="22120001" name="Divergence slit 1°" xsi:type="fixedDivergenceSlitType">
				<distanceToSample unit="mm">50.00</distanceToSample>
				<height unit="mm">1.52</height>
			</divergenceSlit>
		</incidentBeamPath>
		<sampleMovement xsi:type="spinningSampleMovementType">
			<spinnerRevolutionTime unit="seconds">1.0</spinnerRevolutionTime>
		</sampleMovement>
		<diffractedBeamPath>
			<radius unit="mm">145.00</radius>
			<antiScatterSlit id="22090040" name="AS slit 9 mm (PIXcel)" xsi:type="fixedAntiScatterSlitType">
				<height unit="mm">9.00</height>
			</antiScatterSlit>
			<sollerSlit id="21020003" name="Large Soller slits 0.04 rad.">
				<opening unit="rad">0.0400</opening>
			</sollerSlit>
			<filter id="20030001" name="Large beta-filter Nickel">
				<material>Ni</material>
				<thickness unit="mm">0.020</thickness>
			</filter>
			<detector id="7010019" name="PIXcel1D-Medipix3 detector" xsi:type="rtmsDetectorType">
				<phd unit="keV">
					<lowerLevel>4.02</lowerLevel>
					<upperLevel>11.27</upperLevel>
				</phd>
				<mode>Scanning</mode>
				<activeLength unit="deg">5.542</activeLength>
			</detector>
		</diffractedBeamPath>
		<scan appendNumber="0" mode="Continuous" scanAxis="Gonio" status="Completed">
			<header>
				<startTimeStamp>2025-12-22T11:32:41-08:00</startTimeStamp>
				<endTimeStamp>2025-12-22T11:40:48-08:00</endTimeStamp>
				<author>
					<name>AutomatedUser</name>
				</author>
				<source>
					<applicationSoftware version="1.7b (136)">PANalytical Aeris Instrument Suite</applicationSoftware>
					<instrumentControlSoftware version="3.2.00000000 20240306">AERIS</instrumentControlSoftware>
					<instrumentID>950485</instrumentID>
				</source>
			</header>
			<dataPoints>
				<positions axis="2Theta" unit="deg">
					<startPosition>10.00943322</startPosition>
					<endPosition>99.99442286</endPosition>
				</positions>
				<positions axis="Omega" unit="deg">
					<startPosition>5.00471661</startPosition>
					<endPosition>49.99721143</endPosition>
				</positions>
				<commonCountingTime unit="seconds">12.495</commonCountingTime>
				<counts unit="counts">2896 2823 2843 2955 2873 2899 2728 2878 2929 2889 2894 2944 3012 2879 2898 2891 2984 2877 2919 2888 2928 2795 2829 2888 2913 2868 2850 2855 2895 2968 2859 2783 2826 2801 2853 2897 2852 2801 2887 2884 2882 2811 2871 2800 2833 3020 2832 2967 2862 2867 2881 2801 2908 2885 2923 2896 2904 2829 2897 2878 2950 2828 2805 2867 2824 2865 2903 2710 2862 2825 2839 2816 2834 2860 2784 2941 2935 2919 2918 2756 2882 2870 2930 2813 2893 2948 2813 2795 2885 2857 3009 2791 2815 2910 2830 2878 3030 2893 2875 2864 2994 2907 2915 2932 2934 2932 2873 2883 2923 2891 2968 2927 2809 2871 2862 2927 2897 2987 2997 2867 2871 2929 2891 2966 2944 2961 2929 2940 2941 2828 2930 2936 3059 2992 2930 2931 2938 2927 2962 2932 2853 2954 2873 2835 2882 2864 2881 2920 2812 2962 2970 2851 2885 2879 3012 2858 2913 2880 2857 2874 2868 2946 2939 2957 2821 2855 2874 2872 2905 2803 2869 2923 2934 2906 2914 2943 2970 2969 2891 2762 2866 2911 2871 2838 2781 2845 2789 2885 2894 2857 2800 3048 2863 2812 2773 2903 2785 2857 2858 2794 2927 2823 2820 2793 2866 2867 2843 2789 2770 2877 2870 2838 2702 2937 2808 2880 2781 2887 2716 2790 2849 2872 2776 2817 2790 2849 2840 2758 2836 2813 2836 2920 2802 2781 2730 2776 2706 2783 2865 2890 2771 2820 2808 2820 2786 2788 2837 2869 2843 2788 2701 2873 2851 2831 2757 2771 2829 2842 2674 2809 2754 2792 2710 2726 2769 2805 2850 2765 2858 2815 2823 2836 2879 2876 2900 2816 2777 2876 2779 2860 2811 2836 2804 2840 2780 2864 2653 2837 2928 2885 2881 2797 2881 2818 2815 2889 2827 2883 2948 2869 2855 2921 2839 2913 2724 3000 2863 2941 2869 2852 2900 2917 3034 2904 2937 2857 3033 2911 2992 2961 2972 2975 3007 2985 2923 2971 2839 3008 2962 2935 2943 2951 3047 2997 3021 3040 3039 3129 3104 2962 3113 2999 3031 3046 2954 3018 3055 3062 3118 3037 3121 3025 3205 3178 3093 3124 3117 3135 3101 3103 3169 3135 3156 3195 3211 3171 3267 3243 3177 3235 3190 3181 3296 3297 3222 3288 3226 3321 3334 3239 3249 3220 3255 3394 3239 3244 3317 3276 3238 3319 3388 3348 3368 3404 3211 3378 3303 3389 3386 3282 3307 3403 3489 3410 3431 3402 3440 3362 3520 3455 3382 3568 3587 3666 3667 3566 3560 3688 3678 3791 3791 3980 3883 3860 3796 3797 3820 3902 3783 3733 3881 3710 3842 3685 3805 3774 3708 3787 3763 3788 3647 3747 3833 3741 3829 3773 3785 3746 3794 3722 3713 3839 3762 3715 3808 3615 3688 3893 3630 3617 3529 3680 3585 3500 3501 3598 3636 3669 3724 3773 3676 3848 3787 3866 3955 4056 3955 3847 3848 3891 3859 3884 3765 3719 3744 3686 3624 3789 3585 3630 3561 3595 3575 3583 3561 3546 3502 3633 3459 3530 3365 3516 3478 3506 3312 3418 3305 3364 3336 3335 3371 3445 3302 3214 3333 3348 3208 3204 3248 3152 3153 3112 3104 3132 3164 3092 3018 3069 3081 3016 2982 3024 3010 3069 3019 2990 2941 3054 2998 2962 2961 3058 3045 2971 2963 2966 2908 2968 3023 2941 2979 2805 2867 2926 2882 2881 2989 2910 2934 3049 2944 2920 2849 2932 2880 2896 2992 2968 2935 2853 2870 2831 2871 2871 2897 2897 2811 2872 2811 2788 2864 2781 2814 2903 2707 2708 2760 2801 2828 2785 2845 2729 2843 2716 2790 2798 2794 2802 2744 2775 2739 2796 2763 2806 2646 2697 2725 2690 2722 2760 2793 2716 2735 2746 2712 2754 2707 2644 2682 2689 2786 2683 2667 2676 2710 2695 2701 2702 2744 2669 2671 2696 2732 2610 2675 2742 2629 2700 2655 2645 2678 2721 2710 2688 2681 2570 2721 2616 2655 2646 2704 2654 2635 2627 2664 2625 2617 2581 2622 2596 2662 2637 2589 2579 2645 2658 2681 2619 2615 2646 2595 2571 2555 2678 2602 2602 2586 2663 2611 2530 2586 2715 2568 2669 2534 2707 2575 2574 2616 2602 2595 2612 2577 2615 2612 2524 2457 2491 2661 2656 2550 2611 2581 2557 2505 2551 2601 2568 2592 2656 2575 2631 2642 2545 2521 2607 2517 2628 2551 2576 2580 2602 2613 2521 2493 2560 2591 2581 2490 2562 2608 2623 2614 2485 2442 2524 2575 2509 2568 2680 2500 2559 2512 2523 2581 2507 2575 2556 2493 2592 2523 2594 2488 2569 2532 2496 2533 2591 2660 2607 2559 2555 2514 2613 2483 2578 2622 2499 2536 2634 2526 2622 2620 2526 2465 2462 2463 2493 2561 2605 2581 2519 2453 2516 2548 2551 2487 2498 2545 2448 2501 2493 2565 2511 2492 2488 2588 2495 2502 2452 2464 2481 2420 2376 2484 2500 2565 2484 2405 2537 2473 2452 2496 2500 2383 2481 2465 2532 2459 2395 2466 2462 2459 2411 2442 2425 2485 2495 2437 2441 2423 2405 2496 2417 2430 2516 2509 2532 2449 2449 2358 2460 2419 2447 2531 2432 2473 2442 2395 2376 2449 2333 2392 2340 2441 2446 2347 2352 2408 2415 2317 2375 2279 2453 2327 2383 2398 2355 2344 2314 2311 2310 2409 2449 2334 2361 2433 2466 2377 2354 2411 2473 2415 2291 2302 2428 2364 2343 2311 2426 2380 2419 2361 2374 2418 2321 2343 2361 2328 2432 2322 2384 2326 2349 2362 2371 2347 2355 2366 2366 2498 2412 2366 2361 2402 2384 2353 2395 2336 2480 2278 2342 2339 2298 2329 2421 2510 2314 2464 2336 2403 2410 2373 2395 2342 2307 2396 2331 2357 2430 2234 2279 2290 2380 2443 2273 2406 2339 2326 2335 2385 2335 2271 2335 2351 2405 2341 2340 2375 2289 2276 2241 2318 2301 2308 2279 2310 2288 2320 2308 2267 2272 2322 2234 2298 2272 2211 2282 2206 2233 2203 2308 2274 2236 2179 2324 2267 2227 2275 2294 2279 2240 2246 2217 2105 2336 2184 2302 2234 2306 2179 2235 2232 2201 2210 2169 2224 2228 2283 2197 2225 2195 2230 2249 2239 2204 2244 2346 2257 2254 2215 2158 2181 2067 2295 2232 2275 2245 2225 2158 2157 2291 2262 2210 2304 2210 2201 2237 2251 2233 2222 2287 2248 2312 2254 2181 2211 2198 2284 2239 2203 2241 2220 2224 2226 2141 2167 2360 2227 2164 2310 2220 2262 2190 2294 2234 2190 2159 2232 2296 2258 2272 2249 2182 2181 2222 2175 2290 2220 2235 2339 2307 2255 2238 2249 2258 2171 2321 2296 2282 2218 2209 2231 2299 2335 2230 2247 2248 2245 2240 2216 2233 2310 2250 2184 2215 2203 2246 2217 2235 2138 2260 2241 2245 2295 2136 2236 2276 2238 2277 2208 2256 2289 2211 2169 2195 2226 2291 2252 2314 2265 2333 2262 2329 2207 2257 2234 2312 2273 2189 2190 2356 2258 2291 2268 2405 2332 2295 2288 2348 2320 2265 2141 2162 2237 2196 2258 2181 2205 2197 2238 2126 2170 2116 2122 2076 2115 2204 2165 2125 2023 2181 2105 2163 2097 2132 2085 2064 2072 2091 2113 2132 2151 2031 2092 2107 2109 2005 2007 1903 1983 2153 2045 1946 1991 2049 2061 2019 2042 1982 2005 2030 2035 2077 2068 1970 2009 2052 1982 1998 2002 2080 2021 2033 1982 1929 2111 1979 2018 1976 2031 1934 2083 1940 1984 1846 1952 1890 1898 1903 1950 1859 1866 1900 1938 1872 1808 1821 1843 1913 1895 1802 1861 1804 1792 1830 1789 1792 1874 1727 1886 1825 1782 1801 1856 1833 1872 1794 1789 1813 1762 1755 1746 1829 1738 1723 1823 1725 1776 1734 1697 1691 1666 1760 1803 1687 1731 1701 1739 1773 1713 1652 1685 1678 1753 1755 1679 1728 1643 1629 1708 1672 1679 1698 1738 1745 1788 1714 1720 1631 1674 1643 1622 1708 1667 1677 1654 1638 1682 1663 1672 1721 1708 1711 1664 1654 1717 1651 1647 1713 1628 1631 1689 1645 1595 1614 1625 1554 1668 1669 1656 1631 1582 1642 1582 1580 1608 1675 1633 1650 1628 1644 1687 1634 1547 1601 1591 1542 1639 1526 1588 1619 1701 1609 1606 1525 1656 1559 1533 1572 1641 1585 1573 1637 1643 1595 1600 1536 1572 1625 1514 1594 1574 1590 1598 1609 1525 1626 1617 1636 1626 1681 1645 1551 1587 1659 1592 1633 1680 1702 1619 1547 1576 1627 1595 1636 1600 1608 1669 1607 1599 1615 1566 1545 1601 1632 1577 1615 1586 1658 1564 1666 1593 1651 1621 1571 1656 1659 1617 1675 1560 1624 1664 1647 1615 1605 1577 1702 1523 1679 1635 1674 1650 1652 1638 1656 1656 1683 1655 1738 1606 1700 1582 1686 1778 1671 1634 1627 1575 1598 1607 1665 1614 1649 1610 1546 1587 1644 1640 1620 1637 1634 1612 1689 1661 1537 1708 1661 1597 1539 1614 1602 1555 1641 1575 1626 1571 1611 1617 1603 1571 1608 1588 1605 1591 1642 1534 1631 1664 1616 1606 1571 1536 1586 1562 1542 1597 1603 1588 1575 1593 1549 1609 1553 1556 1624 1569 1532 1607 1671 1630 1581 1606 1637 1636 1589 1677 1703 1619 1643 1624 1750 1722 1681 1611 1646 1702 1774 1676 1597 1714 1639 1606 1562 1604 1636 1546 1602 1520 1565 1557 1595 1492 1664 1591 1523 1548 1591 1618 1538 1604 1546 1502 1558 1582 1467 1517 1578 1505 1588 1513 1541 1538 1529 1454 1476 1556 1570 1571 1500 1520 1488 1488 1545 1517 1502 1499 1464 1459 1453 1443 1476 1448 1500 1424 1429 1458 1430 1472 1442 1496 1495 1427 1429 1460 1383 1520 1374 1389 1403 1427 1451 1479 1363 1314 1383 1422 1402 1478 1436 1467 1356 1334 1413 1398 1421 1352 1390 1349 1335 1404 1334 1355 1378 1406 1349 1376 1386 1363 1362 1357 1311 1341 1317 1271 1319 1260 1305 1277 1324 1268 1372 1323 1297 1277 1328 1281 1310 1341 1313 1312 1303 1323 1225 1311 1369 1282 1224 1315 1242 1373 1274 1346 1317 1266 1308 1333 1403 1375 1314 1329 1437 1371 1424 1365 1390 1512 1472 1477 1473 1488 1453 1473 1589 1562 1610 1553 1528 1490 1478 1474 1440 1437 1395 1413 1399 1350 1410 1332 1418 1317 1376 1367 1309 1432 1349 1357 1394 1349 1359 1426 1310 1281 1355 1393 1356 1359 1333 1317 1230 1318 1255 1274 1312 1356 1319 1314 1325 1233 1236 1322 1259 1300 1200 1268 1259 1306 1304 1159 1263 1202 1255 1256 1274 1272 1256 1235 1252 1284 1290 1290 1289 1260 1324 1329 1339 1382 1391 1375 1351 1380 1368 1372 1419 1428 1448 1395 1525 1532 1566 1502 1515 1596 1554 1519 1620 1603 1521 1676 1639 1724 1689 1746 1865 1945 2045 2215 2227 2386 2518 2719 2989 3280 3707 4011 4317 4618 4921 5083 5326 5436 5572 5486 5643 5457 5388 5219 5178 4756 4680 4441 4267 4147 4033 3937 3780 3750 3678 3787 3770 3671 3854 3869 3873 4072 4078 4277 4385 4521 4612 4635 4746 4774 4826 4988 4949 4847 4741 4685 4560 4379 4376 4172 4132 3859 3805 3556 3518 3427 3238 3284 3038 3175 3116 3023 2981 2812 2806 2751 2783 2650 2646 2652 2491 2445 2325 2366 2302 2220 2117 2109 2012 2021 1979 1909 1873 1862 1816 1705 1734 1719 1740 1657 1612 1561 1551 1539 1544 1479 1503 1513 1381 1451 1370 1344 1324 1281 1353 1232 1211 1231 1214 1200 1288 1170 1173 1159 1188 1198 1233 1089 1149 1127 1157 1115 1093 1148 1100 1087 1095 1160 1120 1032 1103 1125 1125 1071 1109 1088 1116 1051 1036 1103 1054 1041 1102 1064 1029 1060 1001 1042 983 1043 1001 979 1037 1049 1057 1065 993 1062 1029 981 972 1014 1068 1092 999 1041 932 937 977 1020 977 1031 1023 1059 1004 1050 954 1006 989 1042 1000 1023 1026 1000 989 929 1047 990 1009 946 1005 1003 1040 943 957 986 991 987 943 1001 972 987 982 957 972 998 932 910 972 974 958 1019 982 1000 944 1004 939 1003 974 991 974 992 1013 1025 935 946 945 969 1010 985 987 979 1043 1069 1003 1021 970 1034 1056 1065 1058 1151 1033 1138 1069 1111 1102 1185 1083 1126 1149 1158 1116 1135 1118 1074 1110 1070 1083 1049 951 1051 951 1025 1079 980 1051 978 1017 939 943 974 1010 965 984 996 1003 973 982 983 1000 934 1033 992 952 975 1021 997 995 941 942 972 998 949 1049 977 979 981 964 1020 1015 1051 942 971 1007 990 1012 954 997 994 1006 1016 995 955 961 1034 994 1005 978 992 952 919 1000 931 935 969 869 975 990 972 974 913 911 931 943 910 963 1030 971 1032 998 913 917 932 1031 975 1025 977 1025 1086 980 1054 1026 1071 1057 1138 1119 1108 1133 1077 1152 1091 1074 1107 1155 1050 1129 1124 1012 1076 1048 1046 1040 1012 1010 1064 1024 1040 1003 980 986 970 1065 1050 1010 979 976 1005 998 1010 1050 1018 1029 1065 987 999 988 1021 1058 1030 949 1003 1062 1011 1098 1120 1096 1063 1075 1044 1092 1073 1087 1083 1116 1173 1122 1195 1212 1267 1307 1321 1405 1423 1511 1517 1689 1776 1862 2107 2238 2429 2650 2879 3105 3559 3820 4157 4487 4721 4876 5150 5172 5186 5339 5306 5294 5263 5224 5069 4877 4854 4590 4491 4403 4211 3913 3937 3776 3780 3684 3666 3586 3539 3483 3594 3402 3343 3380 3447 3429 3307 3299 3372 3318 3428 3338 3359 3468 3423 3432 3421 3399 3460 3329 3381 3263 3182 3039 3040 2862 2765 2741 2546 2400 2339 2261 2163 2122 2033 1971 1907 1823 1858 1716 1738 1695 1686 1650 1670 1656 1570 1570 1560 1569 1514 1454 1385 1401 1327 1337 1337 1313 1328 1250 1235 1185 1134 1212 1147 1113 1129 1107 1024 1099 1093 1004 1001 1001 950 1016 948 953 1016 965 884 955 932 906 944 946 884 855 919 882 917 886 802 855 843 849 850 862 860 897 875 880 896 817 885 856 879 906 883 848 882 851 906 856 869 976 909 898 841 867 839 791 904 958 894 925 851 913 924 933 918 955 880 937 971 965 969 1014 1038 1042 1056 1133 1097 1105 1169 1183 1244 1362 1318 1352 1450 1432 1422 1472 1454 1463 1434 1468 1348 1426 1377 1299 1296 1285 1227 1251 1189 1118 1171 1106 1108 997 1141 1045 1036 1061 1042 1018 1060 994 1069 988 1003 950 971 926 1004 959 945 908 923 932 912 899 850 815 855 793 891 820 802 846 773 868 756 824 819 750 847 770 843 752 831 802 895 813 781 795 779 758 771 786 776 786 755 737 814 759 777 751 795 816 754 804 812 770 793 811 796 807 796 771 774 807 817 743 768 789 716 792 799 768 769 759 739 806 763 771 751 763 762 807 793 756 787 779 736 785 718 764 748 796 732 751 828 741 753 705 775 776 771 729 779 793 748 778 754 777 790 757 782 718 801 761 767 752 764 788 711 783 768 721 774 767 735 745 762 723 737 718 777 751 732 744 695 764 737 727 748 719 788 716 717 729 725 730 729 703 675 772 736 711 740 685 735 763 721 670 762 717 778 695 739 727 725 740 732 675 767 732 711 740 720 707 787 660 651 732 683 697 696 695 757 729 658 711 666 725 710 696 733 671 673 689 702 710 743 685 721 742 724 713 757 696 675 713 685 736 705 665 764 725 772 731 694 712 730 716 723 769 750 718 697 697 702 667 713 683 725 692 731 696 692 686 746 696 700 728 696 737 692 718 688 661 696 695 720 665 667 701 689 695 669 684 747 648 701 723 669 678 662 674 718 708 696 695 766 697 731 744 695 714 769 713 713 710 800 710 705 724 754 727 701 750 708 708 694 724 707 689 680 691 739 702 682 689 685 664 717 669 647 699 669 693 703 688 680 695 682 735 722 635 664 695 721 641 624 646 623 654 669 658 648 739 690 668 643 697 774 695 712 674 666 723 667 667 660 686 664 733 689 606 675 678 652 717 712 715 665 642 702 616 708 668 665 642 723 677 670 671 703 648 693 705 722 654 643 719 694 693 656 664 708 657 725 667 686 696 728 687 674 731 720 688 718 716 753 732 726 680 794 757 791 726 698 754 718 747 749 775 885 791 778 787 796 839 802 748 774 772 785 788 766 764 753 743 789 780 763 744 778 754 743 767 734 738 702 699 743 772 685 732 721 709 735 687 732 720 668 684 673 695 718 709 625 680 672 679 718 672 652 693 668 679 684 712 685 647 667 665 652 653 637 666 632 702 675 649 694 624 683 687 643 689 666 658 612 669 644 654 666 657 678 625 637 683 614 664 665 655 651 652 657 619 616 694 670 695 670 722 623 626 653 619 656 639 667 653 635 672 651 688 677 698 671 684 681 677 703 724 745 685 706 722 813 830 765 788 779 852 758 790 785 737 749 752 770 731 767 749 723 726 721 692 664 763 682 703 667 698 655 699 687 699 731 671 630 708 622 668 702 697 687 631 751 718 719 740 663 734 642 722 656 681 694 672 697 697 709 747 768 691 697 680 730 668 692 689 610 707 697 693 692 702 674 680 667 674 631 659 656 635 687 683 681 626 629 704 656 656 601 643 598 620 699 642 601 659 637 694 659 697 668 680 666 612 678 682 631 648 621 633 649 563 633 634 614 659 660 631 614 617 649 586 617 615 640 608 605 622 581 654 600 661 600 628 633 631 651 612 654 599 637 639 583 657 650 651 658 705 653 610 672 644 621 620 569 617 604 638 653 613 599 643 603 665 616 624 626 670 605 672 600 603 623 616 594 616 663 652 652 646 653 656 615 713 694 707 677 709 724 724 726 741 699 714 718 761 715 694 764 700 695 657 651 674 682 643 705 749 684 683 664 654 707 632 627 647 672 670 638 615 599 648 638 624 684 687 655 694 667 652 626 612 645 577 647 637 586 619 627 604 637 587 649 602 650 618 659 639 625 682 660 646 675 661 720 710 742 755 773 758 865 880 905 846 901 1023 956 1017 965 1017 1050 1026 1120 913 968 1008 1054 1070 977 974 990 969 907 938 936 892 894 878 874 862 774 815 773 752 809 741 713 754 748 704 758 717 752 776 674 742 674 651 699 715 669 652 659 672 651 617 629 640 635 585 604 602 671 610 632 573 651 546 682 615 593 615 586 598 665 599 589 612 653 593 584 608 593 642 593 628 632 658 651 570 644 606 652 621 629 568 607 614 543 586 604 600 605 613 628 598 609 623 581 640 574 571 629 611 614 565 584 655 557 642 576 554 559 543 623 588 603 566 604 547 596 550 565 618 622 559 578 594 564 565 603 587 609 576 602 606 584 587 544 621 571 571 641 595 578 595 577 552 556 548 587 575 587 575 609 547 610 579 604 589 592 517 542 571 539 559 615 587 612 585 598 552 552 603 569 549 603 585 589 601 565 579 600 560 563 602 566 577 608 580 568 571 588 581 586 611 537 593 551 656 626 695 633 610 697 648 647 657 697 673 691 718 713 651 692 679 647 661 659 686 649 692 670 650 661 658 639 687 683 625 646 620 577 651 624 671 619 604 674 654 635 658 585 571 640 622 634 552 673 587 603 586 593 594 643 605 624 617 584 559 600 605 557 603 584 644 634 577 620 584 611 592 629 603 631 625 594 645 577 612 617 540 597 579 609 639 625 589 562 590 677 599 623 618 601 599 609 594 590 603 555 582 608 634 606 606 596 609 613 602 588 605 566 634 582 622 606 624 590 605 585 610 585 601 672 575 587 606 633 639 573 634 588 617 602 606 664 634 634 594 655 620 655 693 669 610 646 641 696 660 693 656 670 694 652 643 677 715 679 726 767 726 699 825 719 744 777 793 849 832 837 867 941 925 1077 1078 1133 1209 1330 1471 1622 1767 2004 2164 2339 2568 2768 2825 3186 3163 3173 3298 3285 3281 3266 3259 3226 3246 3189 3204 3056 3130 3099 2959 2912 2993 2759 2748 2664 2538 2477 2403 2323 2278 2182 2080 1976 1923 1815 1828 1796 1696 1736 1662 1569 1587 1532 1448 1420 1373 1375 1283 1240 1228 1239 1167 1215 1227 1196 1226 1238 1242 1193 1256 1257 1298 1393 1387 1439 1460 1500 1529 1573 1527 1613 1566 1570 1610 1517 1515 1490 1491 1505 1454 1389 1363 1360 1342 1374 1378 1413 1255 1247 1294 1227 1181 1141 1133 1079 1120 1112 1023 1068 1036 1049 973 1009 997 967 929 944 931 928 913 857 882 830 826 836 768 793 808 779 743 831 778 781 782 745 800 734 723 744 699 709 726 685 688 697 705 655 661 672 662 641 684 653 667 628 605 626 686 655 594 618 592 605 647 576 614 606 617 627 599 605 633 597 606 617 573 582 611 628 602 605 572 582 583 577 567 601 534 562 552 570 559 555 587 560 578 567 562 527 578 551 594 577 583 571 565 555 587 569 559 589 604 595 592 641 607 585 546 598 608 568 590 621 603 596 651 627 590 640 656 623 625 707 705 720 738 763 664 734 777 808 857 870 866 801 918 879 892 939 910 887 921 885 879 840 923 912 896 860 819 814 807 863 825 811 771 804 769 764 755 724 709 760 739 747 710 677 641 617 665 623 679 654 678 657 650 698 630 608 625 653 633 672 642 671 626 629 656 699 655 680 656 725 749 747 773 767 789 840 848 794 762 749 783 781 758 800 737 787 799 761 841 797 753 749 734 740 717 760 680 705 696 648 682 662 676 654 630 663 621 624 589 637 635 603 587 585 589 589 583 551 504 578 530 556 564 550 560 535 501 524 529 560 538 506 536 533 542 548 529 540 549 549 510 489 539 514 491 497 512 509 539 525 532 505 509 550 520 526 584 559 527 533 530 517 513 519 518 497 503 532 497 512 506 512 534 541 525 486 490 466 531 513 519 511 511 479 537 538 483 538 493 454 507 485 515 540 487 493 505 493 512 486 512 541 506 510 527 513 494 518 498 495 454 480 519 496 494 493 517 526 542 563 475 498 482 516 504 546 484 523 547 502 497 525 499 521 506 536 544 504 531 515 536 495 522 506 516 519 484 489 489 517 481 505 502 541 567 554 556 594 581 559 554 584 537 596 522 573 598 545 575 565 542 579 577 525 586 593 544 537 524 511 538 574 587 525 524 529 568 547 525 576 552 553 501 548 579 565 518 555 537 504 547 530 563 588 662 583 635 589 597 566 586 576 619 593 591 570 575 558 575 563 550 550 569 590 539 557 605 547 580 588 544 566 531 515 517 591 539 547 521 532 475 525 530 528 516 534 563 522 482 523 513 502 481 452 499 471 484 497 515 479 461 527 481 511 488 488 470 510 472 522 488 508 518 519 523 527 506 504 486 488 517 485 486 516 487 471 496 496 446 497 502 574 509 501 506 522 544 510 482 455 477 455 498 487 488 506 508 503 499 494 472 466 504 495 500 497 494 503 466 523 547 519 496 493 527 537 526 485 488 490 494 459 525 515 500 506 503 564 504 530 561 541 542 511 542 527 550 540 543 568 530 546 552 529 540 560 524 555 584 571 559 526 560 511 577 504 570 543 554 547 543 543 511 514 492 511 502 521 516 512 528 511 518 526 512 466 488 489 492 476 472 476 486 488 455 479 508 537 487 532 545 487 500 500 507 511 479 510 480 477 492 545 485 494 494 464 474 507 465 526 473 468 495 500 490 498 497 448 505 465 502 498 487 520 478 460 517 449 504 463 498 462 471 517 497 494 457 533 500 521 508 554 504 545 472 561 545 573 547 587 524 543 529 520 532 566 586 578 591 588 567 580 549 567 558 508 550 519 526 513 542 495 562 551 540 569 534 525 543 566 553 524 537 514 561 498 519 507 541 566 507 544 558 530 494 517 574 532 539 546 519 544 572 562 560 560 550 571 616 567 643 677 710 676 688 721 756 823 854 915 968 1026 1077 1178 1164 1248 1194 1315 1345 1274 1330 1297 1361 1353 1349 1322 1387 1316 1388 1294 1336 1303 1359 1295 1282 1245 1188 1181 1204 1160 1127 1067 1071 1011 973 968 934 938 916 907 835 861 790 826 817 774 781 776 727 680 706 684 693 687 666 699 637 639 669 617 625 661 682 662 628 638 652 653 689 698 713 707 681 750 750 758 810 786 816 803 832 943 913 894 962 934 955 962 932 963 952 926 956 917 925 869 920 894 915 880 886 886 894 834 845 901 886 855 769 797 740 727 747 800 763 707 684 670 711 657 673 643 638 632 634 686 649 601 621 623 592 643 630 647 569 602 597 576 600 586 616 593 610 604 613 547 601 581 535 590 623 580 570 586 574 549 555 537 535 539 564 535 523 558 522 508 526 527 542 508 524 562 539 545 550 520 481 532 486 505 519 513 560 439 453 474 518 481 559 532 531 522 558 526 503 563 497 495 545 543 489 526 556 492 522 544 476 558 531 520 504 496 524 487 478 534 509 525 521 515 511 546 494 562 533 507 529 511 504 518 519 516 509 491 457 504 549 485 543 519 523 498 555 526 544 515 533 569 500 544 525 514 558 539 537 517 560 593 629 602 631 604 646 672 745 722 732 834 873 910 987 1004 1036 1083 1060 1053 1161 1107 1125 1049 1047 1090 1099 1060 1081 1105 1111 1080 1114 1057 1051 1039 1041 1035 962 957 925 887 940 942 877 880 794 830 829 740 753 732 715 756 708 766 682 660 645 600 673 628 584 620 607 576 583 582 555 541 570 588 550 603 535 553 525 525 582 551 496 507 527 528 565 553 572 478 584 571 594 616 684 631 722 742 719 661 750 677 655 680 708 713 626 616 674 622 656 678 654 652 704 660 704 641 641 629 610 625 633 609 631 556 582 584 590 550 609 528 580 555 565 574 528 542 553 530 544 569 564 510 526 570 507 567 530 518 507 535 505 530 532 543 488 527 522 507 497 507 518 476 514 500 493 467 504 458 482 497 543 496 456 502 448 452 448 476 447 457 463 470 483 481 482 457 480 452 479 436 484 479 495 449 476 469 462 455 503 532 465 518 471 539 508 550 553 570 565 546 574 553 577 562 584 572 597 543 559 560 540 565 562 561 593 596 603 581 597 577 557 531 528 590 499 536 561 530 532 529 553 478 522 521 492 476 473 492 520 490 543 456 486 511 509 491 447 470 449 462 491 500 486 437 439 439 457 482 430 463 476 482 479 487 470 495 466 504 487 461 478 475 485 458 484 450 483 465 476 489 469 401 485 459 458 470 475 471 466 452 478 450 453 481 418 439 497 424 459 463 470 442 496 432 472 436 425 431 429 428 434 438 442 398 447 450 448 470 453 424 445 435 491 445 475 387 401 415 416 444 465 481 446 447 423 483 456 431 451 452 475 428 425 466 423 402 469 439 489 443 426 456 457 455 420 414 428 477 457 412 416 418 464 405 459 442 424 446 428 468 487 472 499 476 503 516 481 493 521 524 529 497 480 458 478 470 517 510 497 473 504 494 507 487 473 504 481 488 474 472 442 423 484 431 465 477 474 448 428 406 458 410 427 428 433 440 416 427 421 465 420 425 456 402 446 396 417 398 418 405 412 419 432 423 428 405 452 401 394 450 419 424 436 422 458 424 430 416 418 387 413 427 409 442 405 419 440 433 449 421 403 442 408 424 435 413 403 411 423 437 435 434 387 443 452 425 404 410 406 432 442 371 435 414 440 443 401 436 409 418 463 427 445 445 459 477 472 482 434 444 418 423 424 436 428 451 458 443 440 435 416 447 448 419 437 477 477 398 468 444 416 453 460 408 418 383 413 419 419 436 461 402 481 440 398 449 454 415 448 421 431 441 454 395 434 419 444 421 434 356 408 425 413 441 404 374 398 377 448 415 454 445 429 426 439 424 415 415 410 442 418 451 435 442 396 394 375 412 410 436 444 452 464 428 408 432 421 425 411 413 397 432 441 431 408 462 437 434 435 472 432 456 442 401 436 396 448 387 442 401 429 425 412 447 421 435 435 391 379 431 404 431 439 443 430 411 400 406 401 431 411 406 416 416 397 435 425 431 406 410 431 435 388 379 428 403 398 398 395 438 398 406 421 407 393 417 460 441 421 426 425 427 452 375 394 427 427 401 449 392 428 404 391 412 409 423 408 428 390 439 447 416 424 426 403 428 411 438 413 412 431 426 458 421 439 469 462 483 470 435 463 462 467 439 521 447 489 482 493 483 468 504 460 483 446 527 468 501 516 490 469 505 521 479 490 452 441 466 441 491 438 452 463 452 433 458 431 452 392 426 431 440 406 435 409 396 391 414 415 401 424 431 400 389 405 402 379 422 399 431 383 409 396 387 426 392 402 398 397 411 380 364 402 422 403 391 404 413 413 397 361 385 402 389 397 405 395 393 398 382 395 425 413 403 436 412 418 414 407 409 418 420 424 416 392 403 406 411 422 432 440 433 393 392 415 430 426 398 399 467 404 400 402 412 368 376 390 403 417 406 403 367 413 417 364 409 426 436 404 440 423 393 389 365 390 417 401 386 415 375 435 406 435 431 404 420 407 430 401 431 406 397 377 359 403 408 386 403 385 406 398 418 393 395 400 367 403 427 425 384 386 409 397 391 397 416 370 419 387 397 382 397 409 372 423 374 431 377 414 400 388 374 372 416 401 411 386 383 357 422 364 423 395 392 381 407 398 427 389 375 355 410 399 386 398 397 394 419 388 411 421 414 352 392 396 405 346 357 381 395 351 400 410 372 397 377 373 408 367 396 407 427 388 403 411 396 418 379 425 390 389 386 371 384 388 392 378 408 386 426 359 428 396 437 415 414 424 424 429 368 415 439 428 433 455 406 431 433 451 439 458 415 446 426 458 468 466 466 478 455 502 514 497 554 548 568 581 560 629 592 568 644 589 626 623 620 638 615 606 611 624 620 606 611 625 643 617 619 613 607 567 613 631 538 607 545 595 624 595 578 581 558 559 521 568 474 561 545 517 556 551 491 489 479 523 495 508 512 506 500 473 478 490 452 480 470 482 497 442 461 450 452 459 416 460 455 425 471 432 442 438 417 432 411 502 444 442 474 431 415 427 403 432 470 448 447 444 448 483 450 501 519 467 454 440 464 466 462 530 491 471 510 499 482 507 499 487 526 473 484 507 486 494 456 491 496 468 452 454 400 446 534 450 490 470 453 513 518 474 490 436 463 462 451 446 425 447 466 467 458 439 405 446 427 418 424 399 446 437 413 430 426 457 426 431 375 441 405 412 425 421 404 412 406 446 414 429 424 439 441 422 457 422 408 460 462 421 474 417 439 442 448 419 462 389 444 407 454 418 385 433 424 436 409 462 408 416 420 397 409 464 406 446 419 431 377 413 406 422 380 408 396 365 431 425 402 412 420 411 414 419 391 415 382 398 405 439 373 386 400 370 401 379 409 405 401 359 408 391 397 419 420 394 420 371 386 361 427 420 422 388 365 361 389 379 380 386 347 396 431 352 386 369 393 403 383 400 386 384 349 397 354 403 373 403 386 420 444 362 381 419 431 413 392 413 433 415 417 417 373 386 395 421 407 398 417 402 417 389 413 438 487 384 404 442 395 437 418 406 361 389 382 371 416 428 380 387 381 400 423 410 387 398 400 378 387 394 388 401 447 407 412 378 399 379 405 405 392 422 391 380 399 409 426 411 404 423 416 368 384 386 415 381 383 383 370 407 425 376 376 388 387 406 368 389 394 401 413 406 367 391 393 378 393 384 390 409 372 369 396 378 415 360 443 356 359 373 425 368 407 366 368 380 399 385 392 363 380 388 376 393 404 377 383 391 422 348 358 389 411 398 389 416 401 413 389 408 387 430 417 433 358 430 436 432 387 431 429 432 414 454 425 410 414 415 398 447 447 395 438 396 400 418 421 414 441 417 428 408 391 395 367 403 408 382 402 436 410 436 361 386 421 405 423 398 409 424 429 377 362 415 392 450 370 419 382 410 410 385 402 382 391 389 353 402 382 350 420 434 401 415 363 399 378 380 375 363 360 439 388 365 353 391 400 398 384 395 405 395 397 399 387 365 395 353 403 399 408 404 381 386 407 403 401 370 374 372 427 379 400 416 415 370 432 376 424 372 381 394 386 362 380 377 393 363 421 403 378 374 393 405 404 410 375 405 376 364 394 381 442 408 391 401 397 396 418 392 389 413 397 430 400 389 422 382 384 381 393 363 431 392 396 411 385 396 417 395 380 392 379 396 405 385 407 388 402 391 397 389 381 419 335 376 399 458 446 418 415 385 416 396 411 408 394 406 407 427 369 422 441 405 422 404 409 403 404 422 385 388 399 444 404 414 420 405 425 406 390 418 404 417 448 382 429 423 405 456 406 450 440 465 408 409 459 436 436 451 506 449 441 495 451 446 473 460 476 453 459 440 452 461 452 435 473 490 439 449 435 432 457 446 432 433 452 440 454 437 428 460 477 459 437 451 419 474 448 483 472 489 476 452 500 513 550 486 525 566 532 620 618 652 612 658 572 662 675 602 628 639 611 612 618 622 645 670 608 617 593 651 620 656 650 634 610 559 599 617 573 604 576 533 556 553 592 528 504 569 530 563 555 518 495 537 452 514 499 481 466 482 444 488 415 453 455 469 468 430 435 452 437 476 450 439 451 436 444 459 446 446 466 406 418 415 427 423 448 435 418 413 430 439 419 427 440 454 441 449 430 472 445 396 441 444 447 465 451 418 415 421 422 469 419 450 491 414 440 492 471 491 477 461 528 511 510 491 469 528 512 515 482 527 536 512 532 568 549 574 521 550 543 515 483 548 527 504 527 545 495 528 509 530 492 516 537 492 555 525 540 485 495 516 487 502 485 515 497 470 507 514 469 425 476 503 485 495 416 457 465 451 438 478 411 490 485 460 496 471 470 482 413 377 408 419 433 446 451 432 431 465 443 446 474 437 472 468 478 467 424 477 453 466 503 463 455 509 404 467 466 467 447 444 518 507 513 527 479 498 496 542 565 554 548 580 639 592 653 714 662 717 738 735 762 819 784 819 818 833 860 829 874 859 905 818 885 930 864 896 884 826 839 842 810 854 819 858 810 875 855 840 854 843 775 830 844 848 800 748 777 701 723 700 734 636 658 648 667 611 672 621 625 553 564 554 554 543 597 548 551 521 507 520 517 524 508 491 487 461 466 433 459 475 459 465 454 484 477 464 512 451 461 454 450 466 473 428 451 439 435 488 459 458 479 473 470 478 405 455 433 450 492 474 459 449 488 465 465 452 523 513 522 486 501 477 496 488 534 518 510 542 550 512 545 563 529 586 574 588 607 556 627 582 593 583 597 593 625 590 591 566 593 548 591 571 601 604 569 589 602 600 533 548 533 557 565 564 538 562 558 527 563 510 564 526 479 540 566 477 514 471 513 495 484 483 482 538 471 469 494 494 455 494 460 467 475 486 492 482 455 492 486 487 500 484 461 479 492 483 455 440 436 445 471 454 458 486 451 418 486 415 426 444 462 462 439 468 444 425 435 454 460 432 395 448 452 416 462 444 400 456 427 408 426 403 417 440 402 401 432 398 417 430 392 438 441 453 428 388 446 454 386 437 397 397 423 425 420 371 395 368 410 390 425 416 373 379 415 397 385 389 373 409 372 398 404 409 396 423 417 407 408 399 392 430 416 409 380 414 413 380 419 383 383 395 389 394 392 393 393 428 405 411 391 408 368 377 396 346 401 362 359 389 408 413 430 393 373 404 356 403 369 365 392 411 374 400 407 368 376 394 409 378 405 362 386 370 368 408 404 409 408 412 416 383 387 365 392 367 388 382 414 412 397 373 377 428 417 388 392 429 414 352 402 369 404 383 386 378 382 389 390 383 414 410 403 410 394 387 426 379 396 387 392 441 390 415 416 393 407 390 417 411 392 417 387 423 461 420 385 421 387 399 410 378 389 451 424 402 396 403 395 428 366 387 376 414 430 386 425 417 439 459 408 393 425 402 435 399 413 394 397 382 410 429 385 418 412 376 365 412 398 388 363 382 400 392 378 410 345 367 405 398 371 377 407 414 420 376 389 389 370 380 436 385 421 411 403 451 453 440 443 406 436 417 439 421 424 422 418 418 428 388 437 418 423 404 390 405 448 411 410 413 443 399 438 428 398 405 425 451 396 382 407 400 387 398 378 426 413 392 378 430 396 407 398 378 386 406 406 412 378 391 423 378 412 410 381 393 412 386 355 386 370 373 391 418 420 403 345 382 377 377 404 408 384 353 367 415 400 381 414 418 402 390 368 358 408 356 400 414 394 433 402 432 430 459 450 415 480 441 444 429 457 418 418 433 427 382 391 414 446 394 423 400 411 419 411 415 391 407 436 415 418 419 413 437 427 442 408 435 408 417 427 411 394 382 418 403 401 366 422 407 383 407 429 388 379 402 381 406 424 407 357 411 396 427 400 395 443 380 432 384 454 403 410 398 414 409 398 425 407 422 465 438 457 422 456 427 390 437 415 432 427 398 419 417 416 441 390 403 411 421 423 371 433 409 441 408 447 412 389 400 418 442 417 481 429 414 416 475 404 410 400 417 378 397 365 442 430 424 401 366 374 371 403 393 397 419 403 374 393 372 403 392 400 399 365 362 383 389 405 377 388 384 361 447 388 403 387 361 405 356 394 374 365 396 372 377 376 366 355 420 354 399 338 351 377 428 375 390 374 392 402 387 372 348 383 351 372 398 369 390 406 402 373 387 379 386 424 390 339 388 395 355 380 382 397 408 359 352 374 373 423 385 401 391 384 416 425 380 376 380 394 383 411 419 401 348 416 419 374 408 383 387 398 341 386 383 439 362 362 416 395 353 369 406 347 409 399 380 386 353 375 410 414 401 395 397 370 405 369 399 409 399 430 415 362 397 390 357 356 404 397 377 369 363 414 405 383 398 360 389 382 382 378 351 398 371 408 374 383 404 385 395 387 417 373 381 405 391 399 396 403 403 380 425 392 393 427 422 426 408 413 394 386 409 383 404 437 399 404 393 386 415 387 395 400 394 408 456 398 442 428 397 397 410 419 410 443 417 429 421 418 467 454 412 422 459 443 470 476 460 429 491 468 490 506 518 550 537 529 576 539 586 606 626 657 689 660 694 708 700 723 713 708 700 667 763 701 765 734 701 732 704 674 715 683 696 660 710 655 688 698 693 686 682 705 646 665 709 636 663 624 645 657 630 648 601 580 594 534 529 548 567 581 508 516 517 477 501 481 485 454 459 482 463 429 469 445 443 447 470 447 424 446 437 431 407 456 379 427 409 438 427 409 403 425 409 419 417 393 395 400 384 417 397 382 426 398 400 364 407 403 394 377 422 425 376 461 412 395 359 393 406 395 391 409 381 433 443 381 416 445 418 409 440 452 402 414 397 443 456 438 463 426 420 414 390 454 452 451 447 414 465 495 498 473 529 454 492 513 481 483 487 504 476 516 551 567 535 558 518 482 519 539 525 535 507 550 500 508 545 502 507 486 503 494 487 492 513 487 478 519 509 531 508 499 494 465 508 495 490 522 457 475 492 517 465 457 456 483 503 482 442 453 441 474 420 447 427 436 440 413 419 473 457 448 439 443 432 417 444 431 403 422 400 392 400 438 416 424 410 407 447 420 436 414 423 405 406 435 448 403 405 409 402 415 415 391 412 395 412 403 442 365 411 391 414 402 435 402 412 416 426 371 410 400 410 430 382 418 388 380 403 379 362 403 350 407 375 404 384 394 396 398 370 379 412 380 411 392 390 407 374 364 374 376 425 359 405 361 360 410 340 396 389 401 367 407 372 376 423 386 443 393 401 378 375 423 362 397 373 373 380 392 347 371 383 378 365 440 357 427 346 393 378 373 377 402 397 371 397 388 397 384 382 363 335 361 395 376 360 394 378 401 379 405 405 373 393 374 369 336 390 380 373 402 376 369 386 385 375 377 343 380 394 377 414 335 389 402 396 365 369 373 355 385 399 367 386 355 370 355 389 361 356 358 358 361 364 365 354 371 365 393 364 376 370 352 380 376 376 393 405 382 400 362 377 356 396 388 343 380 380 359 332 376 396 390 377 394 401 386 370 373 374 353 387 431 396 387 392 367 339 374 376 412 382 381 373 407 389 403 395 381 376 384 390 402 394 359 351 383 377 358 366 352 382 367 378 360 382 380 361 373 398 390 378 411 384 426 375 344 370 413 372 375 375 378 364 363 387 366 400 353 388 370 375 395 404 382 399 385 370 398 380 390 408 376 411 398 385 404 366 397 373 384 337 365 374 381 352 384 320 377 378 374 353 353 397 369 376 433 373 375 358 371 389 364 397 367 364 385 378 364 436 363 409 342 376 397 329 366 378 392 389 386 357 378 380 364 362 377 385 360 388 389 363 358 379 356 370 351 387 407 361 394 364 380 376 337 398 384 384 371 397 410 373 373 381 390 366 420 362 341 384 348 355 358 374 359 371 382 388 388 398 398 361 368 386 350 391 405 342 372 395 354 394 429 373 372 383 439 402 366 350 392 375 396 393 427 406 395 393 413 400 426 411 399 424 394 453 446 449 470 463 475 453 521 507 497 492 509 469 487 500 509 464 521 490 466 468 474 486 450 466 508 470 481 510 478 485 471 487 474 444 495 490 494 468</counts>
			</dataPoints>
		</scan>
	</xrdMeasurement>
</xrdMeasurements>
