<?xml version="1.0"?>
<xrdMeasurements xmlns="http://www.xrdml.com/XRDMeasurement/2.3" xmlns:xsi="http://www.w3.org/2001/XMLSchema-instance" xsi:schemaLocation="http://www.xrdml.com/XRDMeasurement/2.3 http://www.xrdml.com/XRDMeasurement/2.3/XRDMeasurement.xsd" status="Completed" recordIdentifier="{208E0A58-87FD-49EA-B4A5-838D2B77A931}">
	<comment>
		<entry/>
	</comment>
	<sample type="To be analyzed">
		<id>GPSS_Li1p6Mn0p6Sc0p4Cl4_112625_69278cb0f4e53d1f7239ae50</id>
		<name></name>
		<preparedBy></preparedBy>
	</sample>
	<xrdMeasurement measurementType="Scan" status="Completed" sampleMode="Reflection">
		<usedWavelength intended="K-Alpha 1">
			<kAlpha1 unit="Angstrom">1.5405980</kAlpha1>
			<kAlpha2 unit="Angstrom">1.5444260</kAlpha2>
			<kBeta unit="Angstrom">1.3922500</kBeta>
			<ratioKAlpha2KAlpha1>0.5000</ratioKAlpha2KAlpha1>
		</usedWavelength>
		<incidentBeamPath>
			<radius unit="mm">145.00</radius>
			<xRayTube id="1010048" name="Empyrean Cu LFF HR (9430 033 7310x)">
				<tension unit="kV">40.0</tension>
				<current unit="mA">15.0</current>
				<anodeMaterial>Cu</anodeMaterial>
				<focus type="Line">
					<length unit="mm">12.0</length>
					<width unit="mm">0.4</width>
					<takeOffAngle unit="deg">6.0</takeOffAngle>
				</focus>
			</xRayTube>
			<sollerSlit id="21010002" name="Soller slits 0.04 rad.">
				<opening unit="rad">0.0400</opening>
			</sollerSlit>
			<mask id="22031000" name="Fixed mask 13 mm">
				<width unit="mm">9.00</width>
			</mask>
			<divergenceSlit id="22120001" name="Divergence slit 1°" xsi:type="fixedDivergenceSlitType">
				<distanceToSample unit="mm">50.00</distanceToSample>
				<height unit="mm">1.52</height>
			</divergenceSlit>
		</incidentBeamPath>
		<sampleMovement xsi:type="spinningSampleMovementType">
			<spinnerRevolutionTime unit="seconds">1.0</spinnerRevolutionTime>
		</sampleMovement>
		<diffractedBeamPath>
			<radius unit="mm">145.00</radius>
			<antiScatterSlit id="22090040" name="AS slit 9 mm (PIXcel)" xsi:type="fixedAntiScatterSlitType">
				<height unit="mm">9.00</height>
			</antiScatterSlit>
			<sollerSlit id="21020003" name="Large Soller slits 0.04 rad.">
				<opening unit="rad">0.0400</opening>
			</sollerSlit>
			<filter id="20030001" name="Large beta-filter Nickel">
				<material>Ni</material>
				<thickness unit="mm">0.020</thickness>
			</filter>
			<detector id="7010019" name="PIXcel1D-Medipix3 detector" xsi:type="rtmsDetectorType">
				<phd unit="keV">
					<lowerLevel>4.02</lowerLevel>
					<upperLevel>11.27</upperLevel>
				</phd>
				<mode>Scanning</mode>
				<activeLength unit="deg">5.542</activeLength>
			</detector>
		</diffractedBeamPath>
		<scan appendNumber="0" mode="Continuous" scanAxis="Gonio" status="Completed">
			<header>
				<startTimeStamp>2025-12-01T18:40:54-08:00</startTimeStamp>
				<endTimeStamp>2025-12-01T18:49:01-08:00</endTimeStamp>
				<author>
					<name>AutomatedUser</name>
				</author>
				<source>
					<applicationSoftware version="1.7b (136)">PANalytical Aeris Instrument Suite</applicationSoftware>
					<instrumentControlSoftware version="3.2.00000000 20240306">AERIS</instrumentControlSoftware>
					<instrumentID>950485</instrumentID>
				</source>
			</header>
			<dataPoints>
				<positions axis="2Theta" unit="deg">
					<startPosition>10.00943322</startPosition>
					<endPosition>99.99442286</endPosition>
				</positions>
				<positions axis="Omega" unit="deg">
					<startPosition>5.00471661</startPosition>
					<endPosition>49.99721143</endPosition>
				</positions>
				<commonCountingTime unit="seconds">12.495</commonCountingTime>
				<counts unit="counts">2946 2937 2974 3059 2997 2977 2905 2940 3039 2892 2950 2884 2933 3083 3084 3048 2986 2954 2966 2988 3001 3045 2992 3069 2979 2999 3087 2926 3029 2959 3009 2994 3031 2979 3126 3085 3111 3037 3046 3036 3097 3028 2982 3067 3000 3100 3011 3050 2973 3150 3047 3099 3139 3014 3122 3109 3064 3079 3060 3159 3146 3099 3116 3113 3202 3072 3179 3118 3223 3117 3141 3145 3201 3206 3073 3311 3090 3212 3251 3294 3232 3173 3216 3246 3274 3217 3222 3245 3220 3121 3141 3199 3231 3250 3234 3093 3205 3173 3128 3166 3210 3065 3231 3089 3210 3118 3192 3068 3201 3232 3197 3155 3142 3212 3188 3124 3169 3144 3136 3211 3138 3144 3101 3096 3225 3073 3225 3058 3209 3142 3269 3130 3087 3150 3026 3203 3103 3046 3064 3048 3037 3089 3138 3118 3120 3016 3076 3161 3179 3036 3172 3180 3090 3098 3174 3173 3043 3124 3063 3132 3077 3014 3048 3115 3082 3156 3019 3106 3100 3190 3200 3163 3082 3124 3112 3241 3151 3107 3137 3067 3103 3080 3157 3051 3082 3078 3177 3113 3030 3112 3067 3126 3084 3037 3063 3102 3075 3049 3119 3041 2902 3063 3092 3016 3033 2981 3072 2891 3045 3130 3025 3019 3095 3030 3088 3051 3055 3075 3018 3043 3035 2959 3050 3115 3027 3031 3025 2977 2990 3020 2989 3079 3024 3008 3009 3028 3028 2974 2933 3000 3022 3076 3038 2977 3076 2979 2955 3048 2937 2921 2953 3030 3074 2973 2972 3070 2943 2926 3002 2936 2943 3008 2998 2929 2917 2898 3019 2964 3013 2979 2998 2979 3012 2987 3004 3061 2913 3029 2957 2953 2914 2970 3054 2966 3029 2991 2826 3009 3010 2920 2999 3078 3006 2882 3050 2981 2996 2848 2970 2903 2970 3056 3109 2960 2933 2943 3055 3047 2949 2984 2987 2907 3101 3004 2975 3151 3063 2851 3027 2992 3060 2998 3059 3012 3039 3021 3137 2987 3068 3049 3011 3075 2973 2996 3020 3040 3101 3185 2989 3016 3005 3107 2972 3064 3091 2999 3078 3028 3160 3079 3096 3221 3102 3104 3087 3079 3087 3106 3083 3130 3157 2998 3134 3112 3118 3154 3142 3090 3205 3150 3247 3096 3214 3208 3248 3170 3290 3235 3103 3202 3183 3298 3264 3285 3316 3240 3219 3305 3386 3351 3409 3312 3431 3409 3345 3480 3385 3419 3441 3471 3503 3495 3684 3571 3656 3748 3779 3846 3911 4079 4109 4190 4330 4428 4616 4794 4714 4991 5215 5295 5432 5702 5759 6007 5891 6021 6009 6100 6112 6265 6368 6290 6254 6279 6197 6236 6228 6003 5961 5797 5550 5593 5555 5387 5159 5146 5131 4858 4894 4702 4600 4482 4423 4352 4291 4254 4073 4053 4155 4039 3964 3964 3814 3756 3792 3694 3700 3658 3615 3606 3699 3626 3554 3481 3521 3569 3449 3532 3376 3452 3413 3453 3499 3438 3524 3293 3387 3387 3351 3328 3254 3330 3397 3394 3286 3320 3315 3236 3318 3308 3204 3204 3357 3211 3246 3197 3204 3263 3284 3271 3258 3165 3174 3281 3217 3216 3096 3200 3174 3163 3163 3177 3324 3179 3371 3154 3135 3096 3209 3200 3198 3158 3047 3186 3167 3174 3157 3163 3159 3228 3106 3063 3213 3153 3332 3294 3182 3136 3265 3228 3173 3076 3185 3137 3190 3049 3168 3183 3142 3203 3084 3021 3140 3000 2936 2972 3016 3049 3055 2997 3030 3095 3012 3008 3006 3025 3038 2967 2944 2988 3037 2915 2989 2969 2921 3018 2925 2853 2941 2949 2930 2997 2945 2913 2922 3037 3004 2853 2891 2884 2934 2948 2869 2853 2962 2878 2825 2906 2892 2917 2843 2893 2856 2910 2962 2885 2870 2823 2883 2877 2918 2850 2858 2768 2852 2818 2882 2772 2754 2733 2851 2842 2960 2867 2928 2788 2779 2953 2827 2819 2887 2796 2864 2878 2878 2847 2731 2828 2850 2735 2833 2847 2851 2929 2853 2833 2796 2901 2851 2932 2802 2809 2826 2818 2785 2812 2843 2766 2833 2709 2807 2809 2702 2708 2765 2784 2742 2763 2753 2784 2802 2833 2783 2773 2842 2665 2734 2707 2710 2728 2722 2805 2719 2724 2764 2713 2778 2697 2767 2832 2705 2821 2770 2707 2809 2766 2700 2751 2688 2737 2799 2833 2731 2827 2855 2782 2810 2806 2709 2810 2778 2683 2706 2849 2801 2765 2758 2798 2799 2707 2773 2787 2724 2806 2718 2699 2627 2738 2726 2722 2726 2751 2714 2695 2740 2703 2640 2676 2749 2691 2679 2700 2717 2719 2703 2644 2678 2663 2614 2615 2680 2666 2652 2634 2743 2581 2643 2683 2676 2659 2714 2529 2686 2624 2673 2613 2683 2711 2682 2641 2656 2722 2641 2573 2739 2605 2653 2615 2669 2639 2580 2645 2541 2636 2532 2633 2624 2653 2736 2681 2608 2588 2624 2630 2620 2652 2550 2670 2562 2607 2606 2669 2635 2606 2693 2663 2632 2616 2585 2630 2604 2675 2633 2627 2568 2689 2665 2564 2523 2550 2535 2590 2603 2589 2525 2608 2467 2619 2533 2555 2667 2587 2530 2616 2502 2662 2519 2553 2643 2556 2537 2573 2534 2535 2564 2541 2547 2455 2609 2635 2617 2430 2541 2381 2542 2522 2402 2617 2515 2543 2536 2509 2528 2618 2496 2588 2624 2520 2580 2502 2441 2547 2578 2506 2466 2574 2483 2472 2492 2478 2454 2510 2464 2511 2470 2503 2511 2461 2459 2515 2530 2622 2536 2493 2492 2481 2473 2409 2461 2417 2526 2494 2596 2529 2434 2531 2576 2619 2488 2513 2556 2545 2536 2490 2523 2462 2638 2614 2463 2376 2514 2436 2423 2466 2521 2416 2391 2513 2473 2475 2420 2412 2441 2479 2340 2431 2412 2413 2434 2512 2473 2391 2419 2386 2447 2410 2369 2527 2453 2347 2410 2475 2498 2408 2459 2430 2359 2354 2381 2377 2354 2325 2454 2404 2462 2335 2429 2382 2365 2330 2378 2353 2375 2420 2504 2383 2323 2380 2348 2389 2374 2434 2411 2432 2372 2348 2329 2366 2380 2430 2363 2376 2285 2320 2352 2300 2386 2355 2400 2418 2365 2334 2319 2370 2338 2351 2467 2426 2331 2272 2344 2409 2358 2369 2448 2359 2415 2413 2379 2411 2450 2394 2441 2378 2352 2359 2457 2398 2341 2349 2312 2343 2439 2374 2358 2442 2369 2338 2386 2415 2392 2335 2354 2442 2374 2382 2411 2378 2400 2403 2323 2370 2394 2440 2371 2408 2428 2496 2388 2393 2348 2373 2328 2316 2350 2350 2442 2357 2371 2341 2361 2366 2282 2433 2256 2440 2356 2398 2325 2326 2248 2291 2293 2286 2295 2276 2404 2333 2330 2337 2332 2325 2307 2307 2362 2400 2338 2272 2296 2218 2336 2266 2351 2333 2289 2308 2369 2252 2381 2255 2288 2257 2323 2359 2261 2356 2401 2307 2316 2271 2242 2352 2248 2216 2285 2269 2134 2273 2236 2289 2284 2340 2182 2250 2281 2334 2279 2260 2332 2265 2221 2312 2308 2307 2274 2268 2222 2155 2241 2192 2229 2243 2220 2172 2234 2222 2164 2221 2198 2232 2206 2151 2065 2114 2192 2213 2217 2225 2057 2143 2179 2202 2115 2137 2118 2138 2212 2198 2155 2174 2183 2170 2190 2099 2218 2143 2043 2069 2041 2055 2089 2094 2078 2064 2108 2132 2132 2096 2020 2115 2077 2103 2068 2066 2162 2165 2082 2131 2053 2097 2084 2033 2072 2053 2112 2097 2059 2067 2083 2049 2003 2092 2082 2081 2087 2101 2000 2075 2050 2050 1991 2037 2045 2145 2107 1978 1923 2096 2035 2073 2084 2060 2041 2029 2070 2017 2077 2030 2022 2043 1998 1977 1938 1974 1966 1958 1870 2013 1994 1909 1979 1875 1959 1973 1935 1960 1965 2025 1929 1942 1880 1953 1941 1917 1879 1840 1949 1972 1933 1882 1935 1909 1917 1972 1932 1908 1884 1864 1971 1991 1973 1949 1938 1940 1902 1947 1840 1874 1854 1778 1852 1897 1887 1949 1828 1893 1815 1835 1921 1877 1843 1925 1809 1891 1874 1869 1824 1980 1801 1892 1871 1872 1899 1893 1896 1937 1921 1881 1924 1891 1811 1824 1886 1954 1868 1862 1877 2000 1909 1872 1902 1899 1912 1959 1761 1864 1792 1989 1894 1810 1846 1867 1889 1899 1876 1979 1770 1847 1949 1900 1888 1807 1862 1965 1813 1935 1904 1909 1939 1904 1934 1892 1872 1951 1951 1952 1943 1916 1854 1870 1899 1899 1840 1799 1889 1829 1881 1910 1902 1904 1831 1928 1804 1849 1876 1832 1888 1860 1877 1877 1861 1899 1879 1891 1910 1917 1875 1898 1856 1786 1865 1875 1795 1880 1857 1855 1810 1819 1903 1854 1900 1865 1864 1831 1907 1830 1764 1880 1887 1787 1793 1756 1817 1871 1829 1772 1834 1884 1844 1843 1874 1862 1821 1853 1819 1875 1829 1794 1798 1836 1811 1865 1746 1841 1859 1879 1835 1809 1814 1838 1896 1849 1730 1943 1882 1816 1855 1754 1762 1851 1768 1867 1794 1820 1832 1775 1873 1803 1797 1798 1854 1812 1803 1808 1708 1785 1815 1768 1818 1799 1797 1790 1839 1766 1717 1726 1836 1806 1739 1708 1769 1842 1872 1766 1854 1828 1792 1798 1760 1767 1792 1861 1784 1748 1829 1841 1891 1845 1793 1830 1826 1823 1802 1868 1773 1791 1910 1751 1699 1748 1768 1776 1830 1734 1778 1776 1783 1767 1741 1753 1828 1756 1645 1866 1772 1749 1703 1729 1720 1822 1744 1733 1730 1703 1697 1694 1751 1669 1694 1793 1814 1761 1671 1763 1704 1712 1726 1709 1654 1671 1771 1660 1640 1604 1673 1699 1703 1591 1713 1659 1666 1761 1619 1658 1725 1590 1604 1641 1729 1712 1558 1725 1715 1653 1725 1761 1644 1714 1706 1601 1626 1615 1663 1670 1660 1691 1559 1596 1606 1610 1611 1625 1643 1567 1607 1629 1619 1645 1660 1663 1600 1676 1560 1691 1627 1616 1612 1638 1576 1600 1616 1609 1601 1616 1544 1615 1664 1712 1627 1610 1687 1694 1720 1626 1686 1679 1693 1746 1774 1848 1902 1873 2008 2006 2143 2152 2271 2338 2439 2628 2578 2621 2684 2830 2864 2907 2766 2840 2737 2702 2543 2506 2464 2416 2244 2213 2065 2057 2028 1957 1817 1856 1818 1841 1756 1707 1628 1769 1700 1740 1654 1612 1694 1683 1662 1599 1609 1543 1607 1649 1579 1598 1608 1630 1664 1580 1494 1471 1505 1497 1616 1609 1510 1529 1496 1491 1466 1541 1434 1550 1455 1493 1533 1506 1467 1606 1505 1553 1552 1538 1511 1538 1566 1610 1526 1576 1571 1485 1476 1563 1520 1604 1581 1581 1575 1537 1529 1619 1609 1603 1571 1550 1569 1598 1591 1634 1659 1677 1587 1666 1703 1820 1822 1967 1970 2001 2085 2187 2390 2582 2650 2830 2963 3360 3396 3915 4092 4510 4792 5083 5366 5623 5660 5679 5733 5572 5720 5553 5404 5202 4959 4728 4481 4328 4022 3972 3712 3667 3498 3527 3396 3440 3361 3358 3282 3244 3191 3090 3005 2942 2945 2835 2692 2728 2567 2419 2432 2344 2215 2215 2150 2064 2003 1887 1973 1863 1885 1847 1865 1828 1803 1715 1665 1701 1711 1652 1688 1584 1618 1641 1620 1535 1547 1589 1579 1460 1543 1501 1479 1503 1418 1408 1389 1470 1438 1466 1393 1450 1461 1377 1348 1428 1403 1373 1356 1421 1387 1366 1383 1347 1361 1357 1404 1359 1337 1393 1409 1317 1293 1343 1317 1394 1352 1341 1298 1302 1401 1280 1352 1356 1325 1339 1361 1362 1350 1346 1375 1352 1316 1383 1292 1397 1307 1361 1370 1356 1369 1316 1364 1407 1315 1273 1288 1310 1343 1258 1317 1294 1360 1306 1242 1313 1290 1339 1258 1286 1205 1294 1324 1268 1299 1267 1204 1276 1293 1258 1254 1220 1293 1300 1274 1209 1250 1303 1254 1231 1345 1289 1238 1293 1219 1254 1276 1245 1303 1246 1207 1250 1208 1294 1310 1244 1190 1231 1248 1267 1286 1232 1182 1237 1222 1215 1251 1240 1183 1319 1197 1200 1231 1206 1238 1247 1258 1249 1239 1238 1217 1241 1170 1226 1214 1187 1228 1231 1291 1264 1259 1271 1179 1182 1211 1216 1227 1152 1229 1189 1163 1204 1211 1244 1249 1147 1213 1215 1220 1169 1210 1150 1279 1227 1149 1176 1172 1225 1198 1172 1146 1201 1181 1230 1264 1147 1198 1168 1201 1173 1219 1188 1201 1224 1176 1173 1182 1175 1173 1228 1209 1173 1195 1273 1204 1170 1172 1227 1194 1162 1160 1187 1191 1137 1155 1228 1183 1228 1201 1141 1144 1176 1115 1194 1109 1150 1205 1182 1176 1190 1196 1181 1176 1166 1183 1174 1152 1187 1132 1172 1171 1161 1177 1165 1230 1219 1145 1187 1139 1184 1168 1134 1133 1154 1166 1214 1158 1225 1135 1179 1166 1178 1243 1202 1214 1200 1293 1275 1168 1128 1171 1202 1230 1183 1177 1213 1191 1212 1160 1221 1213 1240 1239 1183 1224 1241 1270 1231 1226 1253 1153 1203 1237 1238 1225 1246 1199 1215 1252 1199 1253 1237 1262 1226 1264 1198 1262 1230 1218 1296 1281 1308 1262 1241 1322 1337 1233 1283 1257 1311 1279 1412 1323 1361 1353 1375 1411 1364 1368 1407 1356 1405 1437 1408 1461 1465 1519 1497 1523 1521 1629 1590 1602 1659 1719 1677 1773 1919 1978 2072 2278 2359 2619 2778 3055 3361 3627 4193 4717 5108 5730 6379 7224 7966 8714 9490 9911 10473 10943 10972 11254 11401 11110 11025 11160 11090 10706 10523 10339 9874 9533 8867 8549 8095 7641 7320 6880 6704 6285 5975 5554 5199 4946 4394 4256 3998 3960 3647 3328 3323 3082 2927 2940 2668 2621 2434 2416 2275 2160 2242 2122 1904 1937 1944 1870 1849 1765 1729 1653 1595 1559 1589 1540 1494 1464 1551 1479 1506 1414 1421 1359 1395 1317 1358 1328 1362 1356 1269 1263 1263 1267 1248 1193 1271 1251 1250 1235 1182 1248 1223 1187 1234 1171 1168 1231 1219 1155 1151 1221 1151 1186 1220 1220 1217 1176 1187 1208 1227 1204 1177 1155 1209 1162 1256 1122 1123 1120 1089 1150 1196 1188 1173 1199 1195 1171 1152 1187 1184 1203 1165 1156 1071 1151 1200 1164 1183 1133 1109 1117 1195 1098 1121 1135 1183 1216 1108 1187 1096 1169 1160 1119 1150 1162 1168 1057 1152 1183 1134 1219 1126 1100 1174 1160 1144 1133 1138 1150 1076 1050 1140 1148 1096 1154 1123 1126 1139 1118 1115 1146 1073 1132 1150 1170 1182 1121 1097 1150 1086 1073 1167 1156 1138 1164 1129 1082 1066 1095 1140 1181 1119 1151 1124 1153 1121 1160 1147 1111 1126 1160 1103 1138 1128 1100 1136 1057 1068 1101 1147 1129 1102 1073 1065 1029 1064 974 1095 1131 1168 1094 1047 1020 1041 1104 1087 1046 1043 1065 1077 1007 1094 1061 1062 1074 1067 1063 1052 1068 1083 1075 1044 1055 1124 1073 1044 1112 1037 1067 1083 1095 1067 1016 1032 1044 1058 1102 1048 1077 1044 1023 986 1002 1016 1043 989 1061 1045 998 1020 1119 1069 1058 1006 1044 945 1079 1015 1067 996 1062 1074 1037 1041 1024 1097 1066 1010 1130 1073 1087 1083 1075 1139 1092 1043 1062 1067 1122 1035 1113 1041 1081 1101 1089 1039 1077 1105 1128 1106 1029 1046 1020 1021 1057 1024 1043 1094 1062 1030 1026 1041 1026 1035 967 1080 1014 967 1014 1002 988 1014 1023 992 1025 963 991 980 997 1066 956 1063 951 1025 1006 987 977 1008 1014 1014 989 993 971 1058 960 939 954 936 1009 950 944 975 981 971 1010 1018 987 937 955 947 996 986 906 974 965 962 936 993 916 990 975 983 971 975 962 949 895 956 971 929 966 932 957 897 927 905 895 935 985 967 893 1021 963 919 1008 935 947 934 957 933 937 922 921 908 1004 918 977 1045 969 896 988 944 900 978 958 972 938 940 924 975 916 902 972 920 925 933 907 971 928 922 879 918 895 941 928 991 910 969 950 941 995 962 933 971 960 955 963 903 989 1004 915 964 900 912 964 903 923 988 912 951 976 938 852 919 898 930 951 955 970 918 942 962 950 937 961 919 842 916 911 936 934 958 954 904 926 973 910 896 949 871 931 907 979 945 962 945 918 954 951 870 894 909 899 954 968 800 957 891 926 922 901 915 926 942 912 926 918 917 891 948 856 957 938 886 897 944 935 919 899 936 881 889 988 927 896 876 890 931 899 913 863 992 908 938 905 871 869 930 905 845 927 869 918 890 890 861 974 887 924 890 958 925 947 913 917 902 921 878 889 922 851 891 928 905 927 932 920 926 937 943 911 855 872 905 860 912 886 942 888 847 884 897 903 877 891 921 896 913 917 875 898 909 902 951 935 1005 854 843 922 913 934 918 896 891 935 889 893 892 905 931 948 892 881 873 917 886 907 929 848 919 854 892 997 877 957 852 984 885 932 898 895 884 864 928 917 925 923 929 931 882 863 946 842 924 918 891 921 866 862 853 916 855 914 921 865 937 915 893 886 885 904 868 963 848 909 878 864 887 829 853 894 918 950 889 882 884 876 911 954 948 897 923 882 855 896 901 870 881 876 883 933 948 907 865 899 913 921 904 878 829 933 895 902 920 880 883 876 865 873 899 877 912 895 921 879 866 839 936 882 894 864 913 822 880 907 905 902 921 881 889 905 877 926 861 864 929 882 873 852 823 874 858 873 916 846 963 883 905 871 879 902 889 882 881 926 837 809 928 887 923 901 937 851 891 982 905 945 910 886 895 915 867 887 890 889 925 882 919 918 926 951 876 865 907 904 904 974 859 882 855 883 886 896 924 921 905 912 830 953 923 870 929 847 865 921 875 936 877 890 878 882 884 859 894 892 845 900 902 891 888 884 857 850 872 873 890 868 927 907 890 900 948 885 894 822 922 917 880 886 847 880 880 952 866 855 893 879 894 892 941 856 858 863 880 893 917 937 958 841 883 861 845 908 902 953 895 888 908 860 910 863 877 900 879 923 921 912 874 866 854 912 919 961 882 900 877 912 926 881 860 830 899 863 927 849 838 870 898 906 905 895 845 842 860 883 879 847 898 884 870 819 859 894 873 804 923 944 908 929 871 981 865 917 855 870 895 940 974 919 872 906 899 856 885 904 929 871 898 876 876 889 931 880 884 936 979 980 958 957 967 966 997 1058 1076 1111 1138 1185 1193 1250 1343 1307 1500 1573 1549 1591 1582 1538 1550 1544 1457 1409 1418 1486 1467 1483 1383 1303 1363 1374 1344 1308 1314 1267 1303 1206 1279 1254 1274 1199 1256 1263 1249 1216 1202 1161 1222 1191 1159 1229 1144 1224 1138 1188 1125 1123 1130 1022 1113 1077 1067 1020 1003 983 968 992 942 1019 992 987 953 969 947 952 932 935 938 949 941 938 991 905 917 881 941 921 920 889 985 918 892 941 859 988 934 917 949 973 898 864 908 922 917 900 937 978 926 863 900 918 862 903 896 929 897 862 873 871 890 834 898 866 868 902 826 815 870 846 930 832 896 869 917 823 914 829 877 833 876 866 854 815 870 846 921 860 902 849 955 895 876 795 856 886 926 851 903 862 907 890 908 873 889 836 903 861 845 864 901 896 828 874 852 844 886 870 835 878 849 868 823 835 891 846 873 876 818 872 867 910 909 834 894 887 873 831 849 829 891 826 809 843 828 773 888 868 858 849 812 818 892 891 856 828 889 879 886 836 836 897 887 873 867 854 844 858 848 874 844 824 836 901 856 844 856 889 870 826 881 898 840 844 876 897 896 885 851 862 858 888 876 964 878 835 819 819 859 852 839 851 903 850 894 867 865 879 884 827 883 922 883 824 833 876 884 845 846 881 808 871 796 851 913 851 933 874 889 847 876 885 851 834 858 869 881 874 853 822 813 876 938 892 900 934 835 884 832 849 895 879 883 916 889 863 919 887 899 907 937 923 876 882 862 880 905 912 861 887 888 916 960 858 868 889 901 873 936 905 896 928 883 905 910 860 928 905 876 871 926 897 894 943 937 898 919 899 877 926 995 947 891 871 965 942 957 915 913 948 959 955 1027 1020 961 941 927 963 993 993 1032 1009 1066 1025 1071 1093 1134 1148 1228 1324 1271 1408 1324 1464 1647 1658 1947 2053 2299 2454 2823 3178 3477 3949 4164 4435 4726 5003 5084 5144 5249 5222 5146 5084 4889 4748 4731 4584 4433 4275 4125 4047 3744 3691 3521 3408 3174 3129 2852 2821 2816 2636 2544 2485 2480 2351 2448 2421 2323 2250 2316 2211 2137 2177 2067 2019 2003 2040 1881 1988 1816 1797 1788 1680 1640 1568 1511 1492 1402 1389 1378 1326 1245 1242 1208 1285 1221 1186 1180 1143 1150 1117 1116 1123 1055 1015 983 1066 956 1049 986 1030 1011 973 942 1005 948 1018 993 961 937 995 945 893 875 854 899 894 883 869 881 915 854 876 873 890 866 876 901 917 894 903 911 846 872 899 869 823 839 838 852 860 911 841 833 806 810 872 794 856 854 818 862 878 807 810 831 817 837 853 818 879 781 829 857 828 806 809 813 817 844 808 817 819 816 861 834 841 803 820 821 822 810 826 860 829 804 827 787 823 763 790 836 823 803 783 842 805 784 778 844 806 807 896 808 796 811 811 838 811 831 784 780 756 840 791 830 729 765 822 801 837 783 794 822 837 814 824 831 833 865 811 809 863 818 818 892 866 912 876 924 891 983 980 1057 1110 1059 1123 1172 1171 1235 1140 1187 1245 1188 1155 1141 1138 1160 1201 1214 1158 1126 1152 1108 1071 1087 1024 958 1012 1001 1008 1039 895 905 887 860 912 897 880 876 836 790 774 770 801 801 823 826 808 759 798 806 806 782 811 787 825 752 745 777 762 710 750 745 781 766 819 789 743 739 724 727 746 734 685 751 729 712 737 726 739 715 700 749 716 696 736 725 750 713 705 729 773 739 751 727 723 740 771 688 722 685 712 740 694 713 680 691 707 693 678 722 732 699 734 686 708 714 727 747 700 701 678 753 700 722 719 693 670 703 729 699 701 739 666 716 718 704 707 690 709 690 683 669 721 716 675 664 697 704 719 675 708 680 715 723 698 705 655 729 685 682 724 698 699 633 682 709 683 693 684 624 651 706 695 656 675 705 641 681 690 729 698 686 670 693 675 672 675 697 678 699 707 687 684 685 652 682 682 668 707 652 710 700 698 683 634 659 699 680 627 702 632 692 669 668 694 651 633 660 697 639 678 652 646 728 646 676 617 689 692 691 643 682 606 647 640 652 602 677 682 678 660 659 672 630 669 632 654 677 652 685 630 701 654 654 687 651 687 653 671 686 650 645 647 600 710 703 688 633 665 660 671 645 632 664 644 629 668 641 644 640 704 674 624 688 665 671 655 664 650 660 715 694 647 672 651 650 679 663 672 716 669 729 656 711 687 696 694 671 683 651 663 654 673 642 669 662 648 622 673 667 653 655 689 662 622 719 649 669 650 631 680 685 628 642 662 712 637 701 612 734 698 645 661 701 721 731 630 613 651 605 748 695 636 646 690 658 598 707 658 607 625 627 634 624 616 634 613 691 635 641 679 644 646 666 642 655 641 629 689 697 638 628 693 669 656 647 618 635 629 652 634 641 658 664 632 713 657 658 654 643 616 649 654 690 680 678 670 609 668 658 656 656 637 656 654 672 695 613 629 636 667 655 670 619 638 637 688 661 608 634 668 611 657 631 641 668 632 605 606 657 677 627 647 649 626 599 680 700 661 644 652 666 648 720 669 657 672 654 670 646 671 635 674 660 664 663 677 691 646 666 657 685 636 681 630 640 672 638 647 659 684 639 630 646 626 653 609 661 670 628 651 660 693 641 660 639 627 693 655 645 639 634 686 666 649 675 668 653 648 648 609 665 642 608 618 659 646 621 647 643 624 617 676 642 682 652 660 633 610 669 654 632 626 612 674 675 670 630 662 658 607 662 696 685 685 682 685 694 602 701 644 665 664 690 668 661 640 709 685 715 728 663 720 708 742 716 741 727 728 742 735 696 761 822 734 777 745 716 792 688 704 739 699 651 686 704 659 726 694 713 694 696 689 654 719 649 663 679 655 686 724 653 639 695 687 683 716 676 711 687 684 725 714 710 759 706 748 767 750 758 784 765 842 840 866 832 866 1013 965 1073 1026 1123 1090 1129 1133 1124 1144 1165 1103 1105 1098 1103 1107 1099 1096 1079 1156 1108 1091 1101 1115 1123 1041 1017 994 1017 1008 925 988 967 908 903 877 881 952 876 839 885 867 842 847 888 825 929 835 824 805 812 786 757 780 777 813 737 736 769 813 741 741 757 753 671 767 724 721 692 731 691 667 720 704 708 695 662 666 697 674 677 700 703 685 678 654 759 688 710 654 649 692 673 696 692 702 708 691 696 653 643 645 690 677 712 639 635 631 648 686 704 704 681 673 655 639 687 640 700 726 691 639 650 635 670 666 662 617 645 638 609 698 697 647 651 619 661 667 704 660 669 687 694 651 692 679 666 623 664 646 610 664 628 667 674 648 654 663 686 678 616 678 624 649 673 666 621 695 673 651 659 647 693 700 637 612 622 663 648 631 662 647 634 689 649 659 693 674 675 633 661 646 636 646 660 629 670 678 677 676 652 618 648 664 698 640 595 649 610 651 700 661 646 669 678 650 626 656 640 665 699 648 685 650 644 638 697 654 587 694 627 689 672 668 700 720 719 699 711 655 666 687 752 739 684 769 711 699 704 744 786 732 741 793 758 752 818 848 930 938 998 1033 1028 1164 1154 1242 1305 1395 1412 1443 1508 1521 1491 1483 1548 1487 1469 1408 1427 1331 1356 1355 1375 1463 1387 1372 1502 1397 1406 1315 1286 1258 1285 1113 1153 1053 1051 980 988 1033 1022 938 949 901 873 880 889 846 882 864 828 839 813 811 858 785 775 792 827 844 877 818 804 813 864 873 851 854 741 840 771 813 802 832 833 789 757 775 758 757 791 788 732 727 740 773 757 748 741 740 764 740 724 747 733 700 691 728 687 706 736 671 649 688 670 682 632 696 678 713 658 648 667 625 712 649 685 692 643 672 678 645 684 703 699 670 659 656 683 668 668 641 669 639 682 664 679 638 621 658 699 638 656 699 642 613 617 677 699 677 698 675 674 658 748 654 686 678 682 663 712 715 688 678 602 649 625 639 730 652 655 634 659 662 682 660 641 670 624 610 674 708 680 659 649 663 693 675 660 677 662 639 709 719 670 732 743 754 755 785 788 760 846 828 810 796 778 864 775 793 776 773 732 772 779 749 742 723 734 755 724 745 679 704 722 723 681 687 692 731 677 611 692 676 714 722 692 706 664 688 641 681 738 671 723 734 692 664 684 691 686 679 731 686 704 736 694 729 713 663 695 678 708 713 730 680 693 659 644 660 647 678 715 657 665 642 619 667 631 669 681 640 615 670 675 657 626 669 658 633 634 638 657 649 628 635 631 635 668 595 644 601 653 616 681 600 660 604 560 652 638 651 641 621 651 586 600 666 607 612 673 610 634 641 646 628 663 620 568 633 628 617 631 640 626 644 634 628 622 606 621 647 590 633 641 640 636 613 628 590 635 596 651 648 617 687 638 612 585 627 557 662 625 611 618 598 638 603 652 607 630 598 616 616 589 611 612 582 652 594 608 615 625 642 617 609 630 603 597 561 625 599 598 627 606 656 601 647 587 610 615 586 595 607 609 625 609 618 644 601 562 586 603 626 615 599 627 607 619 588 611 593 675 575 571 619 605 609 626 618 621 592 609 567 630 681 594 622 609 597 595 576 597 590 595 632 570 574 617 564 590 621 587 600 638 645 643 612 631 596 582 615 626 558 561 629 553 601 605 608 598 598 587 606 621 596 601 641 603 622 643 608 644 591 655 650 628 599 555 625 653 599 615 624 566 580 609 601 640 604 593 597 611 586 645 585 619 580 579 607 630 635 568 597 617 646 642 649 650 575 586 601 617 601 588 621 569 579 612 615 610 635 623 615 660 610 584 595 589 598 607 568 583 621 595 620 632 602 602 609 576 601 605 617 598 628 606 611 624 552 609 585 643 653 625 648 597 619 571 594 601 619 591 654 585 585 652 581 632 574 600 552 651 600 624 663 599 595 607 632 618 680 617 642 585 571 595 597 632 614 620 641 591 603 572 623 574 612 629 585 593 600 551 598 617 624 605 621 568 629 597 601 578 593 558 581 573 574 605 610 546 630 600 598 553 628 570 620 607 637 595 589 594 583 613 654 588 582 605 571 605 586 645 609 600 617 606 626 628 667 629 614 588 615 618 627 620 558 599 630 624 588 600 588 594 626 668 593 584 597 597 609 573 591 548 644 569 629 621 671 616 628 628 653 666 626 687 679 720 672 727 670 706 673 707 716 706 713 659 720 654 680 642 695 683 714 693 735 697 637 686 662 686 710 662 632 608 624 636 668 701 714 673 672 600 623 596 638 626 614 608 617 595 655 543 615 581 559 635 582 676 668 591 603 601 591 599 613 641 620 620 637 607 566 604 609 616 635 616 617 613 580 626 611 585 589 568 584 627 583 600 617 598 614 632 584 593 589 614 591 617 583 608 590 604 580 621 578 608 577 602 572 553 607 578 633 543 630 590 599 542 611 591 630 570 584 602 664 621 604 631 591 583 612 587 634 590 580 622 586 597 624 605 634 606 614 640 608 603 565 595 606 528 591 583 557 573 605 572 598 608 589 593 606 595 595 547 594 592 588 541 562 608 526 593 555 629 559 588 566 584 627 581 597 623 624 619 600 620 610 578 605 595 563 573 595 605 560 578 597 563 567 575 622 551 627 633 582 597 590 602 530 625 575 573 604 545 544 531 637 579 581 589 596 532 586 632 590 603 595 585 573 560 596 583 594 578 582 627 609 585 583 596 582 573 606 584 551 555 597 575 577 601 586 598 599 609 623 604 574 579 592 564 581 600 591 630 567 592 588 585 607 618 599 617 583 647 614 583 593 659 638 623 594 612 616 603 652 647 567 626 629 634 640 670 633 678 600 630 676 707 739 673 665 731 708 733 786 791 813 825 807 882 877 933 970 944 921 980 878 903 905 846 869 894 847 826 836 851 817 876 899 906 861 941 870 863 891 880 900 900 857 824 866 808 877 855 819 839 772 786 766 776 723 812 748 770 713 725 733 753 716 718 694 708 748 726 690 744 712 769 703 735 643 669 665 651 649 670 685 617 635 639 640 596 673 608 636 610 647 620 653 669 632 643 589 549 552 613 604 606 623 602 600 557 627 623 616 635 596 613 640 609 575 635 614 599 634 583 610 626 591 635 592 614 635 611 599 609 585 631 567 602 581 566 628 596 604 605 567 565 598 614 566 588 561 572 624 598 553 606 599 545 590 571 616 547 569 619 560 588 616 540 557 582 585 591 608 554 579 557 568 603 590 584 612 634 584 602 578 556 570 585 538 549 594 578 551 609 571 568 558 587 556 570 581 572 583 576 556 541 578 582 623 555 612 574 628 540 556 580 568 589 552 572 581 583 607 588 542 568 583 581 582 576 580 602 564 551 572 596 528 602 590 566 581 559 534 587 557 588 632 544 561 541 593 563 574 575 553 557 590 594 552 562 602 601 563 576 577 535 558 560 538 546 519 551 576 542 546 605 567 576 575 560 598 616 559 616 580 593 602 559 594 611 561 575 557 567 584 563 622 575 624 570 564 536 524 566 539 557 571 572 578 526 499 559 566 583 588 570 552 585 560 622 553 611 612 582 578 533 564 611 609 570 544 588 573 552 565 591 566 560 496 595 522 542 524 582 577 570 568 542 575 574 533 574 589 612 607 548 609 591 577 531 588 567 585 558 592 565 513 579 585 549 608 591 608 578 539 595 598 564 574 608 575 559 580 515 555 551 582 628 578 579 594 591 578 530 530 604 545 557 561 590 584 563 574 584 560 559 616 571 567 532 546 564 532 550 537 517 542 592 560 587 553 586 600 512 613 516 555 596 556 566 575 590 547 606 587 558 545 627 546 540 611 598 603 605 556 592 608 600 597 539 575 577 571 563 589 564 534 586 557 596 575 545 580 576 540 595 590 574 574 535 565 570 591 569 543 590 604 558 554 603 542 555 568 551 583 597 575 559 626 600 587 563 564 541 604 538 591 566 527 579 546 597 606 575 614 582 605 557 558 563 598 571 562 560 582 546 532 528 535 529 568 581 619 559 578 574 583 572 555 601 574 550 604 585 553 582 563 568 538 571 577 572 626 590 549 525 584 584 538 573 569 574 568 534 570 584 589 595 558 561 522 594 636 583 572 620 541 555 562 596 591 571 548 557 527 612 571 575 630 549 567 570 573 550 557 538 544 560 582 557 604 541 567 529 575 581 512 614 591 560 536 553 539 589 559 561 566 563 594 572 590 580 565 592 550 623 562 572 547 561 583 600 596 548 548 546 572 587 558 585 577 563 572 557 562 567 567 589 572 540 555 572 549 550 581 593 554 574 598 587 578 629 572 574 591 629 595 623 592 599 577 606 599 665 642 645 604 607 652 689 624 655 634 662 687 663 610 636 633 628 609 627 629 635 651 642 603 616 619 635 584 606 626 590 619 584 643 617 633 590 606 618 609 635 643 629 625 603 654 568 637 629 630 653 642 675 666 656 653 688 692 713 739 676 701 712 655 689 697 732 685 681 641 742 675 722 729 761 687 662 708 715 738 674 686 709 692 702 675 691 642 635 699 682 694 705 627 676 681 673 662 641 628 638 619 631 652 627 650 626 605 618 633 656 582 630 582 594 605 644 616 667 595 600 612 614 611 620 613 614 605 661 678 621 622 642 562 600 585 609 606 616 640 588 603 622 597 566 592 622 654 632 605 570 620 580 593 602 622 667 563 611 626 612 565 614 577 552 590 623 592 588 588 578 595 585 640 601 619 611 624 604 625 556 652 630 590 577 618 563 586 584 595 602 608 641 613 613 601 603 615 542 590 576 583 575 563 589 556 549 609 601 611 610 595 580 625 607 618 566 574 557 623 599 589 621 569 556 573 611 591 604 609 627 589 616 601 598 564 623 649 566 618 625 671 621 602 596 643 607 613 629 618 612 602 622 603 646 624 647 635 688 581 652 606 657 606 676 646 681 625 635 636 707 705 675 707 719 727 707 710 742 776 841 831 831 852 836 945 991 983 1068 1062 1045 1129 1165 1196 1118 1195 1220 1179 1183 1193 1162 1114 1137 1157 1064 1090 1114 1142 1058 1046 1123 1080 1090 1034 1071 1090 1066 1083 997 1078 1024 1028 1022 982 983 973 915 959 963 928 953 907 860 815 920 810 831 780 851 827 838 789 782 824 748 826 786 802 762 755 817 811 775 763 794 769 768 739 764 702 744 699 759 694 698 713 737 751 738 717 660 753 716 738 678 663 666 724 706 713 717 700 673 685 636 679 663 665 656 690 644 662 624 632 648 641 659 659 643 611 666 647 584 614 644 609 657 642 625 629 622 638 653 608 613 635 589 584 626 591 610 591 620 589 598 628 574 625 634 618 591 570 553 577 619 604 608 568 635 614 579 622 622 608 600 624 557 637 595 646 648 601 631 646 667 650 609 661 646 601 586 642 660 576 688 606 650 650 611 650 664 657 640 677 635 692 615 621 618 633 593 603 609 635 657 627 636 649 629 566 599 651 609 637 653 618 586 629 639 627 614 616 591 538 607 588 621 639 618 602 626 651 575 581 566 607 590 614 586 633 538 584 633 599 593 620 620 589 586 587 605 604 601 605 583 552 586 624 577 588 593 567 603 580 652 581 555 584 624 604 657 614 612 570 609 619 613 585 562 551 590 561 606 588 547 583 596 613 548 600 580 579 594 588 584 594 610 648 567 589 570 630 553 562 586 590 662 599 536 595 564 609 589 616 576 603 600 582 571 584 530 605 645 565 591 572 575 579 569 557 538 578 584 594 607 560 568 566 598 580 574 607 550 585 557 584 605 591 547 565 574 559 573 562 598 641 599 568 532 581 600 571 590 563 507 575 623 537 523 579 521 594 568 605 564 598 579 588 567 583 608 604 588 608 574 589 600 598 597 541 514 631 578 563 600 618 583 568 573 569 576 579 588 606 557 593 600 590 629 557 575 607 576 576 595 580 578 638 586 554 581 556 612 545 560 566 593 594 582 611 561 572 601 589 565 625 574 539 561 553 625 577 551 560 593 571 581 648 545 583 562 564 609 605 581 589 622 574 613 613 583 561 521 606 592 568 617 591 552 569 616 576 581 574 622 585 536 582 573 560 556 593 584 546 586 551 614 583 598 554 590 572 568 535 573 607 527 601 534 550 564 554 548 581 554 560 573 566 604 574 592 606 553 601 571 572 584 562 585 555 607 573 579 588 600 612 556 623 569 627 586 571 589 550 558 548 557 545 536 559 579 580 570 572 598 599 565 562 536 592 598 573 619 581 558 622 574 605 581 637 523 577 625 583 575 568 614 571 625 551 591 563 597 589 571 608 567 560 581 582 588 538 571 548 584 584 583 535 551 570 552 567 595 549 589 573 580 557 580 582 594 535 513 566 603 556 592 589 547 604 607 571 557 598 586 583 577 558 562 617 591 617 603 591 587 594 591 629 580 609 613 620 588 601 606 651 574 588 598 636 581 636 650 655 682 657 648 633 629 626 603 622 653 663 648 592 641 650 692 626 695 581 653 617 657 605 637 590 599 631 575 642 639 556 596 607 612 624 578 618 616 581 593 624 638 640 603 600 609 603 640 622 599 560 564 559 641 587 598 587 571 553 606 575 567 550 627 581 598 566 609 613 624 533 577 574 548 530 612 631 603 600 574 563 591 579 606 556 608 568 583 619 567 556 577 591 570 578 589 539 612 588 578 606 576 541 569 579 605 542 605 510 570 533 576 592 571 560 560 587 554 598 593 571 579 552 583 560 609 583 593 629 596 594 565 584 592 606 564 585 570 578 548 559 599 577 555 578 563 598 550 584 549 561 648 549 545 591 530 570 544 578 580 575 544 571 590 531 613 559 559 601 568 578 583 605 571 589 562 603 600 590 539 610 565 563 592 578 585 584 626 613 606 610 522 587 608 538 619 584 598 583 616 575 594 572 598 587 559 574 587 537 606 601 587 548 595 614 598 555 536 596 622 591 567 576 576 603 567 578 578 596 592 641 561 629 597 585 631 588 597 610 628 623 649 598 591 606 614 653 624 614 588 616 596 617 647 640 617 634 655 628 663 658 652 656 676 654 680 658 683 714 711 689 716 728 783 796 792 844 797 824 834 889 911 920 925 925 958 923 936 1010 1004 956 944 996 949 943 926 911 908 934 927 888 904 937 875 924 859 916 895 912 909 945 877 848 879 843 926 873 874 830 884 882 920 844 838 848 817 837 779 806 791 768 745 761 772 749 725 746 710 781 767 749 750 733 743 697 685 700 687 715 693 699 686 685 683 689 684 677 746 687 667 685 643 642 659 701 707 689 633 692 724 625 619 679 633 711 613 616 625 655 672 627 621 671 630 652 652 621 674 654 637 638 676 646 671 601 656 651 670 635 656 607 647 631 646 694 631 655 660 644 620 602 648 613 645 633 644 632 555 627 620 623 656 604 572 567 626 607 636 633 640 602 620 634 626 579 579 609 634 599 559 627 626 616 588 579 602 556 630 634 591 646 636 625 580 638 577 637 578 584 627 616 650 615 579 660 612 662 639 690 643 593 596 631 629 589 582 629 652 622 611 619 603 689 629 650 624 624 634 609 607 651 650 620 617 636 616 597 601 637 628 644 596 603 599 660 597 618 586 588 581 638 604 610 597 585 593 606 675 637 630 641 616 611 656 642 578 589 602 600 590 619 603 599 608 622 664 603 621 590 620 590 564 552 608 626 606 655 632 590 637 595 591 620 614 599 609 603 598 637 599 672 591 611 604 597 619 639 634 612 596 567 610 586 603 628 614 637 582 631 599 601 661 582 634 614 613 612 621 626 593 626 567 576 572 603 593 587 658 622 613 617 620 567 588 613 627 598 597 626 596 643 593 626 573 633 566 596 600 606 651 625 630 630 634 581 643 638 620 618 614 575 657 615 604 653 606 601 597 590 613 601 619 600 647 611 614 627 624 606 594 622 623 616 647 628 634 645 662 598 598 624 598 607 623 605 594 623 592 591 633 637 595 637 584 607 618 618 613 620 623 606 628 594 580 595 697 623 607 599 596 631 582 632 613 649 584 623 608 637 643 643 609 588 635 577 649 607 606 644 620 624 629 600 588 639 629 605 581 614 655 639 654 681 654 660 543 588 641 628 631 631 616 624 631 609 631 679 658 596 640 577 604 617 634 635 617 598 631 592 606 621 628 633 643 637 586 573 627 610 607 614 570 594 613 589 631 647 588 600 600 584 645 578 627 643 621 630 641 589 642 639 585 619 639 625 584 650 600 631 636 632 593 623 603 613 628 584 600 639 678 636 573 642 613 564 574 622 648 589 567 599 627 614 598 599 648 602 598 602 604 643 652 650 637 554 659 646 603 638 643 621 598 618 609 627 648 610 608 615 624 630 586 587 614 624 602 612 602 672 638 649 553 613 640 620 638 613 620 631 572 654 637 646 597 629 654 605 610 604 637 656 635 618 586 605 625 604 665 578 640 672 643 617 651 608 576 617 639 614 634 575 593 626 596 587 680 616 646 649 625 651 625 681 669 656 664 670 657 675 641 652 699 693 721 744 715 643 675 675 649 681 722 685 683 691 667 693 678 649 634 661 668 664 672 710 649 650 630 701 699 649 659 626 666 666 668 655 625 683 682 658 688 630 697 684 621 701 701 643 663 632 659 700 668 693 665 642 676 656 664 687 681 696 695 695 711 693 688 699 712 694 697 683 717 697 694 687 693 738 653 709 665 659 654 679 698 641 655 655 635 686 676 679 680 711 702 681 680 697 717</counts>
			</dataPoints>
		</scan>
	</xrdMeasurement>
</xrdMeasurements>
