<?xml version="1.0"?>
<xrdMeasurements xmlns="http://www.xrdml.com/XRDMeasurement/2.3" xmlns:xsi="http://www.w3.org/2001/XMLSchema-instance" xsi:schemaLocation="http://www.xrdml.com/XRDMeasurement/2.3 http://www.xrdml.com/XRDMeasurement/2.3/XRDMeasurement.xsd" status="Completed" recordIdentifier="{A52A311E-6F2D-4435-BF70-3073812E3D1B}">
	<comment>
		<entry/>
	</comment>
	<sample type="To be analyzed">
		<id>GPSS_Li1p4Mg0p8Ta0p1Nb0p1Cl4_122625_694efed0ae15af25ac374c52</id>
		<name></name>
		<preparedBy></preparedBy>
	</sample>
	<xrdMeasurement measurementType="Scan" status="Completed" sampleMode="Reflection">
		<usedWavelength intended="K-Alpha 1">
			<kAlpha1 unit="Angstrom">1.5405980</kAlpha1>
			<kAlpha2 unit="Angstrom">1.5444260</kAlpha2>
			<kBeta unit="Angstrom">1.3922500</kBeta>
			<ratioKAlpha2KAlpha1>0.5000</ratioKAlpha2KAlpha1>
		</usedWavelength>
		<incidentBeamPath>
			<radius unit="mm">145.00</radius>
			<xRayTube id="1010048" name="Empyrean Cu LFF HR (9430 033 7310x)">
				<tension unit="kV">40.0</tension>
				<current unit="mA">15.0</current>
				<anodeMaterial>Cu</anodeMaterial>
				<focus type="Line">
					<length unit="mm">12.0</length>
					<width unit="mm">0.4</width>
					<takeOffAngle unit="deg">6.0</takeOffAngle>
				</focus>
			</xRayTube>
			<sollerSlit id="21010002" name="Soller slits 0.04 rad.">
				<opening unit="rad">0.0400</opening>
			</sollerSlit>
			<mask id="22031000" name="Fixed mask 13 mm">
				<width unit="mm">9.00</width>
			</mask>
			<divergenceSlit id="22120001" name="Divergence slit 1°" xsi:type="fixedDivergenceSlitType">
				<distanceToSample unit="mm">50.00</distanceToSample>
				<height unit="mm">1.52</height>
			</divergenceSlit>
		</incidentBeamPath>
		<sampleMovement xsi:type="spinningSampleMovementType">
			<spinnerRevolutionTime unit="seconds">1.0</spinnerRevolutionTime>
		</sampleMovement>
		<diffractedBeamPath>
			<radius unit="mm">145.00</radius>
			<antiScatterSlit id="22090040" name="AS slit 9 mm (PIXcel)" xsi:type="fixedAntiScatterSlitType">
				<height unit="mm">9.00</height>
			</antiScatterSlit>
			<sollerSlit id="21020003" name="Large Soller slits 0.04 rad.">
				<opening unit="rad">0.0400</opening>
			</sollerSlit>
			<filter id="20030001" name="Large beta-filter Nickel">
				<material>Ni</material>
				<thickness unit="mm">0.020</thickness>
			</filter>
			<detector id="7010019" name="PIXcel1D-Medipix3 detector" xsi:type="rtmsDetectorType">
				<phd unit="keV">
					<lowerLevel>4.02</lowerLevel>
					<upperLevel>11.27</upperLevel>
				</phd>
				<mode>Scanning</mode>
				<activeLength unit="deg">5.542</activeLength>
			</detector>
		</diffractedBeamPath>
		<scan appendNumber="0" mode="Continuous" scanAxis="Gonio" status="Completed">
			<header>
				<startTimeStamp>2025-12-28T11:39:08-08:00</startTimeStamp>
				<endTimeStamp>2025-12-28T11:47:16-08:00</endTimeStamp>
				<author>
					<name>AutomatedUser</name>
				</author>
				<source>
					<applicationSoftware version="1.7b (136)">PANalytical Aeris Instrument Suite</applicationSoftware>
					<instrumentControlSoftware version="3.2.00000000 20240306">AERIS</instrumentControlSoftware>
					<instrumentID>950485</instrumentID>
				</source>
			</header>
			<dataPoints>
				<positions axis="2Theta" unit="deg">
					<startPosition>10.00943322</startPosition>
					<endPosition>99.99442286</endPosition>
				</positions>
				<positions axis="Omega" unit="deg">
					<startPosition>5.00471661</startPosition>
					<endPosition>49.99721143</endPosition>
				</positions>
				<commonCountingTime unit="seconds">12.495</commonCountingTime>
				<counts unit="counts">3274 3108 3289 3312 3244 3298 3240 3247 3213 3118 3327 3201 3342 3230 3409 3276 3281 3194 3298 3287 3265 3311 3309 3209 3210 3364 3331 3357 3384 3325 3293 3260 3330 3316 3297 3343 3298 3316 3331 3369 3370 3347 3386 3356 3505 3332 3429 3338 3418 3370 3434 3461 3541 3470 3391 3451 3481 3460 3411 3340 3386 3351 3427 3433 3394 3433 3518 3338 3361 3422 3519 3492 3496 3451 3474 3468 3468 3426 3472 3492 3454 3511 3529 3406 3545 3672 3549 3628 3430 3464 3634 3611 3574 3630 3498 3667 3584 3593 3675 3715 3571 3607 3577 3519 3551 3602 3612 3605 3626 3618 3767 3595 3692 3668 3743 3688 3750 3643 3752 3747 3703 3596 3687 3651 3705 3728 3724 3649 3694 3686 3757 3819 3793 3760 3756 3593 3736 3764 3773 3717 3799 3828 3727 3633 3816 3683 3776 3809 3803 3799 3827 3844 3766 3987 3763 3759 3783 3764 3720 3839 3774 3804 3800 3817 3798 3679 3771 3844 3716 3837 3763 3889 3929 3899 3862 3853 3955 3792 3792 3850 3775 3726 3763 3792 3816 3911 3936 3771 3725 3878 3812 3811 3823 3716 3682 3862 3795 3879 3718 3747 3887 3662 3820 3709 3788 3782 3770 3722 3765 3664 3735 3712 3676 3696 3763 3678 3745 3725 3707 3644 3646 3659 3738 3659 3645 3752 3702 3684 3666 3624 3610 3740 3680 3717 3592 3806 3707 3775 3598 3571 3634 3588 3720 3508 3610 3626 3664 3618 3649 3611 3597 3582 3524 3607 3553 3578 3591 3553 3492 3619 3622 3681 3479 3558 3515 3579 3608 3520 3544 3573 3519 3585 3503 3516 3606 3465 3547 3463 3432 3500 3489 3502 3535 3545 3499 3435 3464 3458 3530 3391 3530 3576 3444 3499 3404 3424 3565 3538 3623 3505 3603 3525 3441 3497 3501 3406 3476 3435 3366 3563 3450 3490 3426 3556 3504 3480 3586 3586 3484 3547 3444 3555 3522 3428 3541 3506 3493 3546 3576 3463 3555 3505 3570 3508 3538 3566 3630 3514 3591 3543 3581 3624 3495 3600 3602 3646 3693 3734 3578 3622 3653 3582 3538 3595 3364 3595 3546 3555 3548 3522 3619 3698 3654 3463 3573 3518 3587 3675 3594 3648 3710 3594 3583 3690 3699 3677 3701 3643 3636 3780 3624 3733 3660 3741 3687 3651 3681 3688 3688 3736 3707 3727 3727 3778 3666 3825 3675 3722 3512 3621 3675 3695 3725 3643 3708 3785 3751 3849 3799 3699 3706 3689 3691 3690 3823 3801 3788 3865 3725 3858 3858 3784 3725 3790 3815 3852 3769 3868 3912 3920 3895 3837 3859 3981 3945 3911 3990 3940 3965 3976 4009 4055 4035 4090 4157 4274 4233 4384 4309 4405 4510 4607 4576 4835 4684 4823 4852 4849 4944 5034 4971 5216 5237 5227 5318 5327 5329 5123 4980 4957 4821 4600 4536 4453 4295 4228 4267 4247 4096 4138 4126 4235 4128 4267 4225 4204 4381 4342 4288 4462 4341 4287 4280 4284 4252 4147 4107 3913 3927 3704 3780 3565 3777 3652 3597 3556 3471 3526 3398 3441 3481 3420 3443 3455 3405 3497 3381 3376 3423 3360 3349 3388 3389 3347 3371 3416 3366 3346 3388 3373 3346 3307 3351 3292 3362 3393 3300 3300 3273 3250 3273 3235 3275 3191 3232 3215 3284 3159 3232 3196 3400 3212 3315 3281 3260 3316 3172 3214 3130 3232 3200 3246 3181 3168 3193 3171 3051 3179 3195 3240 3311 3237 3220 3070 3058 3021 3054 3124 3004 3011 3144 3018 3036 3065 2981 3020 3112 3031 3068 3142 3074 3019 3062 3105 2976 3057 3061 3127 3068 3064 3059 3033 3008 3010 3023 3021 2984 2993 3032 2977 2956 2947 3002 3004 3028 2866 3018 3015 3002 3043 3032 3073 2935 2997 2928 3013 3040 3111 2990 2833 2955 3010 2876 2936 2985 2930 3038 3066 2866 2891 2940 2880 2910 2807 2892 2874 3016 2937 2967 2929 2896 2901 2890 2900 2754 2927 2855 2787 2892 2951 2864 2851 2928 2945 2921 3023 2798 2790 2940 2723 2945 2880 2827 2856 2902 2798 2780 2903 2826 2875 2795 2774 2825 2888 2873 2896 2802 2758 2914 2806 2863 2760 2769 2850 2792 2775 2784 2777 2875 2801 2873 2758 2720 2782 2786 2801 2787 2909 2827 2873 2813 2793 2861 2853 2852 2848 2763 2834 2772 2807 2739 2746 2706 2826 2872 2811 2815 2900 2789 2775 2679 2780 2742 2740 2829 2801 2747 2815 2766 2751 2790 2716 2790 2700 2775 2727 2645 2767 2710 2668 2740 2794 2821 2733 2737 2669 2799 2751 2684 2801 2624 2720 2745 2738 2770 2700 2813 2669 2685 2646 2668 2758 2673 2680 2769 2757 2715 2697 2829 2671 2716 2865 2755 2642 2660 2783 2667 2771 2738 2641 2755 2735 2685 2800 2627 2683 2637 2598 2587 2746 2688 2664 2589 2642 2555 2651 2611 2619 2673 2665 2699 2732 2623 2670 2748 2632 2627 2655 2741 2744 2605 2675 2657 2571 2600 2661 2628 2618 2692 2608 2582 2452 2686 2679 2618 2556 2666 2620 2498 2539 2637 2596 2643 2444 2587 2684 2600 2565 2566 2608 2570 2535 2625 2699 2578 2620 2456 2620 2608 2675 2613 2657 2569 2535 2594 2458 2569 2655 2564 2557 2598 2623 2578 2599 2559 2575 2539 2534 2460 2587 2584 2586 2552 2526 2554 2676 2464 2520 2571 2539 2603 2558 2489 2661 2470 2556 2601 2483 2450 2585 2619 2443 2364 2482 2546 2521 2588 2470 2371 2433 2478 2543 2461 2437 2461 2618 2479 2523 2460 2591 2442 2491 2517 2494 2431 2476 2487 2493 2457 2472 2467 2438 2481 2439 2414 2375 2373 2432 2467 2437 2412 2383 2388 2385 2338 2420 2494 2420 2455 2436 2367 2426 2431 2455 2408 2442 2449 2373 2374 2373 2375 2419 2401 2310 2402 2406 2401 2498 2393 2397 2366 2459 2447 2413 2430 2308 2488 2385 2299 2472 2440 2399 2466 2388 2331 2389 2430 2344 2418 2367 2451 2331 2434 2463 2376 2393 2377 2319 2390 2396 2371 2403 2355 2359 2378 2291 2437 2379 2396 2375 2428 2507 2421 2487 2441 2411 2325 2434 2349 2433 2328 2361 2397 2417 2361 2290 2397 2263 2347 2394 2324 2428 2444 2365 2437 2403 2351 2407 2379 2343 2376 2429 2364 2200 2397 2326 2490 2385 2462 2354 2421 2367 2394 2373 2427 2501 2343 2329 2406 2351 2470 2390 2356 2277 2396 2355 2379 2368 2385 2407 2462 2474 2395 2321 2356 2438 2403 2302 2459 2345 2469 2377 2417 2451 2382 2346 2436 2521 2353 2361 2350 2294 2371 2360 2331 2284 2356 2418 2351 2393 2370 2432 2326 2416 2408 2360 2319 2416 2363 2392 2331 2358 2380 2303 2374 2330 2224 2445 2367 2359 2286 2308 2310 2315 2367 2386 2318 2358 2324 2262 2264 2328 2407 2303 2385 2271 2295 2354 2272 2346 2256 2337 2355 2303 2318 2220 2308 2237 2264 2268 2292 2270 2179 2249 2286 2317 2255 2254 2260 2191 2269 2348 2285 2324 2237 2256 2310 2334 2209 2172 2303 2169 2212 2299 2186 2189 2213 2223 2227 2221 2212 2200 2187 2169 2138 2143 2165 2054 2114 2203 2107 2188 2258 2151 2115 2083 2206 2135 2172 2178 2116 2142 2213 2128 2166 2172 2139 2174 2152 2128 2076 2065 2109 2082 2104 2095 2142 2138 2132 2127 2164 2089 2055 2050 1996 2100 1980 2036 2102 2084 1959 1948 1945 2002 1968 2028 1982 2081 2015 1964 2003 1935 2033 1953 2007 1900 1923 1956 1888 1880 1923 1930 1842 1912 1861 1924 1977 1849 1870 1915 1842 1825 1836 1842 1849 1907 1862 1801 1810 1772 1788 1819 1793 1773 1792 1827 1719 1809 1758 1811 1807 1772 1832 1768 1778 1800 1695 1837 1794 1725 1739 1743 1739 1696 1783 1764 1676 1732 1740 1625 1795 1739 1720 1710 1751 1694 1694 1653 1684 1724 1741 1788 1751 1674 1755 1682 1675 1735 1742 1762 1684 1692 1695 1675 1657 1566 1664 1686 1769 1742 1745 1744 1671 1688 1610 1685 1602 1596 1646 1612 1613 1752 1631 1656 1671 1617 1623 1633 1652 1578 1638 1706 1682 1676 1630 1593 1661 1597 1614 1607 1626 1631 1621 1624 1682 1633 1643 1631 1501 1602 1636 1647 1603 1510 1634 1577 1615 1649 1589 1658 1646 1606 1540 1644 1626 1605 1667 1547 1650 1558 1527 1565 1664 1545 1591 1663 1600 1564 1606 1592 1614 1551 1606 1639 1527 1573 1601 1632 1619 1563 1679 1625 1556 1586 1567 1631 1560 1547 1637 1623 1586 1659 1613 1615 1540 1607 1616 1578 1584 1589 1590 1505 1628 1652 1640 1616 1586 1602 1633 1599 1615 1563 1557 1650 1612 1633 1558 1651 1620 1564 1567 1629 1568 1623 1586 1627 1643 1611 1618 1592 1494 1574 1659 1626 1694 1626 1571 1638 1517 1592 1596 1604 1580 1608 1677 1661 1621 1592 1650 1681 1608 1561 1492 1551 1538 1563 1523 1633 1598 1618 1553 1646 1614 1594 1608 1619 1585 1608 1518 1625 1636 1511 1594 1579 1521 1531 1638 1519 1508 1517 1597 1575 1553 1598 1572 1477 1592 1464 1627 1512 1592 1554 1518 1533 1513 1511 1532 1558 1538 1518 1584 1564 1496 1593 1565 1544 1568 1545 1589 1436 1539 1626 1599 1562 1537 1505 1518 1447 1536 1570 1517 1495 1544 1502 1496 1556 1507 1458 1565 1566 1498 1466 1465 1412 1564 1504 1474 1526 1482 1447 1531 1456 1435 1508 1486 1393 1413 1487 1455 1457 1389 1404 1409 1428 1402 1399 1471 1379 1454 1369 1351 1382 1379 1351 1394 1343 1357 1413 1312 1357 1352 1399 1332 1369 1404 1416 1416 1383 1377 1426 1364 1362 1311 1361 1324 1368 1356 1299 1276 1304 1339 1319 1328 1349 1290 1310 1321 1289 1332 1302 1333 1289 1317 1351 1274 1333 1345 1275 1289 1258 1288 1273 1300 1240 1330 1315 1275 1222 1291 1277 1266 1300 1300 1252 1255 1199 1273 1277 1258 1204 1168 1211 1226 1179 1208 1239 1208 1256 1241 1261 1190 1251 1240 1181 1237 1252 1271 1212 1272 1159 1268 1247 1325 1259 1242 1225 1242 1203 1239 1218 1306 1307 1340 1319 1388 1316 1340 1356 1365 1423 1354 1440 1462 1421 1420 1495 1490 1504 1549 1652 1616 1733 1686 1681 1718 1738 1760 1820 1847 1882 1895 1908 1925 1945 1882 1791 1702 1765 1683 1689 1656 1573 1543 1561 1466 1454 1478 1374 1481 1386 1407 1399 1516 1459 1418 1388 1428 1418 1353 1418 1414 1301 1378 1303 1295 1374 1298 1336 1288 1299 1294 1149 1313 1247 1249 1223 1205 1220 1186 1259 1210 1250 1146 1209 1152 1246 1264 1269 1119 1263 1131 1195 1251 1170 1196 1280 1269 1191 1247 1248 1294 1318 1278 1328 1338 1376 1457 1492 1490 1477 1508 1605 1669 1593 1701 1848 1688 1870 1847 1933 2159 2129 2177 2269 2568 2613 2818 3036 3331 3548 3659 3855 4280 4320 4796 5094 5544 5930 6324 6890 7409 7892 8422 9439 10010 10598 11395 12359 12972 13360 13728 13259 12961 12093 11123 10162 9445 8659 7820 6906 5977 4940 4193 3578 3158 2833 2586 2340 2292 2154 2174 2122 2131 2010 2006 2109 2136 2151 2126 2175 2293 2294 2199 2233 2283 2201 2232 2230 2094 2034 1902 1873 1820 1768 1581 1620 1524 1484 1475 1478 1482 1370 1468 1416 1370 1428 1401 1424 1366 1287 1310 1245 1232 1193 1231 1113 1080 1108 1162 1069 1033 1077 1058 960 994 1057 1024 968 988 1015 969 1006 1020 951 950 1006 965 972 931 993 929 989 981 972 996 964 955 970 937 962 973 986 950 928 955 930 902 966 971 952 954 981 939 959 972 983 905 912 923 912 890 888 927 926 933 901 897 873 904 914 870 886 861 891 892 954 870 883 901 859 914 888 926 853 839 843 841 818 883 912 865 865 831 875 876 842 842 875 876 841 887 852 879 877 814 835 881 870 874 819 834 857 847 830 836 855 835 843 801 827 879 833 799 878 861 867 826 825 807 829 905 856 852 840 822 759 880 849 870 787 832 823 839 824 865 831 827 874 781 850 802 823 798 826 820 787 816 809 814 861 811 802 803 839 835 801 795 814 821 766 779 774 837 858 828 831 825 839 793 872 848 866 834 811 813 854 785 811 784 804 804 795 839 766 812 776 809 807 805 840 815 778 758 802 785 792 829 844 758 809 798 763 808 775 788 738 730 790 768 807 792 768 791 730 821 821 807 742 749 792 823 754 720 776 750 807 786 763 741 783 773 737 763 772 763 785 738 801 802 736 792 718 743 791 771 838 748 816 845 821 848 800 820 792 800 803 762 816 776 814 823 810 804 814 820 784 752 844 814 868 797 789 791 847 877 845 866 780 764 830 792 822 838 811 889 815 858 814 837 865 775 850 805 778 777 835 822 787 842 823 875 843 785 879 815 811 926 865 826 873 876 846 892 918 924 1037 1013 1030 1033 1074 1088 1180 1155 1239 1249 1202 1333 1346 1432 1451 1519 1575 1605 1691 1710 1838 1986 2045 2144 2332 2391 2640 2768 2947 3187 3422 3803 4081 4288 4742 5028 5372 5828 6359 6755 7333 7827 8412 9001 9205 9911 10167 10327 10491 10069 9727 9587 9104 8790 8117 7730 6955 6224 5520 5007 4401 3953 3610 3274 2898 2655 2400 2203 2062 1917 1925 1854 1873 1814 1883 1840 1848 1890 1915 1882 1964 1971 2016 1994 2038 2007 2144 2214 2136 2183 2132 2137 2037 2015 2071 1940 1930 1815 1777 1671 1636 1568 1504 1381 1366 1291 1285 1205 1154 1034 1056 1010 1021 1001 980 939 932 863 883 843 888 840 798 846 788 814 745 808 827 821 807 795 819 790 778 776 812 774 755 758 759 743 734 730 695 798 762 752 753 723 724 752 743 711 763 757 713 755 707 735 728 754 720 794 725 746 721 696 760 771 725 731 731 713 646 711 735 748 703 701 655 738 751 734 708 678 724 732 756 705 717 664 690 696 693 746 699 745 683 667 648 709 689 741 668 725 686 697 707 688 728 692 742 680 719 689 673 680 731 698 697 709 730 717 751 747 730 681 721 771 783 793 732 683 736 660 690 638 714 690 715 755 758 751 731 748 716 706 765 767 778 711 723 795 738 723 727 761 743 721 771 731 756 766 721 776 792 766 790 815 769 713 721 783 782 742 737 782 745 746 757 755 738 776 735 724 721 794 740 685 703 704 724 710 739 679 750 733 726 743 704 694 736 739 691 719 674 677 693 715 695 715 704 651 674 676 702 700 672 638 671 655 645 688 705 677 678 632 670 668 706 707 661 615 654 671 691 641 676 639 686 630 695 686 645 673 664 717 653 669 625 662 693 665 630 666 672 669 655 682 594 647 583 651 619 605 648 626 620 566 667 601 648 637 651 626 620 644 633 642 647 588 620 634 642 613 630 611 646 623 594 624 583 623 581 618 611 612 624 649 621 568 591 621 622 599 586 599 573 648 616 612 550 562 612 581 559 599 607 557 583 576 599 587 597 574 604 595 556 607 583 573 562 603 592 618 615 511 619 536 606 545 640 571 610 552 623 590 577 612 574 556 584 569 597 561 587 568 552 532 558 577 569 561 619 553 615 600 584 573 610 572 557 584 553 560 584 568 590 526 565 567 532 571 575 585 570 588 496 567 561 516 543 584 535 613 560 554 590 517 519 554 563 592 557 530 526 554 572 576 561 518 547 561 533 526 529 541 560 517 573 546 562 567 557 542 513 547 533 561 549 531 577 542 560 494 579 533 577 543 546 541 510 564 517 505 542 529 571 592 539 564 545 481 561 533 575 488 507 554 533 569 555 535 525 542 551 505 527 508 561 560 543 549 495 587 527 534 537 500 574 549 573 551 563 512 511 560 560 535 546 591 547 562 569 506 535 485 468 515 565 516 544 504 543 575 528 529 487 519 555 569 496 501 558 487 564 508 573 487 533 520 556 575 576 548 537 572 530 513 507 526 546 484 538 531 509 515 529 525 513 539 578 588 566 540 502 538 489 544 514 533 532 538 486 529 545 513 482 559 500 550 501 502 522 524 521 545 550 553 567 508 542 512 491 484 572 520 560 502 474 493 496 545 510 481 532 543 522 512 543 456 521 512 506 496 534 533 511 499 519 483 527 502 538 534 513 528 519 498 525 532 486 543 502 517 503 542 534 502 492 508 521 519 496 508 490 517 544 494 494 511 523 501 512 544 498 520 498 492 491 514 536 525 533 487 506 499 447 519 470 512 504 500 522 504 486 530 498 510 484 498 505 500 495 555 466 532 511 469 502 491 490 471 515 469 522 490 505 511 522 545 516 490 514 546 473 529 495 516 476 491 543 519 491 517 535 486 531 539 498 534 509 536 500 505 497 520 510 525 509 532 525 480 494 495 488 500 506 480 518 538 524 500 472 488 486 518 486 509 501 476 541 475 502 520 487 503 489 482 483 460 486 514 469 496 487 480 543 468 490 494 482 476 504 512 471 499 485 496 519 505 457 480 476 441 505 502 477 512 456 485 481 500 505 478 442 501 485 510 464 482 498 504 471 439 506 512 504 489 486 486 491 496 514 507 484 486 476 491 491 520 485 519 508 419 506 459 458 484 449 466 436 484 485 482 492 490 478 514 510 453 473 452 477 439 470 514 517 476 549 490 494 505 506 547 476 489 452 495 487 460 479 500 505 528 518 478 520 468 491 496 520 464 515 441 506 493 451 509 471 480 537 524 554 526 470 507 468 506 555 499 503 496 460 506 459 480 508 490 485 504 447 472 520 521 506 482 546 502 518 497 493 540 497 549 500 510 539 501 516 508 524 519 579 558 530 537 530 564 578 538 550 567 600 659 639 676 703 660 703 765 739 760 822 817 881 962 945 1073 1175 1123 1161 1319 1235 1312 1371 1406 1386 1422 1466 1382 1355 1361 1321 1221 1186 1201 1092 1070 962 1027 886 883 822 803 749 733 715 654 615 625 545 563 573 544 551 550 545 491 509 506 552 524 533 544 480 541 528 546 509 506 501 505 493 466 554 505 462 575 502 539 549 515 483 526 541 501 512 519 569 553 523 589 537 539 550 549 595 561 545 547 549 512 551 579 630 576 625 473 514 485 481 499 525 515 508 483 530 475 491 482 496 516 480 536 482 481 485 461 478 483 451 473 445 454 454 492 457 533 471 435 515 464 497 499 485 487 466 460 482 469 504 507 485 457 526 457 466 470 482 465 475 470 482 438 499 477 472 475 504 481 507 468 465 451 478 491 498 486 491 480 484 500 479 447 451 519 467 502 478 492 477 494 485 459 462 484 480 483 503 481 506 486 461 476 428 499 453 483 458 425 474 512 465 428 495 441 485 452 487 479 435 482 435 490 434 490 484 450 447 443 444 429 473 439 410 481 422 433 502 458 452 480 454 487 453 449 435 432 457 404 498 516 471 419 475 470 506 505 447 456 485 489 460 451 451 486 500 464 447 503 516 501 479 483 433 460 451 476 472 479 469 521 443 482 439 498 452 498 460 458 425 441 502 445 510 472 442 491 427 483 456 466 475 514 469 499 491 497 473 516 492 472 466 488 502 491 474 504 505 494 501 486 503 480 470 496 477 493 498 523 523 490 454 507 460 511 499 535 519 533 461 512 492 503 477 497 493 487 494 474 478 436 517 498 499 526 538 567 493 531 502 505 570 567 563 579 535 557 548 537 581 607 553 642 653 606 646 657 677 701 717 691 768 788 850 828 895 902 893 981 986 1052 1061 1098 1259 1259 1459 1527 1629 1801 1950 2094 2215 2386 2684 2711 3163 3280 3640 4107 4215 4636 4821 5186 5510 5770 6070 6265 6608 6811 6610 6540 6431 6059 5657 5490 5093 4840 4523 4458 4135 3931 3539 3298 3199 2943 2598 2304 2125 1940 1720 1545 1410 1293 1140 1086 1114 1031 964 907 947 895 867 902 845 855 879 917 946 909 882 907 981 988 942 1039 983 1059 1007 1100 1127 1098 1091 1152 1140 1172 1110 1122 1120 1164 1117 1103 1080 1107 1038 1015 1007 921 999 881 972 872 865 883 837 889 828 845 853 822 845 812 831 739 801 742 709 748 728 775 765 698 720 723 663 661 650 657 667 648 652 628 609 579 615 639 546 606 554 515 541 532 503 533 549 551 555 509 507 468 533 493 524 502 500 532 507 479 462 478 469 536 474 499 515 510 459 508 455 474 472 492 419 495 466 465 476 471 428 438 408 461 455 447 492 498 473 484 454 428 458 435 429 424 425 424 416 487 471 458 450 486 468 434 438 478 456 464 477 461 468 426 443 475 405 447 415 430 431 439 478 491 441 458 460 515 473 453 474 529 484 506 503 510 502 532 522 564 581 558 573 578 575 679 640 687 687 689 756 746 789 750 787 795 763 767 742 708 683 664 686 685 632 660 666 601 636 595 598 541 557 545 549 505 485 481 501 454 444 447 474 466 449 451 421 431 441 420 454 414 448 428 456 415 388 382 444 490 499 446 491 465 464 445 469 445 469 434 484 427 467 406 474 400 479 506 470 439 469 426 448 504 439 480 482 424 407 409 431 424 421 437 412 413 406 446 423 407 409 410 389 424 430 407 434 410 407 404 372 403 418 385 425 406 333 415 383 410 382 428 383 422 381 366 403 381 434 442 389 396 374 430 392 406 419 407 409 395 389 375 410 374 446 400 385 363 385 384 409 391 432 352 390 430 435 391 399 414 415 400 379 406 388 411 381 394 394 409 417 413 388 411 407 383 425 366 387 378 380 379 399 405 358 403 371 401 414 390 403 346 390 415 401 365 375 429 384 412 381 402 355 399 387 363 421 363 394 344 381 386 430 390 390 411 382 400 376 421 350 395 405 387 383 389 428 407 406 413 375 382 386 410 387 406 374 377 422 372 457 373 382 389 382 393 364 426 419 408 391 413 386 379 368 354 374 372 382 429 365 367 359 396 333 390 390 408 407 383 346 357 383 381 369 359 403 393 402 385 403 427 407 401 409 386 365 408 371 360 371 390 409 386 385 355 375 375 379 352 371 406 400 403 405 437 369 402 397 411 370 425 388 406 419 438 458 433 379 386 405 404 432 421 393 403 411 407 430 403 392 442 351 410 389 402 459 425 408 439 422 425 433 394 402 420 424 443 454 423 440 445 405 442 419 439 427 403 398 433 435 432 414 436 419 436 480 421 454 432 392 437 412 403 440 436 400 424 418 438 457 398 437 417 440 460 415 427 425 459 437 422 441 409 408 400 425 396 438 386 417 411 426 438 413 420 461 434 476 435 400 396 391 409 406 413 408 418 423 441 425 464 424 439 441 429 424 436 423 387 406 390 417 399 415 425 395 393 438 394 402 398 389 395 412 403 397 380 420 403 389 371 421 367 435 387 394 383 389 383 416 407 399 399 361 402 362 390 390 378 381 399 371 392 380 369 365 393 381 413 392 374 352 350 405 371 392 384 382 360 375 370 405 388 359 384 383 380 400 382 359 393 348 403 363 344 377 400 376 374 333 394 354 379 365 373 378 378 356 354 358 364 382 404 368 393 381 392 349 395 399 329 371 362 352 365 400 369 334 392 348 431 395 367 369 389 365 364 377 390 366 355 419 380 384 351 424 409 398 381 337 376 404 356 409 371 399 407 398 392 408 468 461 443 445 455 394 434 447 446 474 430 489 432 436 427 453 421 450 456 466 457 443 402 390 442 439 414 462 444 456 459 443 436 422 451 455 478 466 496 469 496 499 544 533 577 576 631 644 587 612 685 684 689 747 766 821 839 954 1014 1075 1163 1229 1336 1367 1612 1641 1759 1861 1969 2104 2163 2167 2282 2346 2271 2358 2340 2377 2318 2304 2174 2152 1961 1935 1764 1775 1635 1562 1492 1452 1438 1324 1311 1289 1139 1154 1095 908 806 826 701 687 617 577 575 544 489 499 513 505 476 507 477 457 462 468 458 461 452 479 455 440 435 490 478 478 487 500 470 542 511 494 517 525 502 509 541 559 517 550 551 557 536 576 609 575 604 598 568 559 618 582 583 581 559 553 544 524 550 491 508 514 524 513 490 465 523 472 450 467 456 462 465 440 448 390 411 412 437 406 386 390 401 395 407 433 415 408 379 398 384 372 386 395 383 366 383 378 338 373 316 388 395 348 410 351 380 361 337 355 368 331 357 361 356 367 389 400 360 368 334 383 342 346 350 329 357 347 359 354 365 391 378 377 350 370 344 339 341 352 358 374 350 336 351 382 350 332 333 377 360 360 383 360 385 354 339 341 351 331 350 393 349 383 358 351 377 369 386 355 346 343 382 364 367 362 370 315 334 336 379 419 361 329 356 395 355 394 364 373 375 351 394 399 392 393 355 397 433 407 397 415 399 430 454 476 456 522 475 496 450 485 501 549 543 562 619 632 659 663 738 707 794 821 848 910 1015 1105 1200 1300 1334 1506 1692 1780 1950 2074 2302 2324 2446 2553 2724 2630 2591 2409 2527 2300 2205 1960 1886 1810 1751 1607 1634 1589 1589 1612 1558 1494 1452 1336 1268 1174 1089 950 865 761 719 686 624 617 546 490 514 457 486 457 456 473 456 448 462 447 453 416 464 404 406 435 433 437 414 425 408 450 405 435 473 438 465 437 480 483 444 446 469 464 486 528 504 494 501 500 549 520 559 563 562 552 548 585 562 561 539 523 523 498 491 533 512 464 455 472 474 467 426 462 421 478 435 430 406 408 425 384 383 411 378 372 370 385 361 393 416 384 371 414 406 390 434 434 414 407 417 433 462 450 454 470 400 424 435 398 405 407 404 402 379 390 415 371 376 387 382 374 346 390 363 362 351 406 371 326 347 374 367 370 336 327 358 356 347 375 349 386 373 404 366 334 404 357 391 374 411 388 365 422 423 442 420 418 433 461 479 493 541 539 580 579 560 600 617 626 632 659 638 656 586 604 618 627 563 568 552 547 560 540 528 498 522 480 490 507 505 474 448 419 419 422 409 408 401 395 409 379 354 355 371 339 387 360 339 342 320 372 314 356 342 332 349 344 316 302 363 345 321 338 332 364 331 357 311 346 350 352 352 361 290 324 328 300 344 334 378 324 368 333 305 346 313 373 310 364 370 338 346 324 306 325 294 319 298 350 337 344 323 340 328 357 317 337 323 311 334 356 311 310 322 344 324 340 362 360 335 325 330 316 314 362 357 329 378 316 315 364 332 333 325 365 339 336 346 338 371 333 329 357 335 335 314 301 284 323 333 337 316 310 336 324 341 312 326 311 280 313 289 320 281 292 327 354 312 322 313 324 323 332 257 338 318 284 295 292 295 307 285 326 325 278 294 314 299 331 332 291 279 312 312 317 285 298 318 299 317 297 295 331 279 315 289 312 241 313 308 308 298 309 291 266 323 302 294 334 305 309 293 349 279 302 304 307 292 288 293 282 276 268 279 288 284 280 303 279 321 268 324 294 263 292 261 295 287 284 275 279 326 295 305 284 283 283 306 315 293 280 284 309 308 300 282 284 293 299 305 263 286 284 299 302 275 267 309 311 281 245 284 301 294 294 360 276 297 301 277 274 286 291 271 289 296 286 280 263 304 270 330 281 276 293 303 283 310 291 278 316 285 286 277 285 321 293 267 302 283 296 305 301 294 281 310 296 274 311 316 285 300 285 300 305 292 323 302 278 268 282 283 305 278 312 303 324 276 293 287 266 300 264 276 286 324 309 260 298 276 289 277 309 268 318 258 277 257 290 264 279 273 277 288 260 275 256 323 274 277 278 318 259 306 271 299 295 330 267 290 305 268 290 237 308 298 270 247 265 303 266 269 288 292 259 318 308 264 282 287 288 298 274 320 263 257 262 233 266 262 234 299 245 314 266 271 260 263 286 242 258 288 283 237 286 276 274 275 312 221 289 306 309 269 284 257 274 272 257 312 285 290 265 284 287 266 269 267 288 288 282 267 265 263 288 296 268 283 298 312 292 293 275 277 270 277 273 286 268 268 272 284 258 281 295 293 280 299 309 321 308 316 316 298 278 337 312 359 367 323 382 354 371 382 408 388 406 417 447 483 462 455 512 488 462 434 483 487 470 512 446 446 407 397 403 380 391 408 411 379 409 387 395 386 377 392 373 328 337 343 329 295 318 320 304 299 285 274 269 286 272 300 295 278 273 315 245 299 307 295 262 296 259 283 265 269 276 247 270 265 275 261 288 259 302 313 293 281 247 292 271 300 271 264 269 249 250 260 296 260 260 266 298 285 270 283 272 262 288 240 274 232 314 303 289 270 273 290 247 261 307 299 282 301 270 260 299 289 271 258 290 294 259 275 239 311 284 322 291 243 270 292 296 295 283 291 282 298 284 273 258 263 284 318 245 289 286 300 277 278 292 276 275 278 263 248 284 264 286 278 286 276 292 286 272 264 229 298 278 273 282 291 275 240 265 279 264 250 281 264 261 284 270 265 284 287 281 297 283 286 265 301 259 284 292 304 309 256 294 271 273 262 289 256 266 298 288 275 241 313 263 298 295 284 317 257 270 248 304 282 299 236 282 262 282 305 279 256 318 268 263 274 265 273 275 283 264 286 272 281 266 249 265 285 270 290 304 249 292 265 248 246 302 274 291 294 310 290 276 294 284 273 264 265 285 276 286 269 272 294 288 274 275 271 271 300 290 280 295 295 335 317 317 288 285 295 326 335 332 354 333 315 342 379 334 370 384 410 415 452 439 469 434 469 509 539 610 632 656 709 702 714 753 822 739 769 780 767 793 778 779 751 700 670 718 682 682 668 690 652 618 614 649 597 599 626 604 541 565 512 482 510 499 464 419 426 401 423 399 369 358 349 383 351 309 316 280 325 307 304 293 290 308 273 271 292 318 296 301 286 287 274 301 269 298 287 287 276 284 274 288 281 320 283 318 303 312 293 316 299 308 299 309 292 281 300 294 297 306 282 276 344 302 317 311 321 293 318 320 335 321 288 269 315 341 294 332 334 368 344 336 333 338 334 352 331 323 320 329 315 327 329 299 298 299 303 296 314 313 316 308 301 302 299 317 314 259 285 309 281 296 285 247 257 262 294 306 294 257 300 274 259 278 249 284 261 261 260 301 263 291 297 269 266 290 270 291 278 250 262 280 301 250 297 271 309 290 289 273 284 314 323 314 307 286 328 306 347 340 288 297 316 302 313 299 279 294 294 287 321 304 291 322 308 276 291 285 275 307 278 294 333 269 273 271 266 269 289 259 261 259 264 289 278 289 242 267 275 234 210 246 246 300 220 258 245 228 267 248 279 266 272 240 233 250 268 281 266 248 236 227 269 273 238 244 248 267 235 279 233 248 268 246 276 285 241 238 287 271 226 279 245 239 256 282 263 300 246 232 288 243 265 229 245 282 258 224 278 258 230 266 264 231 226 271 241 240 250 249 258 243 236 267 267 243 257 217 236 241 243 246 240 264 266 238 247 260 268 236 245 287 275 240 242 271 245 269 258 257 248 242 241 249 249 230 277 233 273 242 275 279 276 220 238 258 259 248 249 234 239 235 233 209 240 248 263 268 233 262 224 237 226 246 232 220 260 235 302 249 217 256 226 251 230 221 219 256 272 275 284 212 246 216 220 261 247 231 263 257 238 201 266 213 240 244 265 240 261 227 236 256 243 282 245 226 266 215 235 247 259 231 248 226 223 218 262 261 268 230 266 207 242 266 228 250 239 268 241 281 268 228 287 291 227 246 264 231 228 217 263 236 239 265 256 276 285 264 238 260 247 220 248 233 240 233 246 279 216 273 246 238 246 244 267 286 263 272 267 282 226 256 243 273 250 228 242 272 266 257 239 282 267 270 293 248 308 239 270 238 266 256 276 268 270 271 235 271 287 261 269 280 269 267 257 269 257 270 245 247 284 240 256 249 225 261 259 276 257 245 275 244 239 274 243 232 261 243 248 248 248 267 247 234 287 271 282 258 256 261 220 271 271 236 234 250 264 246 273 247 240 239 264 249 272 264 261 237 265 266 278 282 278 293 260 298 303 240 218 264 246 265 251 287 229 277 284 270 211 265 276 258 284 241 263 258 291 246 245 283 256 248 240 263 258 290 297 241 244 272 258 280 265 276 231 257 276 227 291 234 272 279 281 274 243 260 262 288 245 275 234 305 284 280 270 282 247 281 262 289 297 283 274 246 281 284 326 278 279 317 292 297 313 332 282 280 308 306 305 326 365 351 329 351 400 354 384 378 361 391 427 436 399 412 388 446 368 395 375 420 380 340 389 351 373 376 349 352 341 421 362 416 363 363 356 367 376 380 407 412 386 400 406 398 373 389 401 410 421 415 430 448 460 461 470 518 510 579 551 627 679 668 736 736 747 804 758 797 756 825 758 820 742 734 689 706 759 730 750 674 621 671 604 607 655 593 587 562 557 570 593 562 578 536 583 557 515 513 461 486 421 444 424 410 421 401 388 373 364 335 319 328 342 353 326 302 326 292 331 326 292 307 310 313 334 293 326 290 275 300 294 318 296 309 301 313 269 324 326 307 280 290 311 303 260 276 288 304 276 301 302 315 306 330 293 327 279 344 303 285 314 350 339 305 333 342 323 339 328 330 328 324 330 339 335 353 371 381 402 363 360 369 366 325 354 377 369 363 364 354 390 328 354 333 328 323 321 362 323 332 305 349 317 311 339 327 336 289 326 308 333 335 305 312 300 315 296 334 326 305 304 306 282 290 290 304 331 297 311 290 315 284 294 274 313 289 314 289 329 294 286 326 304 321 282 308 297 316 327 308 312 309 340 302 311 344 328 311 354 320 360 352 360 358 362 364 370 357 372 346 383 368 388 433 443 410 391 451 455 489 527 492 489 540 635 640 737 716 733 777 850 850 911 915 1094 1068 1172 1190 1213 1215 1155 1270 1266 1223 1267 1235 1251 1216 1260 1271 1138 1112 1089 1058 1021 1038 976 954 964 857 909 896 885 832 820 837 784 858 853 816 762 711 792 723 721 671 602 575 533 547 494 428 483 427 416 399 371 391 363 371 361 391 357 313 334 339 333 334 325 321 262 304 343 301 306 317 314 325 302 310 310 333 305 312 287 300 311 332 304 340 323 329 333 346 321 327 332 313 299 298 360 336 336 331 354 375 380 363 338 390 344 345 340 381 403 352 378 356 355 373 378 345 375 373 392 345 382 360 404 377 392 400 411 388 399 399 338 395 361 382 381 387 365 362 398 342 351 353 360 342 364 331 357 336 365 363 371 376 350 364 335 332 392 324 360 342 349 379 362 351 355 370 392 353 357 382 362 360 342 384 390 395 389 390 364 401 405 379 394 368 409 385 357 370 387 331 346 346 344 328 337 350 345 334 326 331 330 332 336 299 343 306 329 316 295 356 343 304 300 288 315 320 291 319 295 301 268 294 285 272 236 284 259 304 273 272 264 234 256 231 258 287 268 270 263 282 284 263 267 265 279 241 279 277 263 261 266 257 309 271 260 306 281 256 256 273 232 286 274 249 242 286 250 264 275 276 247 301 265 267 269 248 269 214 247 225 236 248 259 236 260 247 275 237 271 264 278 248 247 258 260 236 292 249 286 293 264 229 275 276 293 230 236 227 256 265 273 257 244 266 259 249 285 290 240 249 266 276 269 242 313 256 280 266 244 263 276 234 290 230 269 289 260 271 234 242 231 240 249 250 243 275 269 239 265 240 269 250 239 244 243 248 279 270 262 238 224 260 222 237 243 238 227 270 265 247 268 233 234 243 236 260 279 238 247 257 228 273 247 262 231 238 236 257 227 258 228 243 250 257 241 248 245 259 266 240 231 240 235 223 259 243 239 228 246 242 223 228 250 245 214 223 249 264 246 257 238 250 229 226 248 266 240 211 221 227 243 249 220 241 219 247 247 235 272 215 222 246 242 228 226 221 258 241 256 220 241 242 212 256 265 227 268 220 246 235 263 232 241 267 271 234 261 249 223 263 222 233 242 210 233 232 220 250 241 231 269 235 264 231 237 228 275 226 238 263 236 245 234 225 239 247 238 278 267 268 262 277 241 235 246 250 235 238 274 231 256 215 243 235 225 223 239 256 242 262 242 265 229 226 221 246 239 261 242 243 223 238 233 272 236 218 242 242 265 234 228 224 246 256 275 262 243 218 260 244 226 218 264 267 263 282 258 260 267 232 234 238 262 291 229 238 267 246 279 249 259 224 267 250 216 234 230 222 241 266 268 235 236 238 257 284 238 263 248 214 229 261 251 258 237 228 256 297 247 235 263 278 262 225 226 235 248 275 260 233 267 275 261 272 271 256 291 264 221 300 286 285 275 280 275 274 297 278 319 326 317 322 305 314 334 331 331 324 344 305 338 353 343 330 334 344 350 355 334 314 320 323 316 307 306 323 309 316 318 320 330 340 342 272 302 297 318 275 305 285 291 324 298 256 311 280 302 297 290 261 248 275 286 232 265 285 246 237 245 272 251 231 239 248 260 259 277 228 267 229 219 284 244 263 259 268 260 266 240 260 272 234 268 224 250 259 247 267 236 227 245 243 234 240 258 220 230 247 269 247 249 235 235 244 243 228 229 224 264 274 262 258 245 258 264 258 249 248 250 269 238 264 223 290 225 265 226 261 267 251 266 229 269 271 242 244 247 267 276 237 245 256 288 238 261 214 249 269 220 287 239 259 299 258 293 239 290 238 233 232 263 237 273 267 256 265 265 251 249 238 199 275 260 238 230 245 257 269 269 285 288 243 257 227 230 238 243 227 270 263 239 242 240 269 290 242 243 276 230 260 265 239 290 248 266 230 256 257 269 237 273 266 244 265 270 269 237 258 259 230 241 299 238 228 261 258 277 270 285 280 249 260 258 272 267 242 245 269 263 265 281 285 286 275 309 238 304 278 286 273 308 283 309 296 258 326 300 298 283 315 311 316 316 320 329 344 325 337 353 355 368 411 393 380 424 432 452 503 500 531 561 604 631 669 671 709 798 801 832 938 932 966 1048 1074 1047 1094 1102 1014 1041 1109 1067 1046 1161 1071 1122 1050 1028 1001 1015 1039 973 917 885 887 878 895 820 776 754 792 769 757 761 751 746 764 707 702 721 700 671 651 572 634 629 575 600 577 550 532 489 514 454 429 419 397 395 436 339 353 303 344 332 300 301 297 309 329 347 307 330 308 339 351 297 325 297 296 277 322 309 281 321 284 288 295 293 294 306 262 267 307 301 306 259 287 293 249 318 275 303 299 282 318 287 300 306 297 246 301 303 294 319 285 295 294 275 305 297 300 298 270 314 292 331 307 322 339 333 340 342 366 350 341 339 343 347 341 383 372 338 378 358 384 338 369 327 356 382 382 357 344 349 402 321 357 390 363 357 373 378 361 350 343 341 344 380 362 351 370 358 353 372 359 383 342 363 345 362 326 364 353 375 365 348 347 354 388 398 356 287 328 300 362 319 325 314 303 307 310 308 298 342 299 295 327 325 321 296 307 280 317 321 289 304 315 314 332 290 306 326 299 284 279 299 266 278 289 283 292 289 281 288 273 283 263 281 283 228 259 263 290 286 264 275 286 258 270 311 261 257 269 239 275 264 246 244 265 264 276 263 265 239 269 227 273 268 219 258 236 233 248 286 244 244 231 261 239 262 249 256 267 263 264 237 262 242 241 220 247 226 237 241 272 233 267 248 280 246 244 224 247 241 237 266 233 250 267 231 263 268 283 242 278 217 263 244 250 279 267 268 228 246 271 260 295 278 263 259 248 240 257 240 229 278 206 269 223 246 241 247 248 245 274 297 240 262 244 275 213 273 239 257 258 242 265 261 283 279 239 234 265 249 248 235 246 263 256 243 231 269 256 260 236 249 230 232 265 229 219 258 227 265 243 225 267 209 249 246 264 235 260 222 258 240 273 249 249 229 247 244 214 241 238 241 238 261 241 264 232 223 246 232 250 245 208 238 238 266 204 242 245 249 245 247 240 247 266 250 239 271 218 233 273 236 233 248 220 239 222 242 239 216 246 230 260 234 231 247 257 232 249 244 249 231 258 243 232 216 270 260 273 235 249 228 242 261 225 244 274 233 232 260 268 259 261 242 231 266 239 240 266 225 237 250 233 271 221 275 227 260 231 250 216 276 241 244 240 245 222 225 211 216 242 232 243 238 261 231 260 250 237 241 240 274 258 233 233 230 247 233 275 261 283 272 235 240 225 274 225 251 258 249 257 228 246 207 247 275 241 272 270 247 238 260 239 266 245 286 256 229 260 233 228 230 233 260 234 223 231 271 245 213 222 213 279 243 250 267 263 282 251 226 241 266 237 264 257 279 262 249 265 257 257 270 259 256 264 246 249 278 243 245 258 249 300 257 276 273 288 239 297 276 282 277 269 267 293 274 276 273 272 283 272 279 304 311 285 307 263 300 315 324 298 297 322 349 357 379 368 372 393 396 397 401 423 479 451 454 472 470 475 485 497 450 502 463 482</counts>
			</dataPoints>
		</scan>
	</xrdMeasurement>
</xrdMeasurements>
