<?xml version="1.0"?>
<xrdMeasurements xmlns="http://www.xrdml.com/XRDMeasurement/2.3" xmlns:xsi="http://www.w3.org/2001/XMLSchema-instance" xsi:schemaLocation="http://www.xrdml.com/XRDMeasurement/2.3 http://www.xrdml.com/XRDMeasurement/2.3/XRDMeasurement.xsd" status="Completed" recordIdentifier="{B9A258E2-9869-4B5C-BB2B-8F7982ECDCBC}">
	<comment>
		<entry/>
	</comment>
	<sample type="To be analyzed">
		<id>GPSS_Li1p4Fe0p7Mg0p1Ta0p2Cl4_110325_69093a3ff040177efa2b52e3</id>
		<name></name>
		<preparedBy></preparedBy>
	</sample>
	<xrdMeasurement measurementType="Scan" status="Completed" sampleMode="Reflection">
		<usedWavelength intended="K-Alpha 1">
			<kAlpha1 unit="Angstrom">1.5405980</kAlpha1>
			<kAlpha2 unit="Angstrom">1.5444260</kAlpha2>
			<kBeta unit="Angstrom">1.3922500</kBeta>
			<ratioKAlpha2KAlpha1>0.5000</ratioKAlpha2KAlpha1>
		</usedWavelength>
		<incidentBeamPath>
			<radius unit="mm">145.00</radius>
			<xRayTube id="1010048" name="Empyrean Cu LFF HR (9430 033 7310x)">
				<tension unit="kV">40.0</tension>
				<current unit="mA">15.0</current>
				<anodeMaterial>Cu</anodeMaterial>
				<focus type="Line">
					<length unit="mm">12.0</length>
					<width unit="mm">0.4</width>
					<takeOffAngle unit="deg">6.0</takeOffAngle>
				</focus>
			</xRayTube>
			<sollerSlit id="21010002" name="Soller slits 0.04 rad.">
				<opening unit="rad">0.0400</opening>
			</sollerSlit>
			<mask id="22031000" name="Fixed mask 13 mm">
				<width unit="mm">9.00</width>
			</mask>
			<divergenceSlit id="22120001" name="Divergence slit 1°" xsi:type="fixedDivergenceSlitType">
				<distanceToSample unit="mm">50.00</distanceToSample>
				<height unit="mm">1.52</height>
			</divergenceSlit>
		</incidentBeamPath>
		<sampleMovement xsi:type="spinningSampleMovementType">
			<spinnerRevolutionTime unit="seconds">1.0</spinnerRevolutionTime>
		</sampleMovement>
		<diffractedBeamPath>
			<radius unit="mm">145.00</radius>
			<antiScatterSlit id="22090040" name="AS slit 9 mm (PIXcel)" xsi:type="fixedAntiScatterSlitType">
				<height unit="mm">9.00</height>
			</antiScatterSlit>
			<sollerSlit id="21020003" name="Large Soller slits 0.04 rad.">
				<opening unit="rad">0.0400</opening>
			</sollerSlit>
			<filter id="20030001" name="Large beta-filter Nickel">
				<material>Ni</material>
				<thickness unit="mm">0.020</thickness>
			</filter>
			<detector id="7010019" name="PIXcel1D-Medipix3 detector" xsi:type="rtmsDetectorType">
				<phd unit="keV">
					<lowerLevel>4.02</lowerLevel>
					<upperLevel>11.27</upperLevel>
				</phd>
				<mode>Scanning</mode>
				<activeLength unit="deg">5.542</activeLength>
			</detector>
		</diffractedBeamPath>
		<scan appendNumber="0" mode="Continuous" scanAxis="Gonio" status="Completed">
			<header>
				<startTimeStamp>2025-11-05T12:16:28-08:00</startTimeStamp>
				<endTimeStamp>2025-11-05T12:24:35-08:00</endTimeStamp>
				<author>
					<name>AutomatedUser</name>
				</author>
				<source>
					<applicationSoftware version="1.7b (136)">PANalytical Aeris Instrument Suite</applicationSoftware>
					<instrumentControlSoftware version="3.2.00000000 20240306">AERIS</instrumentControlSoftware>
					<instrumentID>950485</instrumentID>
				</source>
			</header>
			<dataPoints>
				<positions axis="2Theta" unit="deg">
					<startPosition>10.00943322</startPosition>
					<endPosition>99.99442286</endPosition>
				</positions>
				<positions axis="Omega" unit="deg">
					<startPosition>5.00471661</startPosition>
					<endPosition>49.99721143</endPosition>
				</positions>
				<commonCountingTime unit="seconds">12.495</commonCountingTime>
				<counts unit="counts">2811 2866 2768 2847 2709 2840 2847 2769 2800 2749 2840 2728 2917 2775 2803 2787 2859 2788 2757 2768 2828 2902 2747 2778 2698 2742 2798 2788 2790 2830 2816 2803 2788 2761 2847 2787 2802 2774 2698 2828 2768 2831 2774 2711 2758 2767 2714 2677 2750 2729 2742 2796 2778 2772 2767 2737 2762 2781 2897 2765 2890 2766 2895 2912 2785 2796 2768 2752 2826 2898 2786 2760 2768 2807 2783 2814 2789 2895 2730 2931 2868 2736 2778 2753 2790 2907 2834 2802 2714 2765 2800 2693 2818 2859 2750 2826 2758 2815 2821 2764 2950 2739 2689 2740 2750 2805 2792 2837 2703 2821 2703 2832 2765 2735 2746 2828 2641 2815 2743 2767 2680 2695 2778 2825 2823 2753 2742 2821 2741 2777 2749 2713 2815 2784 2819 2798 2765 2711 2721 2694 2728 2678 2700 2779 2768 2800 2821 2754 2585 2738 2774 2781 2792 2685 2790 2787 2753 2702 2704 2638 2682 2721 2764 2721 2801 2794 2687 2737 2779 2725 2672 2746 2673 2847 2695 2807 2760 2630 2761 2713 2751 2716 2676 2709 2690 2617 2787 2676 2740 2721 2714 2704 2735 2833 2699 2747 2703 2776 2687 2727 2635 2760 2789 2793 2695 2690 2653 2584 2649 2745 2776 2750 2573 2731 2691 2711 2679 2851 2692 2751 2783 2759 2738 2726 2651 2741 2651 2811 2748 2736 2720 2684 2723 2715 2648 2736 2598 2675 2695 2763 2765 2805 2538 2744 2587 2635 2723 2775 2753 2713 2759 2775 2687 2666 2666 2712 2826 2744 2674 2786 2736 2773 2730 2623 2690 2755 2758 2668 2761 2710 2739 2772 2808 2817 2752 2787 2684 2852 2726 2777 2757 2805 2751 2834 2734 2762 2691 2769 2805 2824 2806 2952 2909 2852 2790 2839 2834 2779 2938 2847 2835 2814 2819 2853 2818 2948 2826 2873 2848 2864 2823 2786 2810 2873 2925 2971 2888 2958 2857 2971 2926 2886 2912 2904 2802 2942 2933 2819 2981 2939 2985 2949 3078 2934 2952 3029 3013 3003 3098 3029 3100 3103 3026 3049 3144 3084 3112 3068 3138 3075 3153 3075 3063 3137 3169 3037 3051 3146 3092 3118 3129 3122 3143 3115 3141 3141 3198 3074 3153 3268 3106 3164 3190 3223 3244 3192 3363 3139 3178 3312 3278 3241 3281 3268 3275 3239 3265 3195 3329 3237 3296 3267 3267 3371 3425 3322 3290 3257 3317 3328 3361 3366 3363 3376 3488 3317 3264 3327 3376 3384 3370 3445 3491 3348 3425 3390 3518 3369 3508 3481 3437 3529 3426 3458 3590 3438 3526 3624 3568 3477 3535 3595 3601 3619 3637 3645 3606 3632 3639 3650 3631 3621 3784 3662 3692 3676 3782 3766 3783 3853 3751 3835 3863 4002 4005 3984 4188 4153 4225 4204 4367 4334 4353 4319 4380 4373 4485 4426 4376 4266 4347 4234 4272 4299 4269 4324 4209 4229 4200 4198 4096 4215 4239 4275 4109 4249 4231 4201 4211 4399 4173 4327 4282 4441 4396 4458 4333 4416 4374 4379 4264 4374 4430 4255 4118 4167 4004 3917 3877 3902 3818 3656 3676 3555 3573 3463 3518 3344 3390 3332 3272 3261 3258 3215 3234 3311 3149 3247 3178 3240 3268 3198 3186 3273 3141 3311 3252 3264 3281 3215 3233 3161 3280 3214 3186 3154 3187 3075 3233 3122 3084 3061 3098 3106 3060 3135 3163 3181 2957 3177 3110 3115 3086 3108 3097 2989 2971 2993 3041 3016 3051 3039 2956 2995 2924 3004 2973 3098 2957 2916 3026 2935 2955 2959 2874 2937 2940 2905 2870 2953 3002 2928 2952 2999 2918 2955 3058 2942 2807 2872 2884 2990 2895 2844 2944 2888 2958 2880 2970 2898 2956 2896 2888 2878 2861 2927 2949 2776 2951 2835 2846 2845 2803 2931 2861 2797 2827 2799 2873 2869 2841 2868 2826 2872 2805 2906 2837 2845 2876 2836 2906 2901 2844 2789 2846 2876 2842 2867 2799 2892 2902 2901 2923 2883 2874 2874 2886 2780 2820 2870 2891 2811 2898 2825 2860 2825 2905 2849 2852 2749 2882 2855 2915 2828 2809 2830 2923 2890 2898 2829 2840 2794 2807 2825 2890 2825 2815 2842 2881 2839 2844 2805 2819 2892 2905 2802 2805 2769 2888 2813 2862 2712 2738 2804 2802 2876 2795 2750 2814 2720 2773 2843 2733 2751 2815 2703 2762 2670 2739 2777 2674 2831 2786 2827 2713 2765 2807 2711 2774 2772 2812 2721 2675 2652 2732 2727 2801 2716 2657 2741 2765 2681 2755 2785 2776 2785 2806 2689 2694 2822 2760 2696 2685 2751 2778 2777 2797 2699 2695 2716 2783 2851 2725 2764 2683 2641 2765 2703 2803 2622 2728 2724 2681 2633 2723 2658 2769 2662 2668 2675 2630 2637 2679 2695 2755 2802 2661 2707 2735 2749 2682 2702 2636 2691 2762 2769 2715 2625 2674 2687 2778 2623 2658 2741 2699 2684 2758 2664 2609 2664 2678 2719 2651 2778 2708 2797 2633 2748 2791 2646 2656 2645 2631 2625 2643 2676 2690 2624 2584 2659 2687 2658 2590 2694 2691 2693 2691 2701 2585 2607 2658 2647 2682 2677 2657 2635 2657 2761 2641 2602 2687 2640 2618 2647 2796 2627 2565 2625 2613 2590 2620 2627 2555 2626 2671 2553 2737 2634 2501 2545 2509 2577 2555 2652 2644 2704 2593 2661 2660 2540 2627 2545 2557 2612 2639 2598 2537 2471 2569 2578 2577 2498 2536 2644 2602 2600 2592 2594 2700 2632 2487 2439 2527 2470 2591 2628 2671 2560 2584 2548 2552 2514 2465 2558 2500 2534 2581 2517 2561 2534 2589 2574 2485 2559 2563 2594 2670 2418 2534 2609 2653 2563 2446 2515 2503 2515 2543 2508 2559 2498 2518 2524 2494 2523 2570 2565 2519 2513 2505 2517 2494 2621 2492 2534 2522 2451 2511 2557 2499 2561 2449 2509 2608 2532 2477 2520 2540 2496 2592 2592 2495 2622 2536 2545 2547 2604 2642 2586 2592 2615 2567 2583 2527 2629 2555 2596 2536 2517 2486 2452 2462 2599 2537 2538 2497 2620 2514 2480 2585 2549 2515 2521 2521 2514 2600 2510 2513 2449 2528 2575 2457 2505 2505 2565 2463 2481 2467 2444 2473 2558 2544 2536 2479 2599 2424 2536 2520 2488 2556 2575 2656 2492 2598 2532 2671 2526 2514 2442 2503 2561 2451 2489 2513 2524 2548 2581 2575 2547 2502 2586 2455 2523 2541 2520 2549 2414 2502 2640 2499 2582 2589 2569 2511 2592 2497 2523 2502 2495 2476 2607 2530 2541 2496 2563 2549 2600 2554 2600 2434 2471 2543 2493 2412 2515 2543 2493 2494 2552 2559 2465 2595 2583 2577 2522 2505 2494 2546 2502 2479 2517 2482 2537 2520 2602 2522 2528 2587 2578 2549 2550 2589 2423 2430 2536 2466 2571 2543 2527 2481 2518 2453 2499 2474 2459 2484 2428 2546 2386 2480 2528 2394 2486 2476 2463 2340 2514 2432 2440 2399 2501 2515 2476 2460 2498 2279 2390 2475 2387 2429 2337 2471 2355 2369 2384 2497 2420 2412 2413 2440 2351 2409 2375 2469 2446 2413 2463 2412 2360 2311 2350 2362 2347 2416 2305 2297 2383 2278 2399 2286 2340 2333 2378 2369 2269 2338 2317 2338 2360 2241 2380 2310 2260 2297 2269 2172 2345 2289 2320 2217 2268 2233 2253 2342 2236 2237 2178 2236 2139 2226 2150 2157 2254 2249 2290 2183 2195 2286 2225 2135 2242 2235 2264 2221 2133 2211 2133 2179 2219 2089 2135 2034 2076 2145 2084 2085 2158 2063 2126 2099 2048 2036 2080 2128 2074 2064 2065 1941 2140 2085 2108 2119 2105 2080 2053 2034 2103 1992 2010 2017 2071 2051 2053 2007 2053 1930 1957 2087 2068 2076 1975 1928 2007 2024 2058 2007 2014 1972 2050 2053 2046 2110 1926 2006 1990 2007 1915 2033 2000 2012 2003 1988 1922 2022 1904 2025 1932 2018 1986 1943 1913 1906 1964 2003 1965 1967 1936 1917 2022 1954 1923 2020 1967 1935 1945 1916 1961 1974 1933 1986 1947 1928 1865 1915 1988 1913 1832 1926 2012 1976 1897 1901 1917 1957 1975 1851 1880 1939 1983 1889 1916 1870 1910 1902 1928 1880 1897 1966 1986 1871 1932 1853 1896 1855 1930 1842 1870 1915 1863 1894 1920 1872 1908 1917 1888 1974 1893 1999 1924 1890 1927 1791 1844 1870 1877 1873 1913 1837 1926 1811 1835 1885 1920 1899 1897 1814 1920 1872 1828 1859 1890 1863 1864 1802 1838 1833 1932 1839 1844 1885 1839 1821 1938 1931 1926 1845 1957 1866 1863 1873 1932 1883 1863 1916 1865 1915 1863 1924 1866 1865 1879 1837 1855 1855 1905 1868 1925 1864 1908 1922 1885 2049 1871 1855 1877 1927 1883 1833 1869 1892 1867 1904 1878 1939 1858 1887 1885 1909 1976 1888 1911 1852 1879 1880 1965 1855 2007 1909 1840 1897 1899 1958 1877 1897 1958 1810 1936 1807 1927 1860 1896 1939 1908 1956 1934 1898 1901 1896 1838 1862 1925 1864 1872 1898 1953 1888 1845 1905 1892 1890 1900 1903 1936 1860 1927 1914 1967 1875 1925 1799 1891 1837 1895 1912 1866 1894 1944 1875 1879 1829 1898 1854 1813 1849 1859 1867 1866 1841 1839 1913 1921 1906 1832 1870 1908 1911 1889 1881 1891 1845 1866 1855 1770 1804 1819 1841 1824 1788 1804 1775 1857 1862 1863 1790 1784 1867 1739 1844 1842 1816 1737 1806 1821 1740 1695 1788 1752 1742 1829 1792 1793 1751 1852 1764 1752 1688 1729 1733 1755 1757 1720 1807 1730 1692 1833 1752 1760 1731 1667 1740 1795 1718 1646 1717 1819 1656 1746 1646 1650 1662 1797 1753 1729 1696 1682 1703 1683 1642 1646 1690 1636 1656 1690 1550 1716 1667 1604 1610 1701 1620 1644 1685 1701 1671 1624 1580 1610 1564 1660 1540 1639 1580 1630 1578 1678 1568 1690 1660 1644 1624 1603 1554 1586 1617 1629 1610 1641 1601 1606 1601 1568 1556 1598 1617 1571 1645 1613 1565 1618 1613 1578 1571 1575 1559 1539 1555 1578 1526 1558 1486 1530 1596 1508 1579 1571 1556 1495 1582 1582 1495 1479 1538 1612 1580 1582 1496 1534 1468 1549 1500 1582 1555 1629 1582 1595 1519 1524 1574 1607 1606 1598 1533 1556 1575 1560 1555 1576 1496 1528 1563 1473 1535 1525 1515 1541 1533 1568 1534 1535 1599 1497 1497 1537 1553 1566 1598 1575 1582 1650 1571 1544 1571 1616 1537 1628 1595 1641 1655 1616 1663 1683 1579 1617 1689 1726 1536 1618 1663 1610 1594 1583 1655 1570 1526 1507 1596 1526 1527 1535 1519 1509 1487 1518 1504 1560 1468 1480 1427 1487 1450 1461 1490 1467 1504 1491 1439 1448 1420 1544 1445 1514 1456 1465 1463 1473 1532 1430 1416 1454 1403 1430 1499 1388 1407 1450 1457 1480 1489 1393 1399 1424 1355 1443 1420 1410 1417 1466 1476 1439 1412 1448 1449 1406 1439 1511 1499 1490 1587 1558 1531 1484 1578 1551 1576 1538 1543 1585 1545 1614 1592 1545 1484 1564 1556 1665 1556 1627 1653 1693 1599 1691 1793 1779 1771 1880 1848 1877 1803 1895 1936 1831 1920 1949 1986 1997 1977 1980 2003 2070 1981 1994 1935 1958 1894 1979 1960 1884 1895 1805 1858 1824 1778 1757 1733 1643 1750 1708 1761 1750 1712 1635 1745 1726 1778 1698 1657 1667 1698 1683 1652 1606 1607 1511 1511 1445 1508 1402 1449 1450 1457 1412 1416 1391 1337 1385 1362 1378 1381 1322 1375 1358 1314 1286 1313 1285 1287 1263 1301 1299 1357 1348 1355 1330 1323 1277 1328 1328 1281 1283 1301 1345 1304 1281 1299 1241 1341 1296 1285 1271 1246 1254 1280 1262 1218 1283 1286 1233 1211 1296 1256 1288 1253 1192 1218 1195 1165 1230 1271 1181 1241 1201 1208 1246 1248 1260 1279 1248 1221 1300 1259 1277 1154 1219 1208 1216 1230 1179 1240 1221 1190 1245 1254 1244 1221 1148 1205 1215 1214 1203 1198 1187 1198 1171 1172 1178 1216 1161 1182 1161 1158 1244 1168 1150 1200 1151 1211 1191 1197 1198 1218 1147 1167 1148 1201 1201 1156 1132 1173 1163 1117 1135 1183 1196 1197 1166 1124 1188 1164 1143 1157 1144 1241 1146 1149 1240 1207 1132 1185 1231 1186 1201 1137 1182 1275 1192 1175 1182 1257 1145 1209 1267 1217 1226 1246 1177 1210 1233 1248 1244 1206 1226 1236 1255 1233 1218 1247 1287 1229 1257 1271 1201 1205 1257 1191 1230 1216 1322 1235 1247 1186 1219 1215 1267 1265 1266 1250 1233 1287 1220 1206 1302 1240 1309 1226 1346 1301 1359 1387 1332 1367 1284 1331 1284 1376 1351 1296 1336 1271 1311 1303 1342 1380 1335 1262 1309 1304 1284 1319 1287 1311 1317 1303 1325 1314 1242 1283 1237 1288 1284 1246 1315 1287 1315 1313 1249 1241 1226 1209 1184 1304 1155 1287 1290 1229 1279 1202 1264 1224 1239 1275 1203 1164 1177 1140 1194 1162 1155 1161 1160 1172 1164 1179 1073 1129 1130 1129 1126 1120 1191 1127 1145 1093 1103 1154 1140 1168 1158 1173 1130 1157 1129 1190 1104 1153 1095 1154 1155 1179 1107 1130 1090 1169 1103 1182 1095 1181 1144 1123 1070 1124 1117 1142 1102 1118 1104 1168 1174 1088 1076 1142 1102 1184 1110 1125 1158 1154 1060 1107 1076 1132 1059 1063 1114 1044 1222 1111 1154 1217 1145 1160 1108 1124 1208 1143 1148 1144 1125 1189 1153 1113 1179 1256 1171 1173 1198 1227 1134 1192 1246 1275 1273 1250 1320 1302 1292 1399 1330 1378 1390 1411 1429 1418 1388 1486 1446 1529 1496 1480 1524 1521 1568 1557 1491 1538 1607 1670 1703 1778 1822 1839 1974 1991 2053 2222 2235 2376 2275 2396 2398 2445 2441 2443 2551 2532 2528 2503 2488 2386 2477 2424 2560 2369 2305 2365 2285 2125 2157 2208 2113 1946 1979 2002 1967 1932 1875 2007 1966 1842 1901 1999 1915 1984 1847 1937 1884 1851 1939 1840 1880 1840 1821 1754 1646 1705 1688 1575 1574 1563 1569 1517 1517 1460 1392 1468 1329 1418 1307 1328 1291 1344 1355 1340 1311 1427 1306 1349 1414 1373 1263 1340 1294 1291 1314 1232 1227 1287 1256 1212 1205 1227 1177 1194 1192 1190 1146 1152 1164 1170 1122 1146 1120 1141 1074 1084 1119 1081 1164 1126 1078 1070 1111 1087 1067 1040 1058 1073 1088 1049 1005 1069 1030 1069 1062 1071 1032 1122 989 1066 995 1092 1037 1130 1004 1034 1025 1083 1070 1067 1064 1063 1088 1055 1070 1081 1075 1074 1024 1021 1100 1036 1049 1030 1066 1113 1011 1071 1041 1007 994 1032 1080 1036 1055 1059 1040 1042 1039 1057 1084 992 1097 1044 1014 1021 1031 993 1065 1051 1049 1068 1083 1022 1038 982 1033 1081 1082 1046 1037 1056 986 1041 1020 1000 1010 1077 1023 1030 1012 984 1025 985 1050 1024 1083 1003 1015 1046 1056 976 981 1054 1001 1025 1007 1049 1049 1006 1055 1013 1003 999 1025 982 995 955 1030 987 1023 1023 1058 1001 980 999 1023 1009 1010 1008 1036 1003 962 1023 1034 971 1034 959 982 969 1064 996 964 1038 1046 1020 991 1015 991 1069 1076 1086 1000 990 1030 981 984 975 984 1021 1014 1014 1002 960 1005 983 1041 1030 983 1007 998 977 986 970 976 994 1038 987 961 951 966 989 993 928 965 957 960 991 1029 972 945 1015 984 1029 1026 920 1012 1011 1002 961 1022 943 1082 951 995 998 960 968 935 971 960 989 965 943 995 948 986 938 1052 976 1001 970 1022 966 995 965 952 969 1013 1007 995 959 928 969 992 994 982 999 980 960 1056 949 953 972 983 1027 984 919 953 993 990 1000 914 1010 999 952 1006 931 1038 940 961 989 939 951 1031 965 965 1000 955 927 985 951 1001 945 987 1028 961 956 985 930 976 968 998 971 1010 900 979 957 957 1016 938 965 1000 897 902 928 937 960 895 938 940 989 1042 1002 950 920 982 975 920 925 984 924 1024 950 996 936 952 950 929 903 970 923 896 975 992 897 967 918 945 911 962 971 907 943 905 933 911 950 940 945 878 932 934 896 887 954 887 966 968 837 964 920 957 973 925 896 963 826 916 907 852 944 953 852 946 877 918 936 898 927 944 903 781 924 958 918 996 888 898 862 932 948 925 908 926 938 937 932 947 874 961 889 940 855 882 933 903 893 925 886 901 934 948 929 928 861 863 924 878 895 942 861 942 870 873 917 932 912 909 900 866 890 927 888 901 826 926 945 884 902 889 954 863 919 887 926 929 906 926 883 898 942 894 898 854 934 865 957 900 883 835 915 890 885 909 895 866 881 888 838 898 896 906 861 892 897 918 858 905 897 909 898 877 882 949 898 893 854 894 911 858 898 903 897 925 896 842 894 894 844 900 882 906 916 909 921 920 884 898 934 885 827 902 847 877 854 931 909 929 869 817 919 872 861 881 885 916 918 853 901 898 890 902 899 886 866 849 907 844 870 795 872 885 879 878 900 890 924 904 892 789 882 823 840 886 879 841 864 936 856 877 852 846 870 859 887 849 887 852 887 897 869 917 873 863 880 891 871 854 821 920 926 892 857 946 903 869 863 922 919 901 888 899 905 837 903 869 878 846 843 877 839 879 854 834 906 886 883 845 889 860 863 862 866 842 912 875 826 948 859 923 889 937 900 906 884 883 863 864 869 909 923 859 873 887 891 884 868 916 852 894 884 791 883 866 883 893 892 858 843 891 900 958 913 899 869 858 855 884 883 850 906 868 912 894 883 873 879 885 912 878 884 887 848 908 905 939 882 896 921 836 905 923 895 912 913 895 844 883 885 823 888 888 851 880 858 913 853 850 854 869 901 878 825 919 895 883 844 942 866 899 863 849 879 844 878 819 892 876 871 849 865 903 860 853 883 856 858 806 850 871 865 847 864 854 866 820 833 844 810 832 857 787 838 839 814 866 861 889 868 854 842 841 915 829 899 774 895 855 867 853 870 864 838 806 881 871 843 906 896 802 898 860 868 848 843 896 831 876 832 838 864 851 935 878 824 814 901 865 850 907 865 853 857 839 883 845 863 865 862 825 830 825 828 844 815 853 849 898 853 898 882 846 876 844 832 840 821 828 831 825 904 881 809 845 843 852 832 850 810 858 809 827 830 827 854 888 859 828 809 913 826 847 870 803 869 870 836 838 829 881 825 830 827 791 831 793 786 804 848 861 809 858 856 888 821 823 824 812 844 851 832 846 852 860 898 812 880 865 911 934 822 827 810 837 924 867 855 867 853 854 898 855 914 871 881 912 903 860 855 948 893 888 851 942 920 950 948 932 960 901 903 926 886 916 908 907 945 932 881 908 927 943 932 910 856 882 902 872 881 860 873 920 920 949 857 883 915 858 894 866 857 902 883 892 873 855 875 857 856 807 826 868 867 827 859 840 865 874 880 843 824 851 831 826 859 841 789 869 874 815 855 824 891 943 846 906 889 888 881 845 914 907 889 866 899 831 878 856 875 862 871 904 873 897 872 850 920 866 892 890 795 796 834 871 838 859 873 829 840 834 826 826 880 897 852 864 863 846 840 833 857 868 855 846 864 822 788 818 845 774 821 836 784 841 801 828 820 807 796 793 819 866 809 871 805 855 793 794 825 789 794 834 780 813 800 819 785 797 830 834 820 864 780 845 818 800 806 827 803 844 873 844 766 815 807 833 844 808 786 822 815 775 792 765 828 850 833 762 780 786 772 778 800 810 840 843 824 850 782 819 807 828 843 809 838 809 791 787 791 820 796 806 800 755 794 812 843 809 827 781 832 780 793 823 822 746 792 804 783 826 735 814 743 799 820 825 841 825 841 804 836 840 796 816 771 788 821 803 773 839 840 862 805 789 764 754 793 789 788 784 821 834 777 827 829 821 814 864 793 864 807 808 806 824 758 821 731 821 779 814 776 787 771 781 800 863 783 805 832 807 772 837 818 789 841 787 801 819 766 804 752 802 786 762 782 834 820 832 798 809 822 868 853 818 805 790 778 849 835 820 814 799 795 774 840 838 871 785 833 818 820 806 798 838 803 829 771 833 776 809 817 747 861 830 859 808 826 787 844 859 835 867 853 901 883 893 845 877 876 911 930 845 918 985 917 925 879 920 915 978 968 1000 994 1044 995 1052 983 1025 969 1027 981 943 957 952 1065 1043 1003 1021 1059 1065 1068 1061 1105 1130 1159 1125 1131 1123 1163 1229 1320 1244 1258 1256 1270 1293 1294 1388 1386 1305 1368 1265 1322 1341 1277 1315 1304 1230 1203 1201 1214 1199 1176 1216 1149 1157 1154 1059 1113 1052 1042 1065 1039 1022 1052 1064 997 1086 1017 1041 1074 1056 1004 1021 1016 1114 1069 1131 1126 1170 1135 1146 1054 1058 1103 1068 1013 1020 1028 1043 994 1016 1012 1034 972 1044 922 954 959 972 911 975 966 1012 910 962 940 870 928 928 909 908 889 949 927 933 919 929 942 978 886 915 847 875 891 823 880 904 857 903 932 873 901 897 890 904 915 905 964 921 862 885 835 908 849 886 900 849 885 873 831 843 868 866 852 920 805 853 833 822 795 791 847 826 794 827 741 862 799 811 754 785 798 789 751 803 807 786 795 787 782 764 776 731 738 773 788 771 764 835 788 819 787 779 778 799 765 830 765 754 784 729 742 827 782 747 806 752 819 781 820 765 744 789 720 749 743 803 739 816 816 777 759 768 771 745 742 769 785 836 774 842 794 790 731 775 766 789 784 791 788 799 784 795 831 790 784 776 758 802 809 813 801 855 738 834 762 812 792 800 826 826 815 777 766 813 804 852 830 835 781 771 809 806 785 764 833 822 781 808 750 753 825 809 751 827 820 769 816 776 765 778 780 812 770 779 797 817 811 812 811 761 809 791 775 789 852 753 835 818 796 795 769 762 805 788 813 756 791 776 741 801 802 753 762 774 766 843 814 768 779 742 774 756 788 829 800 817 790 797 797 761 759 721 709 791 775 776 755 742 762 730 808 780 745 788 754 738 767 773 789 790 748 785 764 772 793 729 796 752 743 763 745 754 774 726 775 769 715 730 792 721 766 728 705 752 797 766 731 779 787 767 724 818 767 767 740 740 775 707 775 721 765 696 770 734 742 733 726 699 737 772 746 736 717 726 699 741 703 661 735 668 708 751 714 755 727 761 765 736 820 721 706 715 759 704 705 795 706 771 742 738 764 774 730 753 733 778 753 769 790 732 785 723 721 693 755 705 721 708 735 738 757 704 775 690 738 716 749 697 808 704 769 704 721 724 722 737 739 743 694 764 754 712 735 732 782 707 752 744 775 718 712 708 720 778 770 769 736 747 712 762 722 734 745 728 773 726 751 738 703 728 745 707 688 690 677 732 736 749 711 767 764 688 709 798 709 724 698 748 683 729 754 760 766 710 741 749 706 725 743 702 720 779 698 735 704 727 683 720 712 716 723 704 695 717 735 734 728 698 693 757 756 714 666 692 737 670 709 681 716 669 763 717 661 682 716 702 752 640 724 736 724 690 721 723 750 728 689 761 703 727 773 695 742 723 681 730 779 703 738 732 718 706 745 706 730 668 696 693 728 741 708 714 707 676 732 706 718 725 696 715 692 764 741 754 713 719 698 702 670 734 710 722 731 676 684 702 700 713 688 756 724 737 712 755 674 738 702 718 725 738 732 722 804 746 661 706 721 692 720 769 702 685 685 638 711 785 693 728 662 691 748 724 728 694 700 741 709 744 691 706 696 700 713 719 725 738 734 707 757 694 678 695 717 743 666 704 684 682 734 708 696 702 719 682 759 721 718 677 752 702 689 722 694 728 716 716 686 681 703 725 733 692 681 695 688 695 688 672 700 684 695 687 719 703 662 699 706 702 738 715 682 718 755 705 660 664 698 661 748 665 700 743 704 687 702 743 715 671 659 675 702 682 732 683 686 712 703 732 661 714 719 698 704 726 739 672 724 666 739 685 732 677 674 722 726 658 738 710 737 750 704 743 675 747 689 696 695 751 716 728 732 711 695 741 705 733 723 698 723 704 708 710 688 792 698 660 697 723 691 673 705 669 710 709 722 685 687 675 735 693 743 749 712 698 738 720 743 663 698 702 766 708 726 710 761 698 746 811 730 707 759 738 761 719 704 783 788 732 722 652 736 772 763 718 750 789 689 706 787 712 717 773 756 689 731 682 761 778 736 740 688 785 776 761 792 773 780 718 703 782 766 746 754 754 801 791 756 767 791 786 792 769 755 777 734 783 781 810 801 865 829 813 852 770 838 845 850 777 802 809 777 815 778 784 813 730 766 752 774 762 740 720 802 763 802 776 749 767 768 726 754 739 762 755 762 766 778 701 715 736 681 761 721 724 739 710 753 732 679 704 714 682 706 717 735 711 692 698 776 699 690 698 705 698 659 704 708 688 716 715 673 640 708 653 738 708 722 747 652 707 689 686 679 681 711 648 714 705 683 690 626 722 666 671 662 727 707 689 711 685 703 658 720 631 740 690 663 697 668 678 657 668 648 710 708 690 657 704 723 666 686 694 708 653 690 649 681 689 668 721 665 725 655 675 696 673 643 728 749 722 664 702 683 674 699 657 706 676 680 692 664 712 744 683 639 723 709 687 698 735 678 708 694 685 665 706 679 657 683 691 688 662 693 667 691 696 682 665 723 657 649 691 665 752 707 656 668 699 740 671 677 690 683 734 672 700 692 686 682 650 730 690 712 730 690 698 735 690 747 714 729 755 703 685 741 749 733 724 701 723 711 733 721 698 726 758 708 692 667 749 770 721 721 749 749 762 737 740 740 752 737 769 752 789 808 783 760 784 757 740 795 771 832 767 782 711 792 749 813 748 748 776 744 756 724 762 751 743 729 787 744 761 707 760 716 746 764 692 687 730 683 739 785 700 700 750 667 721 711 660 790 726 668 669 741 751 725 698 711 688 692 713 733 744 708 718 751 711 696 721 707 685 704 756 696 744 671 657 684 704 678 672 705 682 705 707 665 700 734 696 640 685 674 691 678 691 698 688 703 703 684 701 707 723 730 750 699 639 688 678 690 723 718 737 726 687 711 708 748 738 698 731 793 787 807 791 787 731 762 775 741 753 753 715 787 741 707 713 779 772 762 786 774 733 752 707 746 696 743 719 690 705 742 755 718 740 782 739 724 745 722 662 771 770 729 698 698 743 716 694 737 684 727 680 731 691 665 708 666 672 701 724 714 690 673 732 681 679 698 648 638 686 633 677 659 657 702 704 686 684 696 691 644 721 659 721 658 708 708 673 661 659 688 671 674 617 684 681 698 632 683 679 660 665 670 696 662 716 695 647 671 635 670 663 584 648 630 616 645 689 625 652 674 657 666 658 660 684 660 648 678 656 674 649 637 669 714 620 678 645 711 647 651 678 653 651 652 688 709 637 649 645 651 664 611 665 653 689 680 622 677 647 653 636 638 653 677 667 667 635 710 632 664 678 620 677 634 643 656 635 671 697 618 631 657 675 662 652 685 682 662 659 680 655 607 678 626 649 661 632 639 704 649 717 708 657 674 644 672 670 705 605 672 630 650 680 636 660 642 703 680 633 647 660 679 665 685 698 684 693 629 650 658 682 680 719 655 691 643 667 659 676 670 689 696 623 653 600 687 612 676 647 638 695 632 671 637 685 645 658 640 688 661 630 686 641 624 619 655 660 641 624 654 643 647 637 661 659 653 659 650 610 666 629 621 661 665 650 644 634 644 654 643 644 600 632 635 651 651 632 670 681 643 606 664 623 671 670 622 639 673 663 599 639 612 644 683 645 645 570 630 615 666 648 641 678 647 677 590 631 571 642 615 656 673 643 596 641 687 610 619 592 644 672 599 663 636 625 607 649 648 641 612 690 620 595 610 599 691 625 653 607 618 640 596 624 651 650 706 645 683 602 660 643 649 656 634 587 666 637 710 641 645 641 628 633 641 645 666 654 664 631 632 644 664 681 625 635 621 679 650 666 659 625 634 683 615 664 655 661 617 638 656 622 620 632 583 564 670 602 637 631 611 630 658 633 658 657 655 622 651 654 650 633 670 653 643 640 626 651 624 652 629 644 622 660 635 646 671 625 636 680 621 660 657 637 645 635 631 634 630 621 608 645 639 634 636 658 670 638 618 621 659 611 639 602 677 625 645 613 593 623 612 647 593 668 644 640 666 651 650 629 640 633 653 661 650 611 598 613 638 619 635 645 639 676 640 647 634 634 634 667 631 613 657 624 662 637 645 598 647 634 691 648 606 608 633 643 602 608 625 626 629 683 642 637 644 586 633 631 618 646 650 668 575 616 656 657 648 634 667 637 663 646 673 631 602 667 613 639 699 645 669 604 662 632 606 647 665 616 648 621 683 675 662 648 660 630 657 652 613 638 630 629 643 692 636 672 642 599 656 669 606 710 629 642 632 668 641 618 706 630 612 639 657 602 671 648 615 605 623 640 664 639 629 609 673 616 627 635 600 599 648 643 619 670 661 599 693 644 658 613 640 605 634 614 645 610 663 654 578 675 622 620 616 601 620 654 640 583 612 596 635 630 643 617 616 648 618 590 592 578 618 598 614 651 621 638 571 587 615 621 580 634 617 662 646 614 663 665 611 618 626 641 629 608 633 618 681 597 626 623 660 615 664 615 628 581 637 636 627 628 637 644 572 646 607 628 615 651 636 582 664 635 656 644 632 624 611 646 653 643 659 629 637 605 630 581 714 650 642 619 625 617 680 624 635 641 578 639 595 596 599 578 636 599 624 650 647 641 635 659 645 656 602 663 599 629 609 639 647 641 649 640 612 618 633 643 675 592 621 598 589 667 640 661 646 603 630 601 592 647 639 612 572 598 617 620 640 626 624 628 636 613 591 608 627 617 649 657 619 623 605 628 594 625 643 643 605 598 593 599 619 607 616 618 649 613 654 628 630 627 625 595 615 635 661 606 662 620 680 577 607 621 621 602 623 615 677 616 680 601 611 638 639 640 654 644 632 705 638 631 639 646 644 677 626 639 598 650 688 627 642 617 683 625 658 624 622 634 668 613 642 615 638 690 635 645 632 645 685 643 689 675 657 628 677 668 622 692 637 603 659 684 644 634 656 657 631 710 640 633 683 641 622 621 642 681 672 646 650 646 687 612 659 664 658 634 631 680 654 650 675 698 646 681 661 643 706 636 705 629 615 675 609 664 662 689 647 644 666 603 683 662 694 662 675 651 678 618 665 705 676 681 640 670 630 644 642 642 671 624 681 672 681 632 614 620 629 659 671 656 612 628 653 638 660 611 664 621 638 636 646 625 637 611 643 613 606 669 630 645 675 609 602 627 653 609 583 613 643 622 626 625 635 665 649 612 624 623 593 565 646 610 655 662 673 598 617 655 636 626 598 629 635 632 622 642 616 626 643 636 647 643 595 643 665 672 661 612 614 650 625 657 642 642 627 614 620 648 593 632 633 639 655 619 615 622 639 628 585 630 598 612 627 648 659 612 610 638 584 577 663 631 607 598 614 635 589 592 608 600 660 644 652 608 619 658 624 608 608 583 609 632 650 617 639 660 627 597 617 618 606 637 637 643 600 597 606 641 604 604 616 612 658 558 600 628 643 636 569 570 639 608 557 645 611 634 618 630 658 581 635 596 609 637 645 628 642 578 593 636 595 598 633 634 640 632 589 624 637 608 640 601 650 597 560 613 607 607 641 670 625 590 597 644 606 661 665 633 599 646 627 612 616 667 624 657 676 643 627 609 631 612 626 610 645 604 642 625 620 672 638 675 601 599 636 607 592 593 623 621 648 637 645 639 619 648 620 630 641 627 639 630 643 641 548 624 627 641 610 617 620 655 614 618 650 615 621 613 603 600 608 599 588 602 650 615 640 625 638 625 621 603 566 652 639 600 640 622 625 579 603 614 578 584 607 560 608 654 628 643 643 649 633 654 618 624 589 607 642 558 636 629 624 643 617 621 618 618 588 648 627 630 663 631 616 593 578 672 616 626 585 622 620 617 630 641 626 652 624 616 635 659 628 681 606 604 621 661 635 629 630 588 631 586 598 649 612 585 613 617 611 650 656 643 621 580 632 598 620 587 618 632 629 622 636 580 596 633 670 621 655 643 690 632 645 636 698 630 628 627 661 626 656 583 616 616 586 630 610 647 604 578 610 622 650 651 617 643 629 608 678 636 662 626 686 631 623 652 615 636 617 629 570 660 638 645 614 661 648 593 633 614 616 577 622 609 599 637 648 617 626 654 599 601 626 669 645 687 613 638 565 666 656 637 595 592 620 599 584 592 615 629 635 627 612 631 649 633 588 625 633 692 691 632 588 619 607 569 652 666 720 638 602 651 610 625 598 624 624 635 634 585 628 635 682 630 635 629 607 671 615 668 604 593 609 612 597 597 646 608 625 590 649 635 618 622 624 597 646 665 604 597 650 649 611 646 602 625 613 650 645 667 600 646 698 610 604 607 654 633 599 640 623 642 624 614 665 610 643 652 674 600 676 600 611 614 595 623 628 661 591 613 655 648 551 666 691 658 590 615 581 651 592 648 631 636 640 606 596 630 621 592 693 654 628 648 594 650 604 633 652 603 641 652 687 655 631 682 628 642 669 598 635 635 607 641 622 640 660 672 627 683 670 645 624 637 643 665 649 607 627 658 632 654 667 622 662 666 637 668 660 612 634 634 646 641 647 633 656 619 629 635 648 643 667 655 652 660 648 689 679 680 650 609 649 660 656 656 651 666 626 611 639 601 634 681 631 667 682 653 666 654 660 665 678 648 646 644 649 612 664 642 646 651 737 639 579 652 672 660 620 622 656 669 643 655 652 655 590 650 656 651 672 665 658 669 688 640 716 688 640 637 643 611 661 656 666 665 635 651 687 607 681 616 651 623 624 663 622 672 668 661 669 635 631 665 634 654 631 633 631 628 637 641 641 637 646 680 624 618 645 674 614 649 652 663 630 634 593 650 579 685 664 676 652 664 631 681 663 701 687 654 617 665 619 609 690 722 667 697 675 710 595 634 679 612 638 638 650 605 676 655 640 620 639 669 674 616 672 673 628 694 637 634 617 638 635 659 661 634 658 677 716 632 605 628 620 612 614 656 638 643 632 648 667 612 650 681 640 633 657 641 676 685 670 644 641 698 604 637 626 663 664 617 709 701 659 645 634 660 678 653 658 731 658 649 671 685 631 654 683 688 671 698 687 674 688 680 707 672 669 704 684 676 760 673 689 705 721 711 696 660 657 690 765 666 652 702 731 700 710 725 701 678 696 646 679 663 633 679 697 703 686 679 669 658 651 664 674 652 640 683 644 659 673 704 639 675 642 717 696 677 610 708 615 653 711 691 674 654 698 698 691 672 623 640 703 732 682 665 686 763 656 678 749 676 763 680 686 717 662 741 668 692 709 728 715 691 723 720 710 680 728 662 742 698 646 688 717 715 698 715 706 658 668 729 692 711 688 692 666 677 698 666 709 682 685 684 732 641 619 687 692 645 642 626 636 672 659 633 658 670 632 662 647 659 640 612 656 641 619 631 655 630 637 688 656 633 643 630 650 673 653 625 680 644 653 630 676 668 642 613 635 652 696 627 690 707 646 643 656 645 673 632 648 646 647 663 636 635 638 674 692 645 644 652 665 689 631 654 670 625 673 696 648 664 658 675 656 649 640 651 618 629 671 616 667 653 666 593 633 650 667 639 666 640 611 626 661 682 606 638 643 637 637 644 605 635 662 642 637 624 603 670 658 613 654 638 646 641 638 654 617 646 650 628 637 628 643 637 669 622 618 646 625 618 619 611 651 609 668 607 620 623 616 628 653 625 638 623 579 619 600 596 628 666 621 614 617 657 649 615 611 580 623 664 590 620 625 629 618 579 562 630 668 557 621 625 574 642 633 588 581 597 593 593 599 608 586 603 602 586 547 620 620 585 622 612 638 631 625 600 618 676 600 602 596 623 593 652 650 609 599 575 638 600 584 604 639 566 600 642 602 610 601 600 602 592 650 605 576 580 615 623 619 616 626 614 604 604 637 613 615 626 575 637 607 639 621 616 621 662 634 610 631 555 631 638 594 621 621 616 639 612 619 604 606 588 686 614 564 600 599 581 618 643 572 629 596 601 605 582 657 622 622 587 591 603 593 622 565 653 587 621 602 585 681 610 642 572 631 610 623 580 603 610 644 683 621 632 638 554 646 664 611 631 613 638 657 600 567 622 565 565 589 651 621 598 624 593 608 577 599 643 604 592 639 621 635 629 602 631 596 545 626 622 606 588 622 556 579 607 631 642 598 626 635 597 646 571 634 570 585 627 627 633 601 596 579 656 605 571 643 622 602 627 585 599 589 611 620 630 636 570 645 621 603 621 595 589 602 649 614 624 581 578 635 597 621 592 608 610 590 634 604 592 580 627 590 592 633 531 612 590 639 598 615 604 583 605 662 552 597 591 623 593 603 641 607 624 625 599 584 602 609 642 605 599 663 593 620 628 601 559 628 574 606 591 629 628 569 623 594 615 607 639 579 608 624 633 639 590 549 577 610 587 628 605 600 541 624 618 594 565 602 637 606 629 600 568 611 635 582 571 620 594 621 631 618 568 607 639 621 630 562 575 639 642 624 637 581 649 599 600 587 589 605 634 598 619 626 588 646 615 629 613 662 607 635 583 592 607 623 646 628 638 594 654 596 626 601 612 592 620 598 632 588 604 588 614 596 658 595 598 566 623 585 591 575 562 608 637 642 639 628 638 632 628 663 580 571 580 625 628 627 627 671 617 605 612 593 591 587 627 566 605 582 624 607 567 635 618 608 626 613 625 622 594 607 612 602 634 627 635 580 680 624 600 603 663 630 633 620 607 617 629 608 611 605 607 613 605 580 584 612 608 646 590 571 635 611 614 587 620 626 607 599 658 582 611 619 603 568 619 569 593 612 641 583 606 578 601 616 632 582 584 555 616 621 597 624 592 620 610 626 633 576 637 671 590 603 624 556 598 607 610 613 586 591 564 613 614 557 589 605 587 589 593 542 600 594 583 606 601 622 557 586 619 611 595 636 573 615 595 571 595 642 598 622 580 619 579 588 572 597 587 600 603 609 598 525 596 602 572 587 641 588 600 627 636 577 615 635 639 596 621 681 641 615 633 594 645 579 571 547 623 598 603 598 617 576 644 606 583 614 562 554 602 576 596 619 612 576 587 555 629 595 651 585 629 604 564 608 626 598 564 588 634 586 639 586 594 592 661 630 610 648 591 600 614 618 642 619 582 609 628 618 608 589 593 622 647 601 607 611 617 617 612 624 647 602 641 628 624 621 612 629 692 588 646 624 622 620 648 663 701 675 646 605 651 629 636 616 597 642 662 625 614 653 644 630 658 604 655 628 619 675 660 664 660 640 627 626 585 626 635 680 663 664 596 634 608 594 605 623 616 609 615 603 633 625 610 637 672 580 635 610 591 565 588 600 642 595 610 629 582 659 661 640 589 608 580 581 622 582 652 636 631 602 637 618 632 598 669 583 587 606 606 661 630 639 567 627 636 630 641 608 639 594 576 599 593 711 605 610 606 641 617 655 612 665 645 647 578 630 566 662 663 585 625 606 593 608 620 687 628 569 597 618 604 630 637 621 618 618 584 613 594 613 612 640 596 621 650 633 622 597 633 618 601 558 582 600 623 589 586 584 609 641 601 639 587 600 659 646 579 628 598 579 619 610 599 608 590 615 620 650 604 621 609 580 573 574 603 605 613 579 622 563 647 597 605 629 583 583 641 583 591 631 603 603 611 578 605 580 598 597 605 607 645 619 632 596 601 642 620 589 604 602 585 562 585 612 648 589 614 584 595 601 589 590 627 607 612 593 590 645 606 642 602 655 670 589 619 604 607 614 607 622 583 576 657 615 630 616 612 620 573 633 624 616 631 613 589 589 614 644 611 571 606 604 619 580 634 664 662 689 641 618 583 674 634 589 586 621 585 575 571 580 578 593 568 613 564 598 655 635 622 604 563 641 563 629 598 617 612 659 566 582 618 623 586 583 628 603 609 567 622 596 607 616 569 627 603 613 572 630 641 600 651 592 654 579 612 598 607 617 562 595 612 590 585 653 592 576 594 635 592 608 596 628 603 578 642 579 594 620 626 567 632 542 660 614 587 589 602 582 647 600 633 593 590 626 608 593 569 585 635 632 573 605 542 617 621 561 591 604 596 653 559 583 569 573 635 590 615 633 572 642 599 634 619 576 616 627 554 608 621 628 633 600 578 589 646 614 616 619 577 545 610 578 585 585 575 593 625 572 587 564 604 599 586 595 589 587 615 616 626 562 582 616 554 544 576 542 604 569 602 581 547 542 618 599 576 552 642 590 589 551 640 585 554 640 594 552 579 639 642 615 567 605 582 580 601 555 572 578 585 598 558 570 582 604 574 606 588 566 627 582 535 588 611 583 568 626 592 613 552 589 561 569 598 579 597 561 585 581 599 554 588 553 575 590 613 573 605 564 609 590 610 544 586 561 635 629 572 581 629 564 635 638 591 577 644 622 625 571 604 563 549 589 574 576 598 573 569 593 589 548 578 610 587 600 642 580 560 596 557 607 631 601 607 600 576 622 606 589 603 587 588 549 617 570 591 593 616 648 579 576 561 568 543 594 602 596 616 571 589 551 598 548 568 615 560 603 591 581 570 571 594 586 585 606 574 578 609 617 563 606 609</counts>
			</dataPoints>
		</scan>
	</xrdMeasurement>
</xrdMeasurements>
