<?xml version="1.0"?>
<xrdMeasurements xmlns="http://www.xrdml.com/XRDMeasurement/2.3" xmlns:xsi="http://www.w3.org/2001/XMLSchema-instance" xsi:schemaLocation="http://www.xrdml.com/XRDMeasurement/2.3 http://www.xrdml.com/XRDMeasurement/2.3/XRDMeasurement.xsd" status="Completed" recordIdentifier="{672F341D-FB08-4190-AB61-F9F7B0CDB56A}">
	<comment>
		<entry/>
	</comment>
	<sample type="To be analyzed">
		<id>GPSS_Li1p9Fe0p525Zn0p525Cl4_122625_694efed0ae15af25ac374c4f</id>
		<name></name>
		<preparedBy></preparedBy>
	</sample>
	<xrdMeasurement measurementType="Scan" status="Completed" sampleMode="Reflection">
		<usedWavelength intended="K-Alpha 1">
			<kAlpha1 unit="Angstrom">1.5405980</kAlpha1>
			<kAlpha2 unit="Angstrom">1.5444260</kAlpha2>
			<kBeta unit="Angstrom">1.3922500</kBeta>
			<ratioKAlpha2KAlpha1>0.5000</ratioKAlpha2KAlpha1>
		</usedWavelength>
		<incidentBeamPath>
			<radius unit="mm">145.00</radius>
			<xRayTube id="1010048" name="Empyrean Cu LFF HR (9430 033 7310x)">
				<tension unit="kV">40.0</tension>
				<current unit="mA">15.0</current>
				<anodeMaterial>Cu</anodeMaterial>
				<focus type="Line">
					<length unit="mm">12.0</length>
					<width unit="mm">0.4</width>
					<takeOffAngle unit="deg">6.0</takeOffAngle>
				</focus>
			</xRayTube>
			<sollerSlit id="21010002" name="Soller slits 0.04 rad.">
				<opening unit="rad">0.0400</opening>
			</sollerSlit>
			<mask id="22031000" name="Fixed mask 13 mm">
				<width unit="mm">9.00</width>
			</mask>
			<divergenceSlit id="22120001" name="Divergence slit 1°" xsi:type="fixedDivergenceSlitType">
				<distanceToSample unit="mm">50.00</distanceToSample>
				<height unit="mm">1.52</height>
			</divergenceSlit>
		</incidentBeamPath>
		<sampleMovement xsi:type="spinningSampleMovementType">
			<spinnerRevolutionTime unit="seconds">1.0</spinnerRevolutionTime>
		</sampleMovement>
		<diffractedBeamPath>
			<radius unit="mm">145.00</radius>
			<antiScatterSlit id="22090040" name="AS slit 9 mm (PIXcel)" xsi:type="fixedAntiScatterSlitType">
				<height unit="mm">9.00</height>
			</antiScatterSlit>
			<sollerSlit id="21020003" name="Large Soller slits 0.04 rad.">
				<opening unit="rad">0.0400</opening>
			</sollerSlit>
			<filter id="20030001" name="Large beta-filter Nickel">
				<material>Ni</material>
				<thickness unit="mm">0.020</thickness>
			</filter>
			<detector id="7010019" name="PIXcel1D-Medipix3 detector" xsi:type="rtmsDetectorType">
				<phd unit="keV">
					<lowerLevel>4.02</lowerLevel>
					<upperLevel>11.27</upperLevel>
				</phd>
				<mode>Scanning</mode>
				<activeLength unit="deg">5.542</activeLength>
			</detector>
		</diffractedBeamPath>
		<scan appendNumber="0" mode="Continuous" scanAxis="Gonio" status="Completed">
			<header>
				<startTimeStamp>2025-12-28T10:45:30-08:00</startTimeStamp>
				<endTimeStamp>2025-12-28T10:53:37-08:00</endTimeStamp>
				<author>
					<name>AutomatedUser</name>
				</author>
				<source>
					<applicationSoftware version="1.7b (136)">PANalytical Aeris Instrument Suite</applicationSoftware>
					<instrumentControlSoftware version="3.2.00000000 20240306">AERIS</instrumentControlSoftware>
					<instrumentID>950485</instrumentID>
				</source>
			</header>
			<dataPoints>
				<positions axis="2Theta" unit="deg">
					<startPosition>10.00943322</startPosition>
					<endPosition>99.99442286</endPosition>
				</positions>
				<positions axis="Omega" unit="deg">
					<startPosition>5.00471661</startPosition>
					<endPosition>49.99721143</endPosition>
				</positions>
				<commonCountingTime unit="seconds">12.495</commonCountingTime>
				<counts unit="counts">2674 2762 2768 2876 2679 2771 2710 2781 2689 2715 2750 2797 2784 2772 2729 2697 2691 2791 2641 2714 2745 2809 2767 2783 2741 2826 2864 2801 2820 2665 2765 2764 2786 2732 2784 2737 2749 2799 2761 2678 2749 2692 2799 2704 2871 2690 2777 2708 2810 2822 2847 2782 2695 2740 2708 2750 2855 2711 2732 2810 2699 2729 2822 2827 2778 2854 2781 2703 2822 2866 2781 2705 2775 2812 2845 2865 2702 2757 2752 2815 2830 2809 2777 2889 2785 2830 2847 2930 2845 2820 2870 2849 2884 2886 2958 2915 2838 2895 2902 2852 2892 2889 2872 2842 2969 2936 2874 2902 2862 2906 2921 2738 2937 2814 3024 2857 2898 2880 2905 2862 2898 2880 2843 2880 2825 2869 2868 2888 2919 2872 2850 2918 2776 2764 2883 2820 2761 2856 2798 2804 2905 2908 2921 2896 2817 2950 2889 2854 2844 2749 2835 2909 2919 2826 2852 2779 2802 2886 2888 2736 2841 2801 2697 2689 2821 2828 2893 2813 2835 2840 2908 2775 2828 2842 2693 2766 2888 2751 2786 2862 2760 2811 2774 2784 2790 2820 2733 2830 2712 2823 2911 2846 2858 2820 2793 2767 2762 2693 2805 2683 2780 2820 2774 2850 2796 2826 2827 2753 2809 2718 2774 2822 2824 2852 2738 2830 2777 2710 2797 2796 2826 2760 2657 2770 2661 2739 2904 2757 2714 2781 2783 2832 2847 2795 2768 2659 2762 2771 2747 2738 2773 2742 2746 2823 2743 2755 2720 2653 2727 2741 2745 2752 2675 2801 2740 2712 2821 2726 2717 2663 2811 2742 2760 2744 2781 2698 2708 2739 2730 2738 2657 2646 2607 2780 2695 2730 2669 2740 2680 2686 2610 2706 2699 2758 2626 2781 2725 2681 2735 2715 2781 2777 2776 2748 2764 2787 2722 2810 2772 2747 2864 2711 2747 2764 2755 2843 2896 2807 2727 2725 2719 2800 2690 2754 2842 2809 2851 2802 2675 2789 2779 2730 2841 2775 2814 2914 2783 2831 2836 2790 2833 2888 2761 2763 2757 2868 2791 2893 2884 2935 2824 2966 2834 2942 2891 2892 2960 2886 2827 2882 2857 2930 2978 2946 2916 3054 2921 2956 2869 2926 2992 3020 2889 2946 2981 2986 2954 3024 2939 2968 3089 3143 2992 3051 3064 3014 3052 3122 3080 3154 3165 3078 3124 3090 3124 3142 3193 3187 3191 3277 3272 3114 3216 3142 3207 3116 3163 3148 3117 3137 3265 3110 3155 3258 3299 3214 3269 3156 3422 3266 3334 3247 3335 3327 3321 3401 3234 3388 3313 3322 3353 3320 3410 3360 3394 3344 3344 3490 3364 3337 3351 3438 3269 3283 3370 3305 3349 3408 3365 3319 3401 3397 3336 3313 3332 3416 3382 3462 3585 3353 3386 3524 3446 3486 3524 3533 3534 3701 3561 3514 3647 3552 3675 3596 3582 3552 3616 3553 3573 3489 3584 3538 3578 3465 3560 3471 3417 3552 3534 3409 3330 3442 3455 3402 3391 3402 3328 3356 3318 3114 3197 3230 3095 3159 3273 3084 3203 3115 3130 3115 3092 3108 3056 3100 3128 3132 3160 3048 3046 3116 3067 3062 3036 3043 3078 2959 3044 3073 3081 3097 3028 2989 2992 3002 3012 3073 2938 3061 3082 2991 2952 2950 3029 2905 3042 2923 3063 2985 2978 3023 2928 2947 2909 2926 2886 2914 2914 3021 2929 2935 2983 2985 3071 2937 2917 2902 2971 2884 2955 3005 2918 2894 2961 2954 2937 2813 2861 2897 2913 2932 3013 2918 2855 2900 2969 2871 2908 2971 2885 2981 2909 2872 2944 2920 2911 2894 2896 3062 2949 2900 2931 2896 2903 2939 2826 2918 2948 2897 2864 2854 2827 2896 2889 2915 2769 2871 2903 2776 2795 2831 2926 2805 2884 2785 2735 2700 2830 2729 2758 2809 2744 2744 2685 2719 2768 2694 2689 2662 2661 2716 2705 2685 2691 2648 2797 2710 2754 2649 2647 2673 2650 2654 2672 2648 2616 2597 2630 2550 2710 2582 2656 2680 2720 2606 2707 2652 2645 2689 2613 2605 2670 2725 2572 2787 2600 2754 2704 2628 2704 2653 2714 2672 2630 2692 2617 2508 2623 2589 2665 2682 2694 2725 2670 2683 2665 2658 2692 2696 2642 2682 2669 2664 2627 2662 2531 2563 2638 2637 2649 2663 2610 2691 2549 2544 2570 2641 2610 2641 2627 2565 2613 2635 2629 2551 2570 2497 2507 2666 2559 2557 2458 2547 2558 2540 2579 2512 2515 2601 2488 2496 2642 2632 2574 2609 2466 2642 2635 2562 2547 2603 2532 2510 2642 2550 2536 2548 2581 2535 2609 2565 2668 2537 2691 2610 2567 2591 2591 2448 2524 2563 2631 2515 2566 2527 2636 2574 2631 2547 2575 2610 2612 2645 2581 2718 2619 2640 2560 2635 2594 2644 2646 2652 2601 2730 2637 2594 2645 2611 2674 2658 2631 2573 2561 2592 2581 2587 2595 2584 2653 2591 2619 2732 2661 2639 2606 2473 2597 2550 2512 2617 2634 2540 2624 2507 2632 2595 2637 2613 2545 2533 2595 2491 2611 2601 2623 2595 2506 2640 2526 2657 2575 2568 2606 2481 2583 2549 2506 2534 2695 2534 2522 2585 2489 2549 2615 2461 2466 2456 2525 2448 2462 2470 2397 2498 2508 2449 2386 2438 2437 2360 2448 2497 2430 2417 2425 2455 2324 2360 2384 2355 2354 2454 2332 2461 2390 2489 2412 2334 2343 2386 2384 2478 2386 2391 2415 2414 2368 2489 2371 2362 2368 2347 2350 2378 2391 2390 2396 2371 2408 2272 2355 2444 2277 2388 2334 2396 2360 2499 2339 2368 2351 2304 2383 2394 2330 2333 2361 2370 2350 2452 2316 2371 2290 2403 2246 2321 2379 2363 2483 2365 2362 2348 2349 2376 2434 2441 2379 2332 2344 2477 2452 2357 2291 2372 2233 2298 2339 2428 2332 2323 2305 2324 2309 2403 2276 2388 2309 2303 2367 2367 2340 2349 2240 2448 2362 2276 2237 2328 2341 2272 2226 2397 2344 2345 2295 2287 2381 2252 2270 2277 2227 2306 2261 2248 2310 2233 2222 2286 2172 2287 2234 2365 2315 2241 2271 2272 2272 2239 2307 2196 2248 2321 2201 2294 2259 2219 2284 2263 2234 2220 2207 2401 2245 2239 2269 2288 2291 2290 2394 2309 2391 2235 2250 2253 2247 2212 2231 2338 2269 2257 2305 2215 2198 2239 2235 2277 2283 2374 2287 2248 2355 2247 2320 2262 2125 2312 2273 2259 2209 2206 2273 2210 2189 2178 2246 2287 2236 2292 2338 2211 2301 2233 2255 2276 2261 2263 2292 2298 2329 2262 2310 2326 2341 2251 2379 2236 2242 2337 2237 2302 2299 2271 2243 2320 2267 2299 2279 2300 2214 2307 2269 2394 2252 2239 2265 2416 2302 2343 2255 2395 2233 2313 2261 2326 2274 2221 2322 2313 2298 2218 2345 2227 2321 2434 2304 2273 2308 2322 2298 2311 2298 2222 2298 2263 2243 2318 2329 2365 2384 2281 2355 2243 2131 2365 2245 2336 2375 2224 2188 2226 2313 2273 2318 2269 2189 2191 2258 2191 2222 2297 2233 2282 2215 2262 2190 2257 2172 2284 2258 2269 2164 2280 2178 2242 2242 2154 2161 2204 2216 2175 2113 2124 2135 2136 2194 2179 2141 2120 2231 2133 2188 2109 2205 2072 2132 2152 2153 2159 2158 2143 2200 2214 2156 2087 2095 2178 2047 2087 2102 2070 2097 1927 2123 2094 2078 2114 2023 2109 1999 2045 2069 2081 2111 2094 2133 2102 2066 2048 2065 1971 2043 2018 2032 1987 2014 2039 1936 1945 1966 1948 2016 1938 2008 1921 1919 1939 1927 1944 1994 1987 1987 1918 1893 1912 1974 1956 1919 1863 1954 1945 1883 2001 1917 1903 1934 2023 1863 1908 1948 1883 1950 1789 1876 1923 1963 1889 1832 1772 1845 1821 1855 1923 1909 1893 1795 1782 1873 1785 1948 1799 1874 1852 1780 1794 1844 1879 1844 1806 1813 1812 1837 1838 1780 1869 1905 1820 1878 1783 1904 1874 1865 1790 1841 1843 1868 1906 1948 1871 1830 1934 1854 1896 1886 1925 1894 1873 1825 1911 1818 1935 1785 1890 1850 1855 1928 1886 1822 1915 1868 1947 1903 1954 1921 1911 1994 1908 1946 1940 1973 1914 1893 1994 1932 1976 1754 1927 1927 1837 1857 1889 1825 1847 1800 1762 1816 1721 1797 1814 1769 1734 1786 1784 1700 1794 1697 1704 1675 1735 1715 1735 1719 1783 1674 1675 1712 1661 1754 1596 1708 1642 1769 1718 1679 1672 1620 1683 1662 1763 1674 1632 1611 1746 1661 1718 1645 1703 1650 1677 1686 1659 1650 1729 1631 1638 1597 1731 1724 1774 1714 1665 1729 1740 1626 1725 1656 1658 1735 1705 1733 1647 1675 1741 1700 1642 1639 1701 1778 1637 1732 1642 1710 1746 1696 1701 1625 1655 1681 1715 1684 1757 1695 1657 1753 1752 1711 1710 1698 1716 1745 1636 1711 1643 1644 1740 1694 1680 1773 1650 1730 1660 1742 1695 1687 1678 1694 1716 1700 1715 1656 1734 1716 1660 1648 1682 1666 1750 1715 1717 1714 1644 1771 1608 1736 1735 1687 1624 1679 1696 1700 1703 1662 1734 1721 1717 1744 1677 1692 1680 1685 1717 1662 1639 1691 1672 1648 1645 1719 1691 1728 1664 1722 1681 1691 1726 1720 1662 1738 1682 1681 1694 1691 1742 1716 1586 1664 1719 1636 1569 1650 1748 1650 1697 1688 1731 1660 1665 1669 1611 1701 1664 1634 1663 1569 1737 1643 1623 1637 1583 1628 1639 1649 1719 1622 1614 1637 1541 1683 1625 1636 1613 1638 1664 1563 1622 1595 1659 1569 1674 1636 1610 1624 1700 1556 1592 1625 1688 1666 1643 1617 1567 1588 1530 1640 1541 1574 1530 1552 1604 1568 1639 1543 1546 1546 1619 1514 1552 1606 1564 1592 1590 1554 1553 1527 1553 1515 1533 1504 1530 1615 1561 1586 1591 1580 1443 1591 1550 1584 1481 1517 1491 1477 1598 1621 1626 1531 1581 1549 1593 1548 1610 1538 1559 1549 1545 1546 1580 1570 1549 1556 1548 1511 1512 1466 1501 1538 1582 1541 1605 1609 1549 1599 1644 1584 1659 1616 1590 1579 1536 1542 1622 1672 1540 1639 1512 1598 1535 1644 1589 1658 1645 1614 1696 1513 1613 1602 1613 1566 1571 1569 1573 1480 1516 1504 1551 1451 1589 1604 1520 1571 1523 1548 1561 1613 1616 1525 1537 1646 1601 1625 1555 1567 1643 1602 1594 1529 1587 1531 1563 1648 1625 1556 1616 1668 1600 1633 1697 1619 1617 1610 1662 1674 1729 1690 1776 1782 1773 1817 1840 1834 1816 1860 1825 1939 1900 1864 1801 1805 1802 1844 1732 1744 1733 1744 1734 1714 1719 1657 1652 1692 1547 1579 1612 1586 1557 1465 1491 1525 1524 1544 1588 1503 1541 1423 1509 1488 1423 1451 1475 1458 1450 1401 1394 1455 1468 1394 1431 1383 1361 1384 1459 1386 1396 1428 1414 1385 1359 1274 1330 1373 1332 1338 1416 1398 1472 1475 1421 1474 1460 1490 1453 1431 1391 1394 1407 1414 1342 1402 1415 1397 1457 1375 1570 1503 1475 1593 1505 1540 1516 1550 1574 1558 1616 1594 1569 1674 1621 1551 1609 1694 1616 1708 1599 1694 1685 1757 1802 1870 1854 1973 1912 1990 2049 2125 2084 2199 2217 2224 2300 2220 2325 2316 2302 2330 2327 2228 2189 2083 2078 2061 2108 2036 2015 1888 1950 1891 1870 1844 1787 1730 1674 1669 1575 1583 1514 1495 1552 1503 1451 1469 1382 1374 1337 1268 1313 1256 1281 1294 1275 1246 1279 1205 1296 1221 1212 1229 1201 1208 1198 1217 1211 1219 1218 1212 1280 1262 1292 1204 1276 1179 1185 1215 1139 1209 1227 1211 1193 1214 1134 1191 1203 1222 1240 1198 1222 1132 1189 1163 1146 1209 1124 1165 1154 1125 1162 1195 1135 1166 1119 1257 1209 1217 1228 1235 1234 1224 1237 1277 1243 1272 1201 1166 1152 1224 1195 1215 1178 1206 1200 1180 1167 1175 1194 1237 1260 1260 1239 1280 1322 1252 1251 1267 1260 1327 1329 1267 1296 1300 1304 1354 1315 1356 1374 1386 1333 1382 1419 1377 1426 1447 1468 1440 1456 1452 1433 1423 1427 1397 1405 1412 1370 1439 1404 1437 1488 1449 1429 1482 1464 1407 1399 1332 1328 1297 1292 1243 1241 1163 1248 1230 1077 1191 1094 1115 1065 1147 1101 1069 1076 1114 1030 1049 1054 1070 1106 1019 1037 1050 1036 1125 1070 1053 1073 1070 1091 1053 1043 1050 1036 1009 986 1011 998 1059 1099 1072 1061 1142 1172 1045 1033 1081 1118 1152 1058 1070 1106 1110 1087 1075 1097 1085 1083 1097 1074 1076 1103 1093 1146 1104 1140 1065 1092 1127 1160 1107 1099 1120 1121 1103 1158 1137 1080 1115 1082 1099 1110 1115 1056 1121 1101 1019 1059 1102 1078 1060 1023 1090 1013 1008 1059 1063 1067 1003 1085 1040 1048 1052 1071 1073 1043 1065 1130 1079 1064 1089 1127 1064 1051 1053 1079 1052 1097 1091 1097 1071 1024 1012 1044 1129 1109 1079 1024 1118 1019 1054 1011 1067 1059 1134 1068 1036 1082 1051 989 1110 1016 1055 1001 1112 1027 1059 1083 988 1068 1024 1064 1001 1073 1023 1029 1002 1030 1084 1004 998 1025 1035 1025 1032 984 1068 1002 1023 970 1035 1066 991 1026 967 1073 975 1010 1023 1025 994 991 1009 1016 951 998 951 1029 1049 990 1010 1014 980 1078 984 1028 997 1038 992 984 965 1021 977 959 1069 950 979 1042 973 1072 1010 1031 1038 1095 1090 1024 1023 1058 1047 1085 1120 1075 1071 1119 1114 1114 1171 1192 1179 1186 1269 1281 1297 1373 1367 1427 1401 1357 1400 1420 1465 1473 1482 1493 1555 1490 1563 1621 1510 1591 1585 1640 1738 1697 1751 1792 1867 1922 2001 2022 2143 2179 2334 2360 2376 2512 2523 2502 2563 2668 2600 2744 2646 2749 2666 2741 2517 2520 2358 2344 2367 2261 2327 2242 2088 2031 1893 1928 1897 1750 1673 1631 1645 1592 1544 1572 1485 1488 1324 1356 1283 1334 1298 1221 1263 1187 1200 1169 1205 1082 1153 1178 1094 1058 1106 1091 1042 1019 1041 1018 1036 1027 1004 987 1011 965 976 1002 984 1035 930 1063 1021 1056 983 1057 956 1016 1068 1049 985 1065 946 1043 982 1032 1006 982 948 1019 955 1030 947 942 957 1041 969 972 1025 1024 958 942 934 966 995 1007 923 973 959 977 1043 956 993 974 1011 989 937 943 886 921 1021 957 1019 994 996 937 986 1033 996 1032 923 975 1084 950 988 956 976 957 923 1032 993 999 988 982 937 993 1000 956 1020 969 998 971 979 1017 972 969 985 1009 950 991 967 901 1004 914 948 952 951 978 961 945 917 918 941 928 937 947 903 950 959 929 935 950 930 956 898 880 877 920 908 907 900 934 980 915 903 929 971 926 931 874 921 942 954 961 1034 900 890 891 885 1014 962 912 942 925 867 936 888 1011 932 1003 933 952 946 962 933 917 906 916 1026 924 945 972 964 977 991 909 944 909 930 937 913 869 968 904 935 899 928 912 895 969 907 887 918 969 929 932 948 896 925 937 937 907 930 917 921 972 880 967 940 919 890 951 980 927 939 970 911 938 958 953 997 969 982 1024 1022 1025 1032 981 900 969 958 919 936 954 941 1029 978 1010 956 944 997 1032 980 1022 1007 1001 979 985 1034 1052 1042 990 1069 984 1059 1001 1024 1023 961 1015 1023 986 1045 1003 986 971 972 985 930 951 931 957 907 906 939 933 916 934 936 946 898 917 908 902 882 936 891 985 904 921 944 910 880 895 884 822 855 869 869 885 864 876 999 923 955 890 872 906 892 853 895 901 904 821 882 898 956 907 927 875 880 894 896 881 956 950 923 912 925 892 918 900 910 939 875 921 910 908 848 939 880 913 935 901 882 908 895 935 915 944 921 942 943 913 861 896 882 905 905 895 880 883 882 930 846 878 881 892 871 878 896 920 892 937 886 854 891 867 916 844 869 890 901 858 919 952 913 877 911 836 875 867 886 934 846 881 915 903 945 938 910 901 870 897 939 870 930 919 869 954 929 949 886 942 946 940 930 953 946 974 907 926 917 905 914 917 914 952 933 937 951 924 877 853 971 902 907 948 944 883 949 876 909 912 903 831 937 918 853 899 868 813 872 901 925 922 824 882 890 844 835 874 835 833 901 945 873 885 884 880 864 841 889 873 914 845 855 855 831 842 854 833 859 927 873 852 845 871 892 904 848 850 894 857 836 893 930 904 858 862 866 865 908 910 902 857 921 902 914 903 877 938 904 859 887 909 881 868 917 919 875 923 889 885 947 960 920 893 869 878 919 889 930 816 883 892 836 851 843 867 861 848 857 837 914 883 849 851 900 882 905 867 910 878 823 830 829 818 865 845 846 881 849 833 894 847 933 880 847 862 891 818 839 842 852 808 824 795 802 900 826 821 842 838 833 893 820 825 836 796 853 940 919 827 882 825 861 902 835 849 889 866 860 812 863 835 861 899 813 845 865 874 827 928 892 854 840 896 857 825 880 881 884 846 799 873 841 876 889 888 860 849 807 867 870 890 846 845 895 886 836 857 854 848 843 860 879 850 887 835 849 864 833 875 854 855 903 871 926 911 875 917 834 841 866 953 888 889 932 936 926 889 885 882 930 909 909 967 931 882 876 915 921 924 943 924 928 924 928 928 952 934 922 991 948 929 911 1031 925 1014 1009 906 958 959 1009 977 984 990 960 945 942 981 984 934 987 906 935 896 832 870 917 905 893 886 910 905 864 882 872 823 836 862 859 867 922 899 874 845 858 850 822 835 841 820 839 842 826 916 816 902 902 810 835 890 840 875 888 834 902 840 872 893 890 843 858 850 848 823 865 885 867 872 874 866 857 834 873 864 857 827 863 868 858 809 855 885 867 917 896 934 900 929 883 920 906 884 889 834 874 900 876 856 908 832 913 865 854 871 855 893 844 869 836 872 887 825 857 872 835 839 848 899 883 874 837 850 782 827 768 815 797 857 871 794 857 846 835 826 815 815 843 791 843 851 875 818 813 810 826 801 840 885 865 810 842 833 836 832 824 829 793 810 842 857 862 833 851 812 790 842 875 913 785 785 799 851 831 883 840 886 817 903 831 882 806 878 837 856 809 835 858 804 879 857 917 850 807 874 866 831 829 873 873 860 822 850 887 858 879 860 861 925 925 967 974 876 920 952 947 941 935 981 970 997 954 946 1022 914 1010 940 989 985 1002 1014 1079 1014 1056 1028 1003 1078 996 1076 1048 1080 1086 1123 1105 1045 1076 1191 1134 1076 1077 1128 1132 1098 994 1071 1081 1020 1027 1086 1077 1025 1078 959 955 934 1020 995 950 933 899 948 937 887 907 866 924 866 910 888 833 865 812 850 862 865 868 815 883 865 833 842 854 910 871 864 919 851 879 814 871 839 852 914 847 862 915 893 875 881 870 892 849 829 914 835 889 800 908 842 949 824 900 902 813 907 862 840 838 896 806 843 889 804 819 875 910 902 833 852 833 807 856 857 896 805 867 848 848 851 832 835 875 838 796 845 886 852 872 863 817 846 836 821 859 843 805 871 844 845 817 830 839 837 788 827 834 857 830 803 806 835 832 870 812 822 848 857 855 817 811 811 829 863 830 806 881 837 829 859 814 850 777 856 832 832 834 837 841 783 834 802 841 790 856 870 825 843 860 846 815 801 856 821 789 828 811 852 803 817 849 841 830 855 860 861 802 883 882 888 870 836 858 877 853 882 857 858 799 883 905 845 880 830 849 868 867 906 902 876 901 882 886 874 841 852 902 931 953 898 883 927 812 889 879 895 895 830 844 885 813 864 873 845 825 837 859 862 899 857 860 861 860 862 898 858 798 896 872 842 874 842 853 897 872 921 915 819 905 936 890 851 897 873 858 880 863 822 851 909 881 828 853 826 868 861 844 823 854 836 837 862 839 931 902 806 822 851 831 875 922 933 882 913 903 878 938 917 951 900 915 944 902 928 942 934 923 893 1015 996 1020 1060 1053 1011 1047 1122 1036 986 1011 976 958 1014 983 1029 1058 1068 1082 1028 1009 1046 1019 1004 1043 1027 1016 1042 1050 1074 1034 974 1038 1038 1050 1039 1009 1035 1124 1114 1080 1142 1163 1145 1135 1197 1264 1267 1334 1328 1393 1473 1482 1421 1493 1542 1514 1657 1573 1611 1691 1583 1661 1681 1792 1935 1907 1878 1960 1906 2084 1992 2194 2099 2243 2268 2320 2330 2336 2319 2354 2387 2445 2250 2335 2209 2246 2345 2194 2248 2229 2161 2141 2117 2094 2033 2001 1915 1811 1749 1864 1651 1750 1608 1511 1643 1477 1624 1430 1461 1399 1391 1368 1312 1249 1227 1223 1150 1147 1119 1128 1116 1069 1025 979 962 984 1024 949 932 967 1003 924 916 901 901 844 836 867 863 911 890 888 864 861 884 804 786 914 879 828 866 817 805 885 846 845 784 876 860 887 915 823 886 846 836 870 817 847 828 808 830 845 788 802 831 841 858 845 828 857 821 830 872 801 838 854 864 817 807 843 836 902 809 894 830 851 918 872 850 870 862 903 837 842 873 832 816 867 823 892 883 884 830 828 874 826 827 821 882 861 817 810 853 856 877 805 815 841 803 854 895 810 819 840 905 811 862 799 832 795 825 865 842 814 873 834 862 841 816 843 824 820 810 816 798 791 796 835 788 844 814 879 794 821 889 882 844 847 876 917 874 819 828 853 856 868 863 940 885 908 843 877 922 815 920 908 907 907 901 851 928 959 977 931 941 936 879 954 926 941 963 963 941 980 932 915 960 985 963 963 981 1010 918 928 989 995 937 1013 939 920 909 877 904 859 884 890 891 926 886 890 871 907 862 925 841 857 876 914 816 817 869 845 850 815 844 830 833 794 822 801 822 829 813 892 821 907 872 848 809 807 860 843 818 857 846 839 846 904 802 883 906 858 908 851 905 981 949 973 1006 918 954 968 947 1000 961 942 1027 1048 1079 1035 978 1043 1057 1088 1083 1103 1039 1174 1084 1117 1083 1068 956 1022 1022 1016 974 972 1019 922 975 938 938 903 940 949 941 925 901 903 935 911 899 862 904 896 878 837 870 871 888 806 834 812 876 862 818 882 835 878 821 819 823 806 818 805 836 817 855 792 815 826 848 806 847 785 784 858 828 759 802 784 813 852 814 808 794 861 810 873 783 808 765 791 811 812 806 774 778 817 802 788 711 776 759 811 796 827 813 771 770 785 787 797 780 797 816 759 794 794 781 794 793 791 802 810 775 804 761 808 790 778 771 831 786 860 790 728 801 773 770 797 834 822 848 794 814 820 794 832 790 851 804 805 771 746 767 787 818 792 831 858 775 827 812 801 844 827 818 756 841 824 726 812 803 769 794 781 799 800 831 815 790 826 832 753 830 828 778 768 783 774 792 810 776 814 802 791 817 816 815 775 845 790 797 827 782 752 785 779 808 745 834 835 775 765 837 805 773 803 753 807 766 759 850 777 821 805 822 808 822 783 776 752 769 778 778 833 788 815 838 759 765 763 847 783 813 771 777 791 797 816 790 816 820 797 790 784 732 773 790 814 827 791 832 787 840 817 853 772 764 829 795 846 814 799 776 861 789 827 826 846 873 868 863 849 837 798 843 829 879 888 879 829 871 863 847 833 812 859 858 877 879 833 829 783 807 854 858 844 828 823 800 847 850 867 817 821 785 874 801 812 845 785 884 806 796 813 753 802 788 762 759 772 825 801 803 763 757 826 746 776 811 781 792 748 797 788 777 815 785 793 782 808 809 766 753 747 786 792 796 804 804 805 781 785 770 785 801 830 839 819 819 804 759 794 788 797 843 787 783 742 822 761 753 785 810 812 817 793 762 785 811 842 814 854 789 789 783 790 845 778 805 762 797 817 821 774 779 796 780 845 812 775 831 789 803 790 808 763 756 780 783 795 808 781 739 760 796 746 800 808 789 749 808 792 828 787 767 790 824 815 802 724 775 821 772 829 799 819 795 802 815 865 800 893 808 831 869 805 855 771 853 828 848 855 813 847 783 815 814 888 902 853 915 887 803 897 854 836 857 886 894 926 851 873 889 851 960 864 896 907 897 868 903 815 836 869 854 937 851 798 866 867 835 879 865 881 839 848 857 858 856 863 866 828 855 882 863 840 908 835 898 814 866 824 892 846 863 881 856 826 933 887 833 898 898 868 941 897 919 927 1021 959 929 969 963 1080 956 994 978 1046 1025 993 1028 1062 1021 1079 1097 1068 1071 1110 1078 1136 1114 1149 1094 1084 1131 1106 1106 1165 1111 1159 1119 1136 1079 1085 1085 1076 1103 1125 1083 1074 1037 1058 1075 1053 1052 950 1021 1013 978 987 933 937 938 898 917 938 865 922 858 925 899 834 847 869 945 865 872 837 855 845 914 832 837 836 799 811 833 839 820 761 836 811 796 823 814 790 769 832 752 724 808 856 772 801 790 748 742 765 754 858 798 791 820 813 780 805 762 819 814 861 838 809 813 808 773 762 800 742 818 813 842 791 785 819 789 818 822 838 779 784 831 802 809 720 785 775 761 809 795 797 769 806 798 831 790 776 783 795 795 806 761 769 785 782 795 769 757 759 809 803 797 774 764 761 749 746 785 792 845 760 793 776 764 762 837 829 750 746 778 758 739 777 756 793 795 841 726 809 788 827 820 765 750 801 794 767 808 799 817 742 841 757 759 803 779 793 788 780 768 768 768 793 727 772 782 811 775 746 767 808 790 777 741 765 775 883 799 754 815 749 793 758 777 750 746 741 754 754 801 835 802 786 832 762 780 762 796 726 822 766 835 822 826 811 906 875 835 928 859 869 867 865 898 900 858 939 882 961 985 934 959 979 979 955 990 1016 1015 992 992 1024 1018 1042 1055 1047 1083 980 1022 1042 1099 978 1077 1032 1052 1015 986 979 1000 956 931 916 959 968 993 873 878 915 966 883 926 847 905 890 884 846 868 874 864 838 865 819 863 776 864 801 823 805 871 809 794 854 828 806 771 826 844 853 817 819 801 783 815 849 854 805 800 767 846 840 780 791 817 812 796 760 761 783 813 775 725 754 785 758 793 755 772 750 713 748 764 824 751 773 744 726 749 781 761 720 813 769 785 776 739 765 730 755 777 713 764 762 731 740 771 758 729 770 720 803 799 700 809 773 793 747 730 709 815 808 785 720 780 741 742 725 781 783 765 756 797 796 785 781 762 774 815 760 735 804 813 805 781 781 738 708 791 757 797 806 843 745 784 763 804 806 849 792 779 783 800 807 835 811 773 790 809 828 794 903 825 806 816 842 811 809 848 840 851 881 810 919 799 870 913 885 896 874 897 876 798 835 817 874 867 844 873 865 914 861 860 859 888 898 856 878 803 900 801 831 811 847 838 871 841 775 849 767 858 810 919 831 804 813 813 815 770 810 804 782 813 770 802 758 771 847 733 757 757 809 820 743 772 737 770 801 749 756 736 749 794 760 751 764 790 796 774 733 762 769 700 770 737 741 770 780 751 827 797 775 758 745 791 777 748 770 809 780 732 809 769 773 769 720 786 767 787 734 803 708 759 784 810 831 732 787 798 794 795 784 807 775 787 787 780 779 788 750 799 798 813 786 759 755 780 745 826 788 772 764 732 815 849 821 790 774 742 789 755 789 830 775 761 768 815 759 780 766 818 817 733 796 756 743 764 776 819 737 761 778 763 761 787 754 796 777 758 774 776 766 782 791 827 783 759 774 751 816 747 836 766 749 753 750 734 798 762 747 744 761 754 749 794 694 755 754 745 774 761 754 759 737 768 796 780 687 754 736 765 757 735 752 792 772 770 784 724 675 787 735 767 758 759 750 803 769 777 783 764 734 841 764 773 785 756 681 754 762 769 712 742 771 762 715 780 702 728 794 712 835 798 745 696 741 765 744 787 766 736 756 738 781 699 736 745 772 745 738 745 785 707 769 732 787 771 727 751 758 743 739 749 783 784 749 751 744 731 775 671 740 728 740 744 749 772 807 705 727 789 791 842 782 772 774 769 807 729 812 738 787 816 804 797 759 757 834 824 767 740 801 775 804 730 804 831 809 787 771 862 810 809 828 853 812 861 806 812 821 795 780 811 761 789 858 798 774 747 790 826 760 815 798 775 743 774 796 787 781 749 794 738 791 801 772 811 792 747 747 748 751 768 736 763 754 719 733 708 810 787 782 753 752 735 766 794 732 703 762 761 749 803 766 750 738 762 769 706 757 793 799 766 761 790 761 794 798 820 786 761 752 751 782 781 771 717 779 743 807 728 748 784 799 743 752 754 741 773 773 733 756 705 788 756 741 788 744 777 798 851 754 748 777 710 728 770 725 717 769 800 772 738 803 833 760 761 731 772 725 752 769 782 718 742 721 763 713 816 726 731 759 774 755 732 690 751 777 820 758 782 778 800 765 784 836 817 778 787 782 778 825 788 808 794 814 808 817 766 806 808 824 863 830 825 845 799 764 789 782 811 781 811 828 813 807 873 843 843 835 818 858 790 858 904 772 814 805 741 807 771 813 816 809 853 806 809 835 795 824 860 847 780 761 761 797 740 776 792 775 835 817 805 837 765 828 788 826 798 769 794 791 762 777 773 766 763 783 803 780 772 775 754 789 705 705 721 764 769 742 747 776 776 750 775 751 738 784 767 770 734 754 729 745 793 750 744 746 783 768 809 787 767 725 766 750 776 760 766 762 745 754 782 768 732 740 790 797 808 776 718 778 774 775 834 761 789 731 743 759 770 751 793 771 779 796 864 788 796 775 806 789 763 791 825 755 770 773 741 802 747 771 815 800 751 731 801 793 791 787 799 764 771 723 745 774 727 792 724 760 756 753 748 708 719 796 773 793 767 815 740 755 739 728 775 728 735 726 763 749 766 703 719 776 752 714 745 791 751 771 685 749 753 711 789 779 796 712 770 749 766 791 769 755 758 719 779 758 749 737 790 761 744 770 739 770 747 733 766 730 762 745 800 742 739 722 699 779 761 736 755 717 764 767 815 764 753 803 736 747 758 785 757 693 715 784 781 765 751 802 805 804 754 785 739 708 778 745 811 795 779 749 819 764 732 813 804 811 771 825 763 812 791 785 783 735 808 840 806 779 830 814 850 824 828 827 855 846 769 869 806 841 890 875 904 876 853 811 854 937 914 946 903 858 882 934 854 961 929 944 927 896 966 878 966 921 962 912 902 863 917 922 924 861 941 966 925 910 907 907 884 906 899 896 842 880 750 819 843 920 890 845 873 846 802 871 826 793 845 806 779 757 779 724 758 811 768 821 793 778 794 802 775 807 766 785 801 734 759 779 775 767 816 775 782 739 796 753 763 755 774 725 761 784 720 724 791 806 726 752 782 782 809 782 773 764 774 710 803 803 774 789 758 785 797 806 806 719 795 769 750 787 763 847 810 755 769 792 764 737 767 772 786 747 753 771 813 751 780 743 754 789 786 790 795 755 790 789 779 711 782 799 758 744 809 796 803 812 774 744 779 788 760 783 748 778 817 761 779 748 727 784 772 751 796 758 791 785 822 739 779 767 803 829 783 829 757 799 814 764 777 787 773 826 814 798 800 824 762 801 787 860 792 809 815 778 767 811 797 766 851 823 785 773 754 825 794 801 838 811 801 843 800 836 754 748 800 796 869 811 875 801 764 861 819 838 781 821 852 852 837 822 907 821 796 783 822 790 810 853 777 818 785 885 767 778 813 768 791 798 805 799 773 768 773 839 794 740 821 830 772 818 774 762 746 798 758 774 784 756 797 761 781 814 737 725 763 760 759 774 772 724 767 744 749 774 736 789 782 767 762 748 754 750 792 796 715 736 798 802 801 801 818 783 768 743 731 748 701 788 787 805 739 820 809 763 789 784 769 772 733 781 743 762 781 715 752 765 774 763 780 732 792 751 729 731 765 693 720 741 730 776 788 773 733 772 777 767 717 737 771 725 767 749 831 782 804 766 777 798 709 804 742 780 786 783 763 764 746 777 812 772 790 743 748 753 715 824 781 761 783 752 719 754 719 812 772 771 767 737 829 778 762 788 780 818 735 766 787 789 729 772 749 722 804 796 798 702 786 742 692 762 803 739 780 801 810 809 790 746 749 748 743 747 739 754 776 759 760 807 752 807 772 719 793 710 818 754 760 768 767 759 756 785 785 742 803 811 766 770 770 772 753 786 807 765 783 789 800 793 839 819 784 730 841 759 748 787 753 783 815 795 775 793 836 779 862 785 802 760 792 810 759 825 757 766 843 853 818 803 845 831 828 824 799 868 812 804 769 736 811 806 814 769 775 833 838 851 813 789 801 852 814 810 809 799 847 808 811 783 797 791 823 817 858 820 792 799 789 803 799 781 825 765 813 759 813 772 793 762 774 769 794 843 770 748 821 747 863 751 794 725 807 766 784 786 853 799 818 817 787 785 808 853 765 822 796 787 778 806 802 799 827 774 778 795 748 849 797 774 841 814 804 800 772 807 842 769 830 791 795 816 786 785 806 844 808 799 825 771 784 800 796 772 754 789 806 766 814 787 749 755 814 818 810 822 829 814 815 778 789 739 819 817 817 821 774 784 803 812 801 733 789 772 816 788 809 809 807 833 844 811 829 801 843 772 822 837 808 851 844 864 838 895 909 857 846 830 841 834 887 818 888 891 812 868 844 828 866 899 857 841 878 858 876 898 862 786 811 880 871 843 888 865 845 858 891 878 846 859 812 895 824 851 872 839 869 900 838 826 854 817 856 865 793 843 840 878 927 895 885 882 902 906 846 862 915 887 909 921 884 906 873 858 860 860 869 914 883 910 937 844 897 961 950 992 910 936 975 957 921 932 879 919 839 918 884 912 956 911 897 914 858 909 930 870 863 962 904 914 892 893 871 875 797 920 861 799 876 853 843 885 900 907 881 855 874 852 868 876 827 877 851 836 831 871 846 841 860 801 867 851 837 805 821 789 801 836 803 831 801 791 845 814 796 789 771 840 853 782 815 826 826 821 840 784 809 850 770 852 754 809 812 817 810 831 770 766 776 740 751 841 822 812 781 805 830 813 771 838 830 845 833 842 849 817 830 817 835 802 784 826 807 827 800 740 793 779 785 798 865 810 802 808 778 775 803 784 804 837 785 817 812 777 772 792 854 789 809 755 843 843 828 792 820 794 757 805 836 792 826 790 803 819 837 811 819 820 810 792 788 823 856 815 831 795 844 776 834 866 827 859 854 827 864 802 862 878 919 854 838 899 850 921 878 913 891 885 868 946 901 925 919 913 954 1026 971 1036 1005 966 1054 1012 1077 999 998 1054 1058 1029 1016 1029 1060 1068 1019 1081 1113 1122 1077 1109 1085 1030 1096 1021 1084 1018 1085 1109 1077 1067 1095 1129 1025 1045 1045 1032 1032 1015 1080 1049 995 1001 999 1020 1007 933 1015 940 972 937 988 999 889 931 934 958 941 875 974 925 938 933 832 865 914 950 894 897 853 902 851 869 853 851 841 846 859 849 818 869 829 814 862 818 847 836 849 830 805 836 831 831 849 857 839 839 821 858 842 781 824 827 849 791 801 794 808 776 790 814 844 806 790 773 867 856 798 798 826 810 812 875 800 772 876 823 836 798 843 794 828 848 824 802 803 771 835 811 738 794 805 769 827 821 818 793 790 825 774 782 810 792 811 823 805 846 834 830 844 865 807 824 818 877 801 812 770 813 807 824 833 805 816 837 852 863 835 778 846 775 814 792 818 821 856 813 848 841 805 868 820 860 777 848 839 849 813 857 840 854 847 859 816 834 796 864 795 840 771 843 781 863 798 787 783 807 808 792 826 753 853 826 833 817 792 793 801 844 798 805 820 804 827 799 799 843 818 838 805 855 759 857 795 802 801 844 791 837 811 825 814 837 831 810 817 770 794 817 837 821 795 869 831 828 856 801 780 811 771 780 856 802 812 811 816 785 771 791 830 789 810 787 787 750 776 813 756 803 820 792 753 813 849 778 778 808 811 843 800 751 788 824 811 787 868 777 840 799 755 781 844 848 827 795 804 772 807 854 794 909 770 826 810 841 805 856 804 842 790 806 816 803 811 807 791 790 783 849 819 857 755 854 781 782 786 795 773 798 805 774 772 837 815 808 822 785 814 728 777 813 820 803 806 753 788 835 756 803 841 831 750 867 821 834 786 812 766 745 794 807 859 761 795 756 815 793 825 768 774 819 760 790 733 782 810 752 836 857 808 810 773 807 794 826 836 786 772 780 859 795 808 737 804 808 822 832 763 748 784 815 806 844 765 797 803 778 798 773 806 777 855 790 779 800 785 793 789 787 796 806 816 806 784 825 758 760 703 768 773 826 774 780 799 808 828 825 810 821 866 814 804 777 777 770 778 786 778 779 835 805 838 862 842 756 811 832 751 806 803 753 805 771 795 825 745 791 823 810 808 809 827 810 816 807 839 785 808 770 792 774 808 806 831 811 814 803 787 843 838 798 865 857 864 818 867 813 858 857 804 837 795 743 801 829 795 794 852 835 769 812 862 791 808 827 821 795 814 750 796 819 814 806 794 812 849 865 813 772 836 814 873 786 833 825 824 788 818 794 794 777 800 802 863 808 843 800 843 836 798 771 802 836 860 732 822 784 801 834 835 831 850 778 866 824 822 809 846 839 855 794 823 795 819 828 822 843 818 813 823 803 819 858 858 837 794 784 764 793 855 759 788 799 820 804 831 810 765 822 748 753 789 781 819 812 842 835 800 804 841 814 907 860 852 821 843 802 812 855 837 848 857 839 794 849 865 836 799 876 852 811 850 826 843 846 840 843 881 888 846 904 849 930 867 819 858 813 847 838 872 816 890 813 920 858 808 879 884 878 856 833 842 883 865 818 850 861 855 847 800 879 842 863 885 838 826 797 845 833 848 877 843 864 852 808 828 812 860 835 848 823 802 893 782 833 829 831 808 788 810 860 815 851 828 859 852 829 804 819 827 773 818 788 843 846 802 784 768 801 865 827 774 814 828 815 867 821 861 833 813 801 813 794 846 818 794 855 849 865 839 795 789 803 836 775 876 848 830 830 843 860 818 866 843 840 784 820 866 792 793 812 807 802 821 870 822 819 804 832 822 807 805 806 807 843 836 779 836 831 825 849 852 821 828 814 825 828 805 814 821 827 776 851 794 833 849 841 898 804 815 868 827 804 843 801 820 794 817 822 837 826 856 845 786 876 855 845 828 800 837 830 862 811 821 812 797 804 863 907 775 775 843 785 804 804 808 820 818 823 800 905 867 822 844 835 874 844 791 766 808 792 853 812 847 822 878 837 796 793 828 836 810 768 835 873 817 813 859 828 828 883 790 782 865 848 853 807 816 824 866 841 821 831 819 855 842 859 901 799 854 821 856 873 848 828 881 873 826 862 869 916 924 887 944 877 931 875 879 887 927 914 929 868 869 898 969 935 1024 966 997 1050 1016 966 1033 1014 989 972 1069 1016 1031 1051 1091 1033 1084 1033 1097 1076 1079 1106 1038 1087 1035 1138 1051 1046 1066 1064 1083 1057 1070 1091 1045 1114 1047 1035 1002 1025 1037 1062 973 1091 1037 968 1042 976 1060 975 1012 991 955 942 929 987 1019 933 975 954 980 978 959 979 891 881 946 939 904 920 888 914 945 894 887 866 934 859 867 807 938 851 836 880 845 847 906 847 892 880 796 889 894 818 884 852 864 828 903 820 846 943 882 878 830 886 843 849 831 822 884 834 830 827 836 793 868 826 884 825 817 843 776 840 835 802 797 871 813 813 797 875 847 856 851 809 821 879 849 876 836 834 857 849 789 849 799 851 850 813 824 857 843 866 819 825 868 860 868 848 843 867 863 863 851 883 858 765 842 838 844 865 791 888 897 906 885 856 933 861 875 842 789 912 858 911 899 903 832 864 869 881 862 838 894 840 909 857 931 888 839 838 885 877 904 862 894 884 841 876 806 786 827 872 898 797 819 836 833 829 839 841 831 792 839 826 845 864 827 805 885 813 840 812 824 837 867 791 808 845 839 868 829 832 851 832 886 790 823 831 831 841 825 826 784 820 810 864 842 848 844 810 842 797 822 843 793 777 844 825 783 839 826 837 781 848 803 810 848 842 775 867 857 790 809 835 815 843 788 856 850 808 829 799 795 812 785 798 810 862 781 838 901 819 850 754 776 830 838 808 834 819 887 814 815 832 868 800 800 873 791 854 827 776 812 812 807 837 778 795 791 831 829 775 767 834 774 809 766 867 814 812 817 847 780 792 822 824 806 783 795 832 841 738 779 787 797 824 771 829 781 814 767 758 798 782 772 845 856 783 792 813 819 859 768 819 786 793 852 851 822 780 813 789 763 788 833 822 897 826 761 769 837 817 760 856 841 846 832 792 818 797 830 802 832 817 797 824 856 831 835 824 797 827 793 816 827 761 807 858 803 818 834 845 824 804 876 820 888 837 826 878 837 881 805 881 854 906 839 830 823 840 825 784 803 835 834 824 831 813 813 849 849 821 848 799 832 837 801 767 839 854 843 792 871 826 864 812 816 786 841 813 865 867 858 815 812 773 867 857 820 889 858 790 848 846 857 875 788 823 796 816 925 801 818 812 855 806 789 813 836 827 812 784 837 854 836 817 888 835 906 848 871 821 806 840 869 846 797 818 882 862 817 847 843 795 815 861 845 849 846 853 792 787 774 810 818 813 851 882 827 883 849 792 837 823 781 828 820 860 867 866 867 843 767 839 827 818 838 821 841 795 918 798 835 779 851 827 832 832 852 781 792 840 875 880 788 774 822 809 802 828 828 852 866 887 878 815 853 824 779 883 848 824 767 822 818 833 843 884 835 794 865</counts>
			</dataPoints>
		</scan>
	</xrdMeasurement>
</xrdMeasurements>
