<?xml version="1.0"?>
<xrdMeasurements xmlns="http://www.xrdml.com/XRDMeasurement/2.3" xmlns:xsi="http://www.w3.org/2001/XMLSchema-instance" xsi:schemaLocation="http://www.xrdml.com/XRDMeasurement/2.3 http://www.xrdml.com/XRDMeasurement/2.3/XRDMeasurement.xsd" status="Completed" recordIdentifier="{A3CACE67-CFDC-4EA2-9C84-34B673822C25}">
	<comment>
		<entry/>
	</comment>
	<sample type="To be analyzed">
		<id>GPSS_Li1p7Fe0p7In0p3Cl4_122625_694efed0ae15af25ac374c55</id>
		<name></name>
		<preparedBy></preparedBy>
	</sample>
	<xrdMeasurement measurementType="Scan" status="Completed" sampleMode="Reflection">
		<usedWavelength intended="K-Alpha 1">
			<kAlpha1 unit="Angstrom">1.5405980</kAlpha1>
			<kAlpha2 unit="Angstrom">1.5444260</kAlpha2>
			<kBeta unit="Angstrom">1.3922500</kBeta>
			<ratioKAlpha2KAlpha1>0.5000</ratioKAlpha2KAlpha1>
		</usedWavelength>
		<incidentBeamPath>
			<radius unit="mm">145.00</radius>
			<xRayTube id="1010048" name="Empyrean Cu LFF HR (9430 033 7310x)">
				<tension unit="kV">40.0</tension>
				<current unit="mA">15.0</current>
				<anodeMaterial>Cu</anodeMaterial>
				<focus type="Line">
					<length unit="mm">12.0</length>
					<width unit="mm">0.4</width>
					<takeOffAngle unit="deg">6.0</takeOffAngle>
				</focus>
			</xRayTube>
			<sollerSlit id="21010002" name="Soller slits 0.04 rad.">
				<opening unit="rad">0.0400</opening>
			</sollerSlit>
			<mask id="22031000" name="Fixed mask 13 mm">
				<width unit="mm">9.00</width>
			</mask>
			<divergenceSlit id="22120001" name="Divergence slit 1°" xsi:type="fixedDivergenceSlitType">
				<distanceToSample unit="mm">50.00</distanceToSample>
				<height unit="mm">1.52</height>
			</divergenceSlit>
		</incidentBeamPath>
		<sampleMovement xsi:type="spinningSampleMovementType">
			<spinnerRevolutionTime unit="seconds">1.0</spinnerRevolutionTime>
		</sampleMovement>
		<diffractedBeamPath>
			<radius unit="mm">145.00</radius>
			<antiScatterSlit id="22090040" name="AS slit 9 mm (PIXcel)" xsi:type="fixedAntiScatterSlitType">
				<height unit="mm">9.00</height>
			</antiScatterSlit>
			<sollerSlit id="21020003" name="Large Soller slits 0.04 rad.">
				<opening unit="rad">0.0400</opening>
			</sollerSlit>
			<filter id="20030001" name="Large beta-filter Nickel">
				<material>Ni</material>
				<thickness unit="mm">0.020</thickness>
			</filter>
			<detector id="7010019" name="PIXcel1D-Medipix3 detector" xsi:type="rtmsDetectorType">
				<phd unit="keV">
					<lowerLevel>4.02</lowerLevel>
					<upperLevel>11.27</upperLevel>
				</phd>
				<mode>Scanning</mode>
				<activeLength unit="deg">5.542</activeLength>
			</detector>
		</diffractedBeamPath>
		<scan appendNumber="0" mode="Continuous" scanAxis="Gonio" status="Completed">
			<header>
				<startTimeStamp>2025-12-28T11:12:05-08:00</startTimeStamp>
				<endTimeStamp>2025-12-28T11:20:12-08:00</endTimeStamp>
				<author>
					<name>AutomatedUser</name>
				</author>
				<source>
					<applicationSoftware version="1.7b (136)">PANalytical Aeris Instrument Suite</applicationSoftware>
					<instrumentControlSoftware version="3.2.00000000 20240306">AERIS</instrumentControlSoftware>
					<instrumentID>950485</instrumentID>
				</source>
			</header>
			<dataPoints>
				<positions axis="2Theta" unit="deg">
					<startPosition>10.00943322</startPosition>
					<endPosition>99.99442286</endPosition>
				</positions>
				<positions axis="Omega" unit="deg">
					<startPosition>5.00471661</startPosition>
					<endPosition>49.99721143</endPosition>
				</positions>
				<commonCountingTime unit="seconds">12.495</commonCountingTime>
				<counts unit="counts">2992 3000 2917 3032 3047 3060 3004 3096 2955 3098 3047 2981 3008 2985 3063 3030 3101 2986 3009 3038 3096 3040 3054 2923 3050 2985 2872 3103 2974 2898 3025 3010 2912 3023 2936 3145 3043 3058 3016 2984 3081 3038 2902 3058 3135 3102 3121 3099 3033 3047 3005 3115 2961 3101 3054 3071 3019 3117 3123 3099 3041 3052 3077 3039 3153 3020 3109 3125 2973 3104 3043 3086 3115 3202 3217 3287 3054 3178 3184 3078 3172 3208 3258 3103 3134 3233 3181 3178 3270 3279 3239 3234 3233 3254 3338 3367 3310 3368 3326 3353 3235 3382 3385 3449 3366 3445 3268 3268 3358 3295 3275 3283 3302 3244 3240 3206 3243 3244 3270 3236 3207 3224 3172 3172 3156 3144 3117 3091 3197 3087 3097 3145 3176 3250 3097 3170 3211 3142 3218 3241 3097 3153 3181 3146 3034 3192 3097 3182 3130 3279 3140 2957 3098 3038 3053 3110 3067 3022 3038 3039 3167 3118 3111 3004 3191 3112 3139 3071 3178 3035 3135 3014 3081 3131 3012 3117 3046 3130 3052 3032 3133 3156 2996 3096 3215 3052 3236 3081 3204 3102 3049 3050 3058 2993 3045 3080 3108 3141 3053 3126 3174 3103 3050 3030 3069 3067 2980 3038 3124 3017 3096 2978 3099 3050 3081 3037 3100 3138 2947 2984 3075 3073 2950 3171 2986 3046 3071 2962 3010 3017 3069 3114 3116 2910 2952 2974 2943 3016 3101 2960 3025 3081 2913 3026 2953 3024 3077 3056 2984 2975 2981 3019 3086 2994 3051 3045 3123 3002 3005 3118 2867 2989 3088 2983 2933 3062 3039 3027 2931 3041 3072 2934 2973 3106 2959 3123 3015 3036 3186 2946 3042 3058 3065 3101 3116 3083 3066 3091 2961 3066 3023 3142 2984 3214 2998 3308 3083 3075 3088 3059 3102 3038 3036 3017 3064 3135 3118 3186 3178 3114 3170 3121 3213 3128 3151 3093 3181 3179 3154 3067 3157 3143 3176 3179 3220 3256 3148 3320 3244 3288 3222 3231 3273 3208 3224 3325 3139 3247 3229 3294 3276 3348 3409 3285 3298 3395 3336 3271 3252 3360 3334 3315 3341 3343 3375 3432 3253 3349 3343 3381 3353 3398 3445 3469 3360 3442 3466 3471 3455 3459 3434 3592 3436 3501 3458 3455 3546 3458 3456 3509 3453 3541 3550 3536 3505 3564 3592 3615 3489 3497 3642 3536 3575 3610 3546 3587 3644 3581 3596 3581 3645 3574 3688 3542 3589 3639 3669 3581 3645 3618 3607 3580 3699 3573 3655 3684 3814 3692 3774 3764 3798 3864 3596 3900 3858 3877 3807 3781 3902 3913 3873 3936 3932 3987 4019 3992 3956 3890 4072 4056 4105 4310 4251 4318 4196 4456 4444 4471 4573 4609 4639 4763 4719 4755 4816 4856 4914 4885 5035 5006 5104 5036 5097 4987 4842 4732 4516 4384 4356 4182 3961 4049 3880 3981 3781 3727 3675 3670 3513 3613 3640 3544 3533 3575 3506 3493 3405 3483 3496 3475 3505 3502 3539 3386 3511 3466 3451 3523 3424 3411 3443 3353 3464 3461 3347 3293 3402 3524 3416 3519 3376 3296 3433 3388 3339 3269 3470 3388 3295 3271 3384 3357 3259 3409 3487 3321 3388 3273 3271 3313 3282 3309 3339 3313 3179 3289 3256 3332 3399 3277 3250 3339 3333 3324 3255 3273 3159 3198 3102 3296 3215 3300 3205 3203 3210 3195 3210 3225 3253 3144 3168 3108 3218 3161 3168 3049 3171 3087 3100 3187 3192 3159 3153 3119 3279 3228 3220 3126 3083 3067 3085 3159 3131 3141 3128 3138 3088 3181 3030 3133 3055 3055 3108 3115 3101 3161 3168 3069 3099 3011 3137 3170 3030 3134 3106 3224 3093 2946 2961 3133 3023 3063 3015 3134 3077 3057 3043 3012 3169 2987 3075 3118 3044 2939 3112 3076 3078 3055 3016 3016 2979 3092 2992 2984 3005 2922 3115 2962 3023 2922 3024 3028 3005 2947 3051 3040 3116 3069 2985 3003 2948 3170 3006 3033 3049 2997 3028 3072 2976 2994 3063 3143 3199 3027 2971 3070 3031 3036 3153 3051 3042 3067 3006 3172 3102 3114 3193 3089 3234 3133 3154 3114 3178 3088 3090 3165 3095 3174 3062 3081 3053 3018 3030 3175 3014 3021 3017 3037 2967 2937 2963 2948 3009 3020 2962 3043 2896 3066 2960 2909 2869 2975 2974 2987 2817 2847 2981 2941 2937 2951 3031 3058 2942 3058 2930 3060 2880 2965 3017 2906 3037 2974 3019 2895 3000 2832 2955 2914 2981 2919 2983 2992 2901 3017 3089 2894 2975 2884 2908 2886 3037 2932 2930 2919 2946 2898 2933 2930 2855 2855 2965 2887 2884 2981 2863 2978 2951 2943 2885 2833 2888 2969 2893 2921 2909 2874 2877 2879 2918 2966 2864 2886 2900 2866 2861 2922 2892 2935 2819 2970 3029 2962 2910 2859 2856 2885 2976 2893 2839 2831 2841 2953 2866 2831 2997 2863 2841 2834 2815 2812 2865 2882 2855 2883 2827 2898 2857 2853 2859 2868 2898 2771 2869 2901 2899 2884 2859 2881 2893 2920 2876 2883 2903 2831 2851 2940 2781 2799 2792 2864 2868 2895 2748 2835 2847 2947 2774 2917 2878 2891 2800 2833 2910 2783 2810 2926 2825 2850 2836 2798 2723 2794 2948 2707 2755 2924 2838 2829 2830 2701 2802 2742 2817 2747 2796 2871 2795 2814 2725 2767 2840 2756 2760 2730 2790 2837 2746 2765 2844 2825 2849 2787 2816 2772 2721 2774 2662 2774 2659 2745 2768 2817 2819 2725 2684 2805 2690 2736 2740 2761 2768 2753 2753 2694 2758 2719 2819 2716 2671 2819 2767 2741 2786 2770 2705 2756 2810 2671 2730 2797 2642 2767 2567 2625 2723 2673 2711 2752 2783 2739 2595 2653 2701 2718 2610 2736 2695 2664 2745 2741 2751 2813 2688 2730 2715 2753 2772 2638 2729 2618 2711 2716 2560 2687 2673 2793 2820 2624 2845 2729 2631 2707 2718 2739 2799 2606 2716 2635 2740 2757 2711 2682 2659 2674 2622 2675 2686 2587 2676 2695 2632 2606 2749 2632 2639 2681 2666 2758 2694 2668 2693 2611 2565 2612 2738 2730 2644 2638 2673 2705 2714 2590 2692 2717 2663 2602 2735 2687 2628 2673 2713 2677 2707 2762 2689 2660 2636 2655 2691 2691 2668 2751 2748 2749 2690 2799 2591 2753 2694 2731 2752 2660 2688 2766 2741 2707 2652 2625 2818 2665 2675 2749 2682 2718 2737 2680 2745 2720 2757 2745 2785 2733 2819 2725 2698 2716 2704 2736 2770 2728 2776 2700 2749 2671 2676 2654 2801 2760 2719 2665 2670 2713 2683 2619 2768 2685 2701 2746 2781 2850 2752 2698 2795 2705 2743 2728 2646 2619 2770 2639 2685 2694 2700 2732 2738 2686 2741 2686 2687 2655 2763 2715 2728 2749 2696 2691 2712 2694 2720 2640 2681 2559 2606 2714 2701 2613 2614 2605 2674 2691 2699 2627 2670 2590 2663 2584 2711 2588 2581 2681 2575 2699 2515 2620 2520 2642 2509 2575 2624 2557 2632 2631 2564 2702 2555 2590 2599 2462 2569 2465 2572 2636 2587 2472 2567 2463 2567 2488 2566 2536 2501 2507 2459 2610 2485 2516 2579 2628 2552 2514 2490 2529 2485 2459 2453 2482 2568 2417 2441 2459 2492 2461 2540 2474 2427 2391 2414 2497 2493 2378 2487 2387 2351 2479 2359 2321 2532 2435 2409 2389 2299 2357 2423 2309 2393 2444 2466 2414 2388 2342 2242 2342 2274 2319 2248 2313 2335 2334 2353 2347 2367 2314 2261 2386 2328 2295 2330 2314 2299 2394 2251 2283 2241 2232 2222 2337 2250 2251 2237 2292 2298 2219 2263 2219 2285 2171 2189 2205 2215 2262 2217 2316 2203 2270 2255 2231 2262 2315 2243 2185 2114 2231 2135 2217 2276 2173 2176 2254 2156 2120 2164 2151 2211 2143 2191 2134 2136 2156 2201 2217 2171 2067 2158 2114 2199 2033 2164 2094 2266 2087 2185 2089 2215 2139 2214 2193 2239 2128 2054 2111 2091 2085 2142 2120 2195 2141 2122 2130 2134 2113 2170 2027 2068 2157 2101 2125 2142 2133 2174 2197 2088 2131 2162 2187 2133 2195 2147 2116 2117 2054 2110 2198 2156 2088 2096 2217 2166 2093 2173 2113 2097 2160 2085 2062 2116 2090 2022 2084 2033 2119 2121 2085 2059 2043 2086 2079 2063 2120 2061 2103 2026 2113 2072 2145 2094 2112 2091 2039 2016 2054 2032 2080 1984 2061 2122 1966 2142 2052 2070 2058 1992 2025 1968 2092 1955 2021 2071 2094 2085 2076 2022 2031 2037 2046 1975 2061 2072 2047 2060 2047 2073 2028 1962 2041 2076 2097 2093 2085 2022 2081 2095 2141 2036 2074 2084 2010 2055 2019 2033 2098 2057 2040 2062 1990 2052 2082 2058 2137 2120 2031 1976 2090 2092 2028 2065 2036 2109 1993 2217 2052 2094 2120 2096 2049 2116 2050 1960 2087 2084 2098 2073 2118 2092 2019 2044 2027 2064 2018 2105 2021 2107 2154 2067 2068 2077 2054 2147 2032 2123 2093 2070 2099 2050 1979 2057 2046 1983 2082 2046 2123 2086 2026 2058 2046 2072 2110 2027 2071 2036 2118 2033 2099 2106 2061 2039 2084 2054 2014 2035 2042 2000 2054 2110 2081 2101 2018 2132 2103 2036 1980 2084 2079 2086 2025 2059 2088 1989 1971 2001 2035 2044 2031 1942 1995 2003 2052 1955 2065 2062 1986 1994 1934 2017 1958 1977 1964 1971 1897 2021 1961 1975 1983 1965 1964 2035 1928 2015 1988 1984 2011 1898 1971 1907 1918 1880 1929 1931 1977 1991 1941 1951 1929 1865 1917 1921 1949 1965 1875 1927 1884 1923 1887 1902 1907 1873 1937 1901 1884 1847 1914 1880 1877 1908 1887 1808 1825 1785 1832 1862 1827 1832 1892 1896 1805 1870 1851 1800 1857 1747 1893 1838 1832 1775 1802 1800 1869 1885 1850 1863 1824 1795 1815 1779 1761 1845 1839 1843 1834 1792 1817 1769 1842 1776 1749 1818 1749 1815 1740 1852 1855 1817 1742 1806 1763 1709 1773 1708 1719 1724 1810 1737 1671 1811 1694 1786 1760 1796 1687 1793 1709 1750 1736 1757 1733 1676 1700 1703 1712 1653 1791 1748 1674 1767 1736 1752 1682 1798 1734 1760 1735 1742 1742 1716 1672 1770 1811 1705 1767 1793 1753 1733 1765 1802 1789 1754 1772 1889 1883 1834 1811 1880 1864 1866 1833 1857 1801 1872 1834 1891 1979 1996 2067 1961 2050 2057 2127 2095 2184 2130 2158 2130 2177 2225 2205 2145 2086 2120 2105 2069 2012 2051 1970 1864 1929 1912 1926 1893 1874 1889 1832 1769 1784 1759 1722 1747 1795 1689 1771 1614 1795 1718 1669 1705 1724 1626 1608 1702 1649 1646 1642 1643 1607 1658 1621 1574 1616 1669 1559 1618 1687 1570 1621 1595 1538 1606 1621 1581 1556 1560 1573 1560 1592 1520 1562 1560 1575 1572 1617 1543 1720 1587 1556 1594 1640 1579 1552 1620 1597 1594 1599 1616 1677 1629 1618 1720 1776 1775 1755 1858 1823 1906 1918 1955 1918 1944 1953 1992 1963 1961 1989 1946 2135 2062 2126 2092 2164 2171 2147 2278 2420 2575 2572 2710 2762 2866 2927 2948 2971 3054 3032 3077 3043 3067 2867 3059 2992 3023 2871 2870 2771 2659 2523 2613 2539 2509 2391 2400 2384 2256 2366 2309 2330 2271 2223 2156 2147 2049 2076 1957 1902 1939 1821 1751 1774 1699 1566 1643 1594 1638 1608 1526 1556 1568 1498 1531 1533 1546 1524 1470 1508 1583 1517 1566 1489 1532 1549 1486 1478 1461 1494 1469 1462 1474 1529 1488 1391 1438 1439 1457 1451 1451 1481 1507 1440 1492 1416 1473 1471 1420 1489 1515 1445 1501 1451 1466 1451 1461 1497 1433 1439 1505 1422 1425 1440 1466 1407 1401 1390 1511 1466 1435 1443 1456 1400 1444 1384 1449 1433 1406 1394 1470 1430 1456 1380 1406 1392 1400 1452 1466 1386 1399 1399 1446 1405 1465 1466 1504 1435 1430 1445 1412 1387 1490 1396 1416 1396 1373 1401 1429 1280 1316 1451 1381 1389 1435 1386 1411 1409 1445 1417 1435 1393 1452 1461 1387 1381 1382 1448 1375 1348 1389 1396 1394 1352 1310 1405 1431 1446 1364 1352 1375 1374 1352 1355 1391 1396 1339 1399 1360 1403 1391 1357 1376 1397 1410 1412 1421 1360 1324 1384 1378 1415 1308 1384 1359 1338 1411 1324 1404 1388 1416 1379 1357 1334 1387 1330 1389 1360 1356 1369 1419 1386 1358 1329 1401 1396 1412 1392 1392 1441 1364 1404 1361 1308 1311 1396 1343 1358 1405 1434 1336 1418 1362 1399 1397 1418 1363 1376 1382 1435 1408 1386 1344 1426 1414 1433 1400 1453 1438 1435 1390 1385 1441 1401 1421 1404 1466 1475 1476 1441 1360 1367 1363 1387 1451 1444 1395 1404 1431 1426 1417 1403 1519 1400 1524 1409 1409 1444 1488 1442 1419 1436 1420 1543 1389 1424 1430 1419 1397 1535 1406 1445 1390 1410 1378 1363 1374 1358 1372 1384 1417 1409 1383 1412 1379 1425 1424 1427 1310 1333 1418 1375 1344 1352 1404 1361 1372 1391 1377 1397 1358 1286 1413 1373 1373 1405 1327 1375 1425 1371 1397 1392 1391 1389 1439 1354 1393 1365 1393 1402 1384 1392 1401 1336 1326 1388 1396 1390 1328 1330 1372 1395 1353 1388 1368 1386 1333 1360 1375 1423 1390 1309 1311 1358 1329 1388 1362 1358 1366 1409 1372 1355 1457 1312 1393 1367 1348 1332 1444 1396 1479 1472 1425 1444 1436 1422 1484 1483 1428 1469 1443 1521 1469 1508 1518 1508 1552 1463 1585 1589 1653 1689 1603 1719 1757 1853 1831 1842 1930 1990 1980 2085 2082 2186 2372 2221 2389 2337 2607 2632 2687 2888 2890 3101 3290 3474 3616 3893 3992 4141 4487 4592 4788 4764 5126 5273 5449 5595 5584 5497 5566 5452 5379 5037 5211 4979 4779 4633 4437 4201 4158 3958 3632 3646 3425 3388 3203 3239 3134 3010 3026 3010 2962 2973 2955 2887 2856 2737 2766 2657 2472 2458 2398 2256 2239 2085 2031 1927 1881 1754 1661 1665 1653 1555 1552 1529 1557 1466 1415 1416 1442 1357 1421 1387 1388 1350 1408 1419 1382 1379 1388 1384 1392 1370 1400 1388 1385 1359 1389 1324 1373 1358 1353 1339 1415 1373 1360 1342 1395 1362 1349 1298 1383 1343 1353 1320 1370 1374 1324 1374 1272 1415 1334 1361 1379 1339 1364 1362 1317 1355 1296 1378 1344 1317 1341 1322 1287 1271 1309 1324 1301 1340 1368 1260 1281 1315 1328 1271 1299 1320 1322 1337 1353 1343 1295 1310 1311 1279 1343 1331 1338 1329 1297 1320 1337 1317 1276 1309 1368 1323 1308 1325 1330 1291 1267 1310 1302 1294 1313 1374 1319 1280 1309 1346 1312 1352 1276 1274 1333 1291 1302 1282 1330 1308 1271 1292 1304 1279 1286 1316 1234 1269 1318 1338 1211 1314 1298 1252 1280 1286 1314 1296 1297 1303 1250 1337 1262 1253 1249 1233 1258 1266 1347 1286 1275 1320 1295 1355 1217 1277 1306 1247 1308 1319 1247 1274 1357 1330 1286 1267 1259 1297 1299 1319 1284 1334 1303 1306 1272 1212 1258 1279 1303 1254 1279 1191 1283 1329 1275 1288 1260 1300 1316 1305 1224 1333 1239 1236 1322 1319 1238 1293 1303 1296 1228 1273 1283 1223 1291 1266 1272 1276 1270 1289 1269 1228 1310 1325 1275 1279 1258 1306 1307 1252 1314 1241 1255 1237 1249 1195 1334 1330 1293 1292 1277 1276 1267 1296 1338 1253 1324 1284 1394 1245 1279 1289 1325 1356 1293 1293 1329 1272 1333 1335 1258 1308 1304 1356 1332 1267 1321 1231 1293 1264 1173 1305 1227 1311 1360 1280 1237 1285 1253 1252 1315 1249 1186 1200 1234 1272 1205 1258 1293 1297 1163 1266 1210 1247 1275 1271 1251 1258 1213 1253 1228 1218 1269 1232 1231 1297 1277 1342 1187 1252 1296 1275 1244 1183 1235 1296 1240 1224 1162 1193 1202 1208 1270 1136 1200 1262 1226 1191 1301 1245 1230 1232 1180 1259 1202 1229 1281 1257 1195 1258 1204 1229 1196 1209 1242 1154 1204 1199 1202 1226 1300 1221 1231 1349 1183 1226 1246 1212 1273 1324 1277 1228 1287 1283 1278 1275 1329 1174 1245 1186 1230 1227 1257 1190 1276 1234 1271 1250 1223 1256 1240 1256 1230 1250 1267 1189 1221 1321 1291 1177 1269 1267 1215 1162 1258 1265 1189 1283 1263 1250 1202 1265 1217 1232 1234 1233 1181 1209 1186 1252 1214 1203 1192 1185 1211 1240 1233 1198 1244 1151 1275 1210 1218 1175 1227 1220 1137 1131 1255 1175 1208 1223 1238 1186 1196 1243 1169 1239 1202 1239 1228 1276 1300 1231 1215 1212 1204 1195 1243 1203 1198 1165 1206 1224 1261 1253 1225 1181 1290 1195 1268 1137 1258 1191 1185 1241 1223 1225 1249 1220 1221 1168 1186 1233 1196 1220 1234 1140 1227 1143 1227 1247 1249 1192 1187 1259 1191 1177 1156 1204 1252 1201 1259 1203 1176 1149 1192 1207 1169 1134 1222 1218 1173 1158 1168 1176 1210 1176 1202 1174 1220 1172 1203 1133 1230 1162 1236 1206 1197 1175 1235 1217 1184 1185 1228 1257 1181 1195 1146 1271 1127 1173 1228 1190 1166 1244 1244 1184 1252 1233 1206 1217 1246 1194 1132 1140 1112 1255 1262 1252 1232 1146 1212 1188 1205 1241 1185 1224 1219 1206 1157 1244 1192 1174 1177 1215 1241 1237 1312 1196 1156 1222 1183 1180 1202 1219 1218 1177 1192 1172 1240 1231 1265 1163 1196 1172 1139 1235 1232 1201 1191 1209 1185 1168 1177 1183 1180 1198 1192 1262 1225 1179 1209 1158 1209 1198 1174 1162 1247 1246 1213 1225 1233 1246 1223 1189 1200 1191 1207 1267 1211 1266 1196 1124 1246 1188 1165 1238 1166 1257 1203 1177 1149 1184 1230 1218 1170 1188 1155 1178 1168 1243 1174 1155 1205 1193 1119 1200 1222 1179 1226 1256 1164 1221 1229 1223 1210 1218 1188 1233 1195 1177 1202 1216 1156 1240 1148 1179 1144 1190 1235 1188 1175 1171 1190 1205 1183 1173 1187 1220 1233 1193 1244 1209 1175 1200 1151 1178 1198 1250 1224 1235 1211 1174 1224 1261 1225 1182 1228 1213 1193 1246 1182 1199 1201 1182 1192 1198 1215 1207 1206 1195 1189 1240 1112 1244 1188 1217 1263 1238 1216 1278 1320 1227 1197 1181 1226 1244 1285 1234 1243 1299 1266 1187 1230 1186 1213 1187 1228 1219 1268 1261 1245 1215 1324 1231 1195 1218 1268 1228 1223 1208 1170 1211 1213 1203 1197 1226 1179 1221 1141 1238 1141 1270 1163 1238 1190 1134 1193 1233 1238 1148 1203 1182 1130 1190 1168 1187 1217 1147 1154 1200 1202 1143 1195 1187 1172 1252 1166 1203 1220 1204 1207 1191 1151 1113 1231 1194 1193 1163 1222 1172 1191 1186 1208 1159 1182 1193 1231 1138 1266 1095 1224 1224 1246 1209 1188 1189 1179 1165 1097 1216 1266 1207 1204 1173 1104 1152 1158 1168 1186 1161 1273 1176 1169 1268 1233 1162 1201 1135 1207 1223 1215 1203 1235 1163 1157 1247 1166 1173 1194 1215 1177 1222 1203 1199 1245 1241 1205 1245 1244 1213 1227 1196 1243 1197 1161 1201 1227 1239 1226 1216 1185 1259 1268 1236 1219 1197 1185 1135 1267 1241 1247 1188 1233 1160 1217 1196 1209 1229 1182 1240 1163 1195 1188 1203 1235 1142 1154 1261 1175 1193 1208 1229 1249 1233 1221 1262 1253 1175 1238 1211 1199 1252 1204 1248 1230 1148 1232 1211 1124 1218 1189 1186 1220 1237 1264 1257 1247 1254 1247 1251 1315 1257 1283 1269 1310 1314 1295 1312 1323 1325 1350 1350 1364 1360 1409 1381 1423 1497 1511 1493 1456 1505 1508 1486 1476 1520 1472 1517 1552 1565 1491 1477 1523 1491 1458 1469 1480 1464 1424 1435 1499 1383 1392 1468 1383 1352 1287 1377 1318 1312 1293 1348 1255 1260 1260 1324 1251 1213 1262 1253 1253 1214 1271 1285 1312 1233 1225 1237 1238 1243 1280 1227 1245 1207 1233 1198 1169 1182 1176 1232 1293 1197 1167 1194 1235 1162 1163 1181 1234 1200 1174 1193 1203 1103 1132 1184 1235 1168 1206 1232 1124 1179 1145 1167 1167 1151 1118 1136 1110 1186 1142 1168 1198 1169 1209 1186 1135 1144 1161 1223 1197 1205 1138 1191 1191 1151 1179 1216 1177 1180 1230 1171 1183 1196 1230 1187 1178 1121 1130 1111 1211 1190 1184 1210 1229 1138 1149 1162 1135 1156 1191 1144 1177 1153 1249 1113 1124 1092 1211 1146 1129 1219 1144 1164 1134 1167 1177 1162 1133 1208 1147 1190 1167 1191 1159 1140 1183 1189 1142 1158 1111 1172 1147 1240 1175 1163 1156 1208 1222 1221 1224 1191 1183 1150 1204 1115 1213 1118 1072 1179 1186 1182 1137 1192 1153 1165 1133 1212 1212 1208 1189 1153 1169 1279 1200 1225 1167 1193 1167 1105 1174 1182 1159 1128 1176 1145 1175 1177 1233 1106 1226 1176 1134 1124 1188 1120 1189 1170 1177 1162 1180 1173 1132 1199 1210 1125 1143 1203 1178 1205 1148 1161 1179 1221 1207 1190 1274 1164 1175 1182 1154 1169 1153 1173 1184 1159 1197 1183 1175 1115 1178 1171 1164 1167 1207 1165 1191 1271 1166 1171 1202 1106 1199 1151 1174 1133 1220 1191 1162 1146 1131 1215 1212 1169 1177 1203 1160 1168 1199 1209 1148 1132 1147 1179 1122 1199 1133 1196 1139 1086 1221 1140 1177 1188 1176 1118 1187 1194 1188 1215 1179 1244 1183 1163 1219 1220 1137 1191 1061 1122 1176 1186 1180 1166 1249 1190 1168 1214 1169 1219 1167 1192 1127 1197 1161 1203 1144 1192 1169 1175 1223 1193 1213 1165 1194 1262 1279 1115 1231 1171 1172 1213 1235 1169 1220 1203 1214 1248 1179 1169 1208 1221 1195 1246 1234 1261 1257 1288 1272 1285 1255 1268 1346 1349 1292 1281 1358 1440 1524 1513 1466 1515 1593 1545 1673 1662 1625 1700 1667 1901 1747 1874 1833 1935 1946 2005 2025 2130 2181 2133 2201 2327 2336 2387 2520 2566 2589 2625 2657 2650 2660 2782 2840 2822 2669 2853 2766 2629 2532 2562 2368 2502 2409 2289 2246 2173 2186 2185 2099 2029 1990 1955 1871 1820 1869 1766 1837 1772 1708 1737 1765 1799 1670 1700 1617 1742 1697 1674 1705 1656 1583 1682 1551 1564 1530 1586 1598 1540 1539 1437 1450 1328 1382 1352 1386 1294 1411 1320 1334 1253 1302 1259 1309 1214 1252 1248 1230 1223 1275 1214 1197 1223 1119 1200 1150 1256 1170 1217 1220 1180 1116 1193 1219 1157 1155 1153 1121 1208 1146 1147 1178 1101 1174 1167 1135 1182 1186 1222 1185 1198 1209 1133 1198 1175 1174 1220 1117 1190 1199 1193 1181 1172 1177 1183 1137 1092 1164 1184 1145 1128 1131 1203 1083 1124 1149 1237 1201 1201 1226 1220 1193 1212 1122 1232 1143 1222 1174 1128 1107 1144 1229 1205 1154 1163 1172 1190 1126 1199 1170 1216 1120 1146 1199 1159 1181 1183 1176 1191 1118 1185 1155 1135 1131 1199 1142 1165 1176 1110 1206 1179 1159 1138 1136 1165 1227 1125 1172 1153 1163 1171 1200 1152 1145 1199 1221 1147 1173 1186 1289 1135 1175 1321 1166 1140 1240 1219 1185 1236 1254 1257 1140 1248 1202 1276 1241 1279 1273 1299 1313 1291 1246 1219 1241 1311 1293 1374 1339 1300 1348 1405 1305 1384 1404 1364 1422 1361 1308 1368 1418 1447 1339 1309 1378 1347 1335 1350 1340 1329 1334 1280 1328 1280 1265 1204 1280 1245 1246 1298 1232 1254 1230 1247 1289 1252 1210 1259 1248 1270 1128 1264 1210 1202 1247 1152 1237 1191 1192 1224 1203 1236 1190 1184 1192 1190 1190 1216 1181 1241 1140 1203 1203 1195 1197 1187 1268 1110 1160 1222 1126 1237 1228 1136 1147 1134 1107 1167 1186 1129 1160 1183 1169 1197 1192 1158 1231 1220 1159 1113 1144 1172 1116 1147 1121 1147 1196 1116 1180 1156 1197 1183 1183 1161 1193 1145 1176 1159 1167 1177 1244 1172 1155 1121 1141 1195 1176 1124 1173 1190 1167 1176 1163 1150 1135 1118 1141 1154 1155 1102 1186 1139 1167 1173 1170 1156 1167 1159 1167 1113 1121 1148 1156 1145 1193 1165 1159 1110 1199 1130 1117 1168 1133 1184 1232 1130 1153 1156 1186 1126 1136 1118 1131 1173 1148 1110 1120 1179 1145 1183 1101 1180 1167 1146 1189 1166 1203 1142 1203 1129 1107 1145 1175 1159 1154 1129 1136 1154 1141 1088 1157 1153 1153 1134 1155 1126 1157 1118 1172 1156 1157 1112 1175 1168 1153 1142 1084 1174 1153 1185 1154 1178 1147 1129 1162 1139 1165 1201 1130 1230 1113 1153 1107 1151 1115 1143 1063 1163 1214 1171 1146 1149 1170 1143 1168 1149 1146 1144 1167 1177 1178 1169 1159 1150 1206 1149 1160 1159 1160 1111 1178 1123 1141 1137 1195 1141 1156 1117 1162 1103 1166 1114 1219 1148 1114 1188 1148 1135 1071 1142 1136 1135 1200 1156 1141 1102 1167 1163 1194 1154 1128 1164 1156 1085 1127 1195 1173 1117 1114 1126 1161 1127 1164 1149 1118 1113 1184 1168 1167 1108 1178 1203 1095 1119 1182 1150 1176 1150 1121 1139 1193 1167 1136 1119 1170 1158 1141 1118 1171 1144 1135 1158 1168 1116 1126 1198 1048 1151 1155 1100 1154 1129 1136 1143 1175 1124 1167 1180 1102 1162 1075 1156 1120 1182 1170 1160 1160 1180 1147 1154 1124 1099 1212 1158 1108 1161 1107 1116 1070 1122 1100 1099 1073 1156 1125 1107 1149 1187 1150 1159 1162 1143 1101 1174 1232 1151 1109 1146 1178 1184 1139 1153 1126 1147 1136 1108 1109 1163 1151 1173 1111 1101 1091 1132 1237 1143 1114 1193 1160 1239 1144 1178 1155 1185 1183 1064 1126 1172 1139 1167 1116 1172 1141 1138 1176 1185 1139 1200 1152 1146 1118 1090 1137 1178 1173 1167 1150 1116 1141 1103 1205 1210 1130 1131 1202 1112 1110 1218 1077 1159 1115 1107 1180 1082 1115 1092 1163 1195 1160 1159 1160 1179 1192 1134 1167 1205 1114 1159 1106 1131 1172 1184 1157 1103 1171 1219 1083 1180 1138 1153 1139 1113 1221 1140 1161 1102 1126 1122 1058 1201 1178 1221 1099 1125 1190 1148 1146 1219 1090 1156 1168 1185 1168 1126 1116 1122 1148 1155 1190 1087 1151 1050 1222 1177 1158 1165 1103 1101 1115 1116 1155 1110 1166 1125 1166 1131 1143 1133 1183 1158 1166 1124 1111 1171 1132 1222 1148 1133 1206 1122 1174 1113 1155 1151 1114 1113 1172 1194 1103 1185 1221 1137 1179 1193 1164 1207 1171 1201 1157 1154 1156 1173 1099 1155 1140 1165 1166 1115 1182 1175 1149 1239 1244 1185 1119 1165 1137 1140 1251 1168 1178 1128 1228 1162 1172 1190 1202 1187 1182 1183 1142 1168 1155 1189 1145 1198 1191 1193 1146 1210 1193 1160 1199 1177 1130 1244 1147 1128 1172 1183 1150 1166 1147 1198 1164 1263 1152 1189 1230 1159 1177 1141 1148 1239 1226 1230 1197 1202 1297 1189 1191 1189 1168 1235 1260 1301 1313 1301 1246 1270 1244 1376 1314 1267 1297 1330 1372 1331 1293 1374 1341 1447 1348 1402 1347 1403 1418 1318 1306 1372 1353 1259 1291 1307 1288 1326 1217 1296 1316 1353 1286 1309 1265 1237 1299 1308 1239 1285 1266 1272 1325 1270 1326 1266 1314 1291 1299 1372 1270 1276 1244 1291 1303 1258 1313 1342 1317 1254 1284 1216 1307 1270 1207 1265 1232 1318 1280 1255 1266 1185 1166 1196 1224 1219 1170 1191 1168 1173 1221 1188 1184 1184 1179 1134 1178 1176 1098 1201 1137 1173 1104 1186 1148 1186 1169 1151 1141 1159 1118 1119 1162 1179 1144 1125 1108 1099 1096 1135 1129 1098 1187 1145 1123 1113 1127 1154 1142 1148 1141 1116 1131 1136 1146 1150 1130 1135 1162 1151 1173 1148 1119 1142 1081 1212 1191 1144 1155 1089 1130 1149 1193 1185 1158 1152 1201 1141 1069 1157 1114 1197 1148 1168 1109 1251 1135 1206 1119 1204 1142 1109 1131 1128 1174 1136 1088 1185 1142 1164 1116 1243 1133 1129 1157 1138 1171 1149 1191 1194 1161 1132 1143 1098 1132 1160 1210 1181 1155 1145 1177 1182 1166 1066 1131 1181 1176 1181 1125 1207 1197 1141 1113 1135 1124 1199 1133 1154 1188 1135 1162 1165 1168 1210 1173 1128 1137 1174 1142 1153 1086 1168 1131 1147 1178 1155 1164 1208 1167 1172 1185 1253 1222 1222 1163 1170 1170 1198 1169 1165 1154 1189 1142 1173 1229 1232 1206 1205 1203 1266 1254 1317 1264 1347 1335 1341 1398 1428 1417 1341 1389 1448 1433 1482 1451 1463 1521 1545 1618 1659 1763 1707 1749 1813 1855 1950 1904 1931 1943 1897 1838 1801 1865 1832 1826 1809 1793 1781 1767 1778 1685 1734 1644 1650 1654 1648 1610 1663 1513 1501 1600 1497 1458 1435 1431 1367 1407 1374 1327 1412 1361 1399 1420 1344 1387 1386 1349 1449 1302 1357 1399 1401 1427 1426 1441 1434 1426 1392 1344 1339 1336 1349 1368 1296 1353 1290 1285 1296 1335 1340 1251 1209 1249 1250 1310 1298 1220 1224 1252 1132 1238 1218 1218 1226 1212 1189 1216 1158 1179 1229 1249 1160 1180 1206 1219 1146 1178 1120 1107 1160 1164 1158 1165 1214 1194 1192 1159 1163 1186 1166 1170 1120 1150 1130 1143 1122 1172 1152 1162 1091 1176 1135 1177 1139 1183 1135 1129 1152 1151 1217 1152 1178 1109 1146 1171 1127 1094 1134 1158 1212 1155 1134 1145 1129 1101 1214 1139 1176 1185 1099 1207 1133 1127 1197 1184 1144 1168 1191 1176 1192 1161 1121 1163 1092 1124 1124 1194 1096 1162 1179 1150 1144 1168 1175 1157 1118 1210 1115 1192 1193 1216 1191 1176 1201 1158 1204 1195 1248 1173 1241 1199 1197 1234 1234 1237 1294 1242 1217 1195 1193 1219 1244 1296 1233 1277 1248 1303 1279 1306 1263 1233 1290 1272 1250 1242 1222 1196 1241 1237 1214 1244 1202 1264 1224 1232 1234 1231 1181 1200 1193 1228 1196 1149 1212 1226 1135 1190 1200 1179 1208 1220 1216 1186 1134 1183 1154 1194 1191 1170 1205 1152 1190 1206 1175 1216 1268 1155 1148 1150 1151 1200 1226 1173 1203 1116 1176 1152 1183 1135 1177 1162 1124 1137 1124 1090 1133 1163 1204 1159 1179 1170 1143 1134 1163 1118 1139 1170 1112 1084 1086 1205 1188 1172 1200 1126 1124 1156 1190 1146 1181 1163 1180 1157 1201 1133 1099 1077 1165 1159 1166 1114 1154 1130 1096 1158 1173 1128 1211 1135 1181 1143 1136 1117 1194 1110 1148 1119 1176 1118 1180 1153 1071 1149 1091 1193 1159 1110 1135 1105 1102 1167 1166 1186 1133 1158 1115 1175 1163 1076 1116 1139 1151 1166 1151 1119 1180 1141 1097 1175 1117 1156 1182 1105 1178 1154 1139 1165 1156 1226 1101 1224 1147 1149 1171 1163 1215 1171 1130 1181 1121 1075 1183 1163 1102 1159 1075 1156 1133 1098 1201 1109 1147 1145 1259 1108 1161 1142 1139 1168 1124 1084 1165 1169 1093 1133 1129 1052 1121 1159 1169 1130 1149 1158 1146 1161 1181 1129 1093 1190 1165 1108 1109 1150 1168 1174 1133 1116 1115 1139 1137 1122 1074 1165 1136 1143 1159 1147 1138 1228 1196 1162 1161 1112 1133 1125 1147 1137 1155 1173 1141 1154 1116 1128 1077 1103 1215 1187 1154 1117 1130 1107 1113 1150 1103 1144 1239 1092 1169 1124 1097 1093 1124 1109 1165 1149 1163 1181 1127 1152 1150 1093 1140 1134 1151 1227 1110 1165 1177 1117 1142 1100 1135 1148 1135 1134 1141 1127 1144 1194 1165 1192 1128 1123 1192 1147 1142 1163 1123 1168 1177 1190 1148 1162 1148 1157 1101 1135 1171 1175 1149 1207 1177 1143 1146 1211 1178 1104 1170 1233 1163 1173 1165 1206 1115 1098 1156 1200 1153 1148 1063 1201 1142 1159 1087 1162 1122 1182 1104 1218 1161 1116 1204 1184 1174 1136 1107 1113 1138 1165 1207 1166 1132 1141 1162 1213 1135 1221 1243 1110 1191 1182 1130 1117 1199 1149 1121 1114 1133 1145 1127 1169 1186 1192 1175 1223 1093 1174 1158 1141 1108 1155 1176 1165 1112 1127 1135 1162 1174 1154 1118 1126 1129 1145 1170 1215 1026 1191 1068 1109 1203 1124 1117 1135 1148 1216 1100 1125 1109 1146 1171 1126 1154 1093 1116 1179 1187 1128 1149 1139 1133 1149 1142 1129 1120 1203 1161 1160 1054 1180 1122 1164 1120 1169 1150 1167 1173 1147 1091 1194 1113 1084 1156 1153 1158 1130 1212 1168 1189 1118 1138 1120 1169 1151 1117 1149 1138 1183 1227 1155 1170 1160 1115 1204 1157 1145 1138 1181 1135 1178 1125 1182 1088 1157 1123 1169 1193 1160 1158 1157 1191 1223 1166 1226 1214 1164 1184 1186 1177 1140 1187 1237 1243 1241 1190 1201 1218 1237 1221 1245 1190 1223 1218 1214 1208 1324 1208 1214 1249 1209 1171 1199 1195 1268 1183 1163 1220 1207 1153 1266 1161 1172 1174 1183 1214 1159 1179 1188 1132 1245 1220 1229 1185 1164 1151 1123 1184 1176 1177 1159 1211 1143 1241 1194 1203 1174 1150 1148 1171 1188 1183 1193 1117 1158 1133 1179 1201 1144 1156 1126 1151 1090 1191 1185 1217 1193 1201 1138 1198 1153 1271 1192 1218 1183 1122 1149 1156 1174 1192 1203 1194 1167 1192 1172 1127 1169 1141 1142 1146 1112 1112 1167 1149 1117 1188 1167 1133 1166 1192 1140 1152 1188 1120 1128 1158 1207 1101 1141 1140 1160 1149 1239 1156 1137 1109 1144 1224 1138 1177 1142 1168 1143 1038 1142 1189 1213 1084 1187 1151 1199 1179 1170 1125 1109 1157 1173 1118 1212 1122 1102 1183 1141 1161 1155 1121 1166 1146 1141 1159 1194 1211 1110 1172 1159 1166 1111 1150 1230 1117 1190 1140 1122 1175 1163 1185 1150 1113 1147 1205 1104 1105 1184 1210 1153 1202 1101 1182 1175 1159 1183 1189 1135 1183 1200 1141 1161 1206 1128 1172 1140 1180 1189 1176 1202 1129 1143 1163 1204 1198 1209 1105 1143 1140 1123 1132 1131 1169 1161 1165 1184 1145 1194 1175 1135 1161 1172 1138 1166 1157 1195 1139 1219 1200 1143 1192 1195 1209 1189 1103 1156 1257 1149 1136 1122 1142 1178 1174 1173 1141 1185 1094 1198 1156 1173 1164 1227 1172 1137 1186 1208 1145 1180 1174 1261 1182 1142 1176 1132 1195 1171 1142 1152 1168 1140 1155 1149 1179 1216 1166 1145 1188 1174 1220 1183 1159 1208 1231 1203 1229 1150 1236 1199 1191 1167 1219 1169 1237 1251 1172 1235 1272 1274 1235 1275 1262 1233 1307 1273 1297 1321 1398 1338 1377 1328 1326 1376 1353 1318 1366 1347 1320 1355 1344 1485 1402 1296 1366 1314 1324 1338 1329 1302 1288 1315 1379 1336 1319 1280 1289 1274 1300 1317 1314 1248 1274 1256 1247 1243 1178 1290 1219 1227 1221 1245 1342 1270 1175 1210 1262 1186 1295 1275 1216 1272 1187 1264 1215 1248 1261 1253 1148 1281 1226 1208 1234 1322 1262 1202 1255 1243 1242 1200 1219 1228 1191 1207 1211 1241 1247 1227 1261 1200 1210 1182 1250 1226 1272 1274 1222 1240 1198 1217 1158 1268 1265 1189 1192 1211 1270 1208 1213 1211 1146 1206 1206 1209 1226 1167 1227 1258 1216 1226 1176 1152 1196 1129 1172 1180 1086 1193 1229 1187 1212 1218 1188 1229 1132 1179 1208 1200 1149 1150 1143 1187 1143 1168 1147 1142 1247 1180 1155 1067 1193 1141 1163 1115 1179 1274 1182 1191 1240 1183 1148 1173 1115 1144 1160 1169 1157 1165 1191 1230 1158 1160 1145 1234 1155 1168 1154 1184 1109 1131 1207 1142 1201 1182 1153 1191 1170 1230 1150 1160 1162 1128 1200 1178 1173 1137 1132 1136 1167 1162 1142 1217 1179 1207 1135 1149 1092 1218 1173 1128 1141 1197 1215 1233 1206 1176 1168 1171 1171 1144 1163 1169 1178 1243 1144 1182 1127 1166 1173 1186 1202 1163 1206 1163 1192 1202 1168 1199 1172 1076 1193 1145 1213 1241 1172 1254 1150 1130 1168 1175 1214 1175 1171 1149 1185 1212 1197 1168 1228 1180 1153 1100 1159 1083 1167 1110 1143 1207 1137 1191 1191 1163 1149 1142 1148 1183 1147 1187 1193 1183 1101 1189 1166 1187 1159 1143 1177 1150 1182 1193 1229 1210 1175 1183 1128 1166 1146 1182 1161 1190 1198 1173 1145 1164 1198 1163 1193 1184 1169 1175 1191 1106 1144 1210 1166 1147 1213 1162 1192 1143 1160 1193 1164 1213 1177 1225 1167 1148 1144 1225 1181 1193 1218 1099 1178 1122 1170 1190 1203 1199 1207 1183 1220 1225 1158 1165 1207 1244 1193 1201 1190 1177 1183 1157 1244 1171 1144 1150 1183 1197 1214 1242 1146 1162 1143 1157 1227 1146 1141 1215 1177 1161 1153 1182 1153 1170 1168 1199 1222 1156 1188 1134 1158 1142 1197 1173 1161 1173 1219 1144 1188 1211 1221 1177 1183 1183 1150 1205 1123 1157 1140 1180 1169 1141 1207 1139 1186 1186 1172 1171 1109 1226 1179 1152 1199 1193 1184 1162 1225 1149 1175 1165 1161 1204 1152 1222 1222 1241 1155 1128 1242 1147 1167 1234 1183 1161 1126 1174 1234 1128 1194 1189 1226 1180 1154 1221 1129 1224 1124 1171 1186 1158 1193 1155 1177 1213 1134 1227 1206 1289 1165 1211 1217 1149 1172 1193 1173 1172 1146 1173 1155 1216 1232 1257 1189 1234 1217 1224 1153 1215 1229 1109 1155 1169 1107 1202 1172 1245 1172 1289 1217 1186 1227 1148 1179 1228 1198 1120 1166 1146 1227 1198 1174 1154 1138 1211 1240 1238 1198 1169 1253 1169 1181 1170 1174 1172 1199 1195 1269 1157 1234 1140 1201 1139 1183 1192 1153 1162 1181 1206 1185 1243 1215 1128 1170 1212 1181 1168 1179 1207 1206 1244 1160 1180 1171 1172 1227 1176 1176 1185 1225 1145 1215 1189 1249 1184 1162 1169 1192 1170 1191 1195 1233 1190 1210 1197 1178 1169 1163 1169 1178 1167 1221 1209 1196 1142 1157 1164 1173 1224 1180 1248 1138 1222 1190 1175 1175 1176 1153 1172 1202 1169 1170 1145 1193 1230 1160 1171 1222 1183 1210 1158 1220 1174 1218 1176 1189 1188 1173 1221 1183 1225 1143 1181 1196 1155 1202 1174 1264 1176 1232 1207 1162 1213 1182 1243 1197 1172 1203 1206 1153 1254 1204 1247 1183 1186 1183 1178 1196 1234 1220 1157 1274 1249 1219 1217 1182 1237 1214 1229 1229 1253 1235 1235 1329 1195 1221 1260 1286 1325 1214 1263 1224 1261 1250 1193 1276 1258 1269 1276 1235 1314 1237 1328 1249 1381 1272 1295 1261 1261 1258 1182 1256 1199 1246 1301 1288 1297 1214 1232 1262 1227 1243 1275 1195 1279 1249 1267 1258 1290 1256 1265 1241 1235 1226 1172 1241 1166 1246 1213 1222 1213 1308 1273 1295 1303 1270 1213 1308 1196 1347 1246 1299 1251 1263 1334 1277 1359 1287 1311 1199 1232 1273 1259 1245 1255 1244 1240 1261 1198 1289 1245 1269 1241 1238 1243 1220 1277 1243 1264 1378 1303 1240 1263 1251 1234 1305 1287 1282 1238 1312 1265 1212 1269 1289 1278 1239 1266 1175 1332 1242 1254 1219 1233 1192 1233 1209 1294 1240 1241 1145 1248 1220 1269 1295 1244 1244 1300 1309 1247 1294 1287 1280 1235 1247 1239 1292 1253 1204 1272 1253 1283 1227 1221 1269 1255 1298 1175 1253 1215 1210 1274 1208 1207 1206 1293 1232 1264 1214 1217 1221 1224 1258 1210 1227 1226 1283 1279 1227 1226 1262 1227 1149 1267 1252 1208 1206 1168 1271 1197 1252 1227 1244 1238 1269 1200 1230 1207 1203 1173 1174 1101 1271 1224 1206 1189 1248 1233 1194 1294 1219 1193 1259 1214 1194 1178 1228 1207 1216 1187 1164 1250 1239 1217 1131 1196 1206 1192 1289 1182 1211 1217 1204 1228 1173 1252 1239 1230 1225 1231 1260 1185 1246 1244 1200 1271 1221 1216 1287 1197 1230 1192 1213 1197 1191 1252 1234 1212 1231 1258 1220 1188 1273 1218 1201 1264 1230 1278 1232 1311 1213 1241 1243 1337 1247 1197 1307 1225 1298 1244 1328 1292 1285 1276 1251 1304 1344 1236 1279 1347 1359 1336 1319 1379 1380 1361 1358 1366 1369 1376 1375 1465 1380 1431 1486 1502 1566 1492 1603 1498 1536 1616 1500 1659 1624 1541 1561 1593 1526 1579 1641 1595 1576 1587 1576 1620 1476 1592 1535 1540 1531 1547 1540 1480 1482 1516 1460 1547 1595 1561 1503 1511 1513 1480 1535 1446 1479 1438 1395 1439 1415 1389 1396 1401 1347 1366 1409 1368 1444 1426 1389 1374 1349 1323 1369 1423 1391 1339 1382 1353 1368 1396 1371 1409 1356 1336 1315 1343 1404 1348 1360 1366 1377 1353 1303 1349 1337 1316 1358 1394 1392 1292 1352 1403 1339 1287 1339 1332 1353 1338 1328 1271 1381 1314 1308 1317 1342 1307 1321 1255 1251 1350 1304 1388 1328 1281 1278 1259 1258 1256 1312 1308 1269 1301 1250 1243 1255 1208 1288 1278 1326 1282 1201 1220 1212 1179 1294 1245 1328 1219 1210 1189 1268 1205 1272 1180 1212 1197 1234 1225 1277 1189 1186 1232 1280 1213 1297 1206 1233 1236 1132 1266 1327 1216 1252 1189 1197 1297 1210 1188 1249 1256 1308 1251 1281 1315 1215 1285 1256 1332 1232 1289 1292 1263 1225 1249 1268 1278 1277 1275 1309 1249 1239 1285 1256 1251 1331 1304 1292 1248 1293 1230 1272 1307 1199 1298 1255 1270 1233 1269 1243 1216 1141 1252 1193 1226 1245 1271 1289 1285 1334 1262 1247 1275 1326 1212 1269 1314 1221 1227 1243 1217 1276 1216 1278 1233 1268 1225 1205 1245 1241 1228 1206 1297 1246 1250 1213 1266 1228 1267 1271 1233 1328 1179 1242 1259 1235 1263 1230 1267 1254 1244 1261 1263 1209 1199 1249 1277 1248 1238 1213 1284 1222 1267 1211 1308 1290 1247 1252 1255 1250 1260 1224 1240 1244 1271 1226 1262 1215 1228 1246 1241 1207 1274 1295 1243 1276 1297 1228 1177 1201 1247 1163 1214 1185 1199 1241 1262 1248 1207 1263 1231 1220 1252 1212 1238 1294 1223 1259 1217 1304 1204 1178 1212 1265 1242 1262 1206 1253 1263 1263 1246 1210 1193 1225 1193 1213 1259 1246 1237 1281 1201 1235 1234 1242 1223 1242 1246 1268 1167 1212 1249 1253 1303 1350 1289 1253 1272 1221 1250 1279 1202 1275 1241 1256 1206 1218 1174 1260 1215 1255 1264 1234 1245 1199 1211 1283 1205 1270 1200 1255 1227 1243 1231 1189 1206 1204 1230 1262 1198 1207 1226 1160 1155 1185 1269 1191 1220 1232 1261 1191 1251 1237 1280 1286 1267 1287 1219 1250 1239 1256 1282 1294 1184 1249 1222 1219 1223 1188 1208 1253 1225 1270 1239 1240 1262 1248 1206 1251 1251 1233 1265 1283 1274 1194 1180 1253 1229 1259 1222 1247 1215 1186 1189 1218 1195 1225 1208 1229 1238 1190 1208 1190 1257 1211 1227 1197 1239 1250 1190 1221 1258 1251 1271 1277 1231 1228 1188 1283 1296 1182 1193 1173 1183 1231 1155 1221 1221 1275 1179 1244 1256 1221 1247 1221 1238 1243 1255 1188 1228 1206 1219 1235 1259 1293 1183 1238 1266 1236 1293 1350 1224 1205 1228 1164 1236 1275 1154 1280 1225 1228 1220 1311 1239 1260 1265 1250 1282 1195 1193 1169 1229 1193 1230 1275 1292 1245 1291 1245 1207 1297 1262 1206 1241 1180 1263 1205 1242 1254 1273 1252 1240 1235 1192 1313 1279 1262 1221 1245 1233 1282 1257 1281 1265 1263 1238 1246 1284 1237 1243 1268 1268 1270 1212 1226 1231 1277 1271 1157 1212 1265 1243 1222 1258 1212 1309 1267 1230 1269 1178 1243 1238 1216 1305 1208 1312 1284 1233 1270 1227 1288 1224 1226 1242 1266 1274 1245 1276 1260 1288 1196 1301 1293 1271 1306 1205 1267 1226 1221 1297 1257 1247 1258 1262 1235 1208 1164 1258 1292 1216 1229 1257 1285 1268 1238 1303 1207 1201 1254 1243 1296 1265 1276 1227 1280 1188 1318 1372 1283 1243 1235 1303 1257 1356 1208 1192 1301 1297 1319 1319 1319 1279 1235 1304 1249 1310 1276 1272 1263 1248 1335 1281 1312 1263 1279 1278 1271 1250 1308 1289 1286 1305 1281 1280 1285 1329 1301 1260 1328 1286 1192 1220 1251 1256 1319 1276 1272 1321 1353 1224 1289 1301 1291 1286 1242 1213 1303 1244 1234 1213 1278 1323 1224 1294 1304 1235 1291 1234 1287 1245 1222 1182 1303 1245 1221 1293 1281 1229 1233 1249 1258 1320 1272 1276 1327 1248 1192 1209 1239 1221 1301 1188 1221 1276 1257 1212 1270 1308 1289 1203 1287 1321 1218 1267 1248 1231 1272 1256 1219 1259 1267 1287 1237 1230 1292 1240 1259 1258 1269 1234 1297 1216 1199 1239 1296 1249 1229 1298 1194 1229 1253 1230 1289 1357 1207 1308 1345 1279 1276 1239 1344 1232 1223 1192 1266 1311 1196 1266 1312 1193 1221 1241 1252 1244 1246 1289 1268 1215 1287 1295 1297 1292 1259 1211 1163 1221 1294 1382 1268 1232 1241 1275 1244 1197 1252 1260 1244 1222 1252 1274 1231 1244 1272 1303 1266 1288 1254 1231 1251 1181 1263 1292 1257 1242 1216 1262 1254 1214 1273 1247 1290 1234 1250 1314 1273 1285 1276 1261 1320 1246 1266 1253 1208 1288 1260 1205 1231 1306 1233 1295 1311 1217 1274 1322 1230 1321 1258 1224 1305 1261 1265 1236 1279 1269 1275 1301 1262 1275 1287 1182 1239 1223 1267 1259 1273 1312 1247 1306 1211 1328 1256 1260 1228 1345 1239 1333 1285 1292 1219 1234 1384 1274 1252 1274 1254 1328 1339 1250 1286 1328 1291 1243 1358 1311 1355 1328 1350 1267 1336 1380 1364 1331 1311 1332 1360 1296 1384 1369 1469 1381 1393 1374 1426 1467 1445 1442 1480 1436 1476 1446 1482 1499 1564 1569 1591 1476 1525 1547 1535 1513 1506 1514 1506 1491 1434 1423 1446 1472 1478 1494 1529 1434 1447 1463 1434 1432 1443 1400 1451 1421 1408 1387 1435 1426 1441 1453 1461 1445 1390 1420 1336 1419 1388 1355 1399 1394 1356 1376 1467 1402 1429 1367 1399 1334 1363 1306 1325 1366 1308 1306 1354 1349 1297 1354 1351 1373 1327 1352 1309 1363 1302 1399 1394 1345 1367 1330 1343 1315 1307 1362 1340 1327 1359 1293 1286 1371 1361 1341 1374 1352 1293 1304 1411 1360 1387 1364 1339 1300 1305 1346 1352 1341 1323 1316 1334 1363 1309 1264 1335 1297 1333 1263 1302 1366 1299 1312 1367 1327 1279 1246 1346 1230 1324 1345 1272 1319 1274 1295 1285 1299 1345 1311 1315 1404 1304 1350 1337 1321 1270 1214 1333 1297 1281 1211 1279 1342 1308 1273 1278 1247 1255 1323 1292 1270 1278 1305 1294 1289 1339 1254 1314 1267 1195 1277 1278 1236 1293 1311 1273 1288 1265 1365 1244 1227 1281 1276 1322 1320 1324 1250 1302 1296 1331 1296 1254 1290 1291 1242 1294 1311 1316 1293 1303 1346 1307 1297 1292 1281 1309 1257 1375 1306 1254 1356 1380 1345 1263 1334 1295 1269 1306 1288 1301 1218 1295 1231 1303 1295 1295 1296 1276 1323 1232 1241 1333 1272 1301 1278 1300 1269 1217 1284 1255 1285 1298 1290 1232 1292 1381 1261 1278 1237 1256 1312 1279 1253 1293 1266 1285 1279 1255 1343 1242 1270 1211 1202 1336 1231 1250 1289 1277 1279 1286 1290 1386 1207 1270 1253 1312 1251 1295 1283 1342 1260 1292 1237 1296 1290 1297 1282 1321 1288 1266 1257 1275 1283 1268 1292 1299 1264 1316 1237 1257 1246 1251 1294 1279 1293 1316 1363 1229 1295 1304 1272 1245 1319 1257 1282 1305 1247 1227 1263 1221 1289 1352 1300 1328 1254 1310 1237 1299 1295 1269 1247 1242 1284 1287 1182 1242 1273 1274 1369 1281 1265 1311 1286 1281 1317 1262 1214 1313 1275 1292 1272 1269 1272 1298 1230 1317 1226 1192 1267 1284 1272 1272 1310 1300 1221 1288 1249 1291 1306 1213 1276 1241 1309 1274 1241 1266 1269 1287 1293 1292 1262 1295 1256 1321 1240 1286 1283 1259 1245 1272 1294 1293 1163 1247 1283 1267 1254 1231 1273 1219 1254 1266 1295 1266 1304 1284 1306 1270 1281 1333 1318 1284 1265 1243 1314 1262 1251 1254 1226 1306 1240 1339 1330 1272 1270 1262 1277 1305 1288 1248 1273 1262 1313 1239 1264 1300 1322 1341 1306 1252 1308 1285 1305 1233 1255 1336 1263 1309 1254 1253 1266 1272 1337 1288 1264 1200 1283 1271 1353 1279 1240 1302 1278 1305 1296 1268 1269 1287 1268 1237 1263 1237 1348 1267 1304 1357 1229 1316 1257 1287 1299 1238 1266 1318 1221 1295 1317 1307 1285 1351 1225 1281 1318 1263 1262 1335 1274 1353 1279 1305 1284 1255 1269 1228 1214 1274 1289 1286 1271 1322 1303 1342 1351 1290 1292 1315 1311 1248 1267 1233 1310 1307 1315 1268 1277 1322 1377 1306 1278 1293 1331 1248 1301 1255 1266 1286 1279 1304 1369 1289 1291 1334 1302 1271 1348 1265 1318 1299 1368 1338 1252 1315 1257 1226 1224 1234 1329 1316 1255 1265 1292 1334 1267 1237 1242 1271 1317 1256 1351 1224 1376 1330 1301 1258 1308 1292 1264 1305 1249 1286 1311 1249 1317 1320 1269 1288 1249 1305 1263 1256 1333 1278 1348 1266 1249 1267 1337 1274 1321 1204 1291 1379 1279 1267 1323 1247 1306 1293 1287 1271 1366 1340 1307 1290 1285 1313</counts>
			</dataPoints>
		</scan>
	</xrdMeasurement>
</xrdMeasurements>
