<?xml version="1.0"?>
<xrdMeasurements xmlns="http://www.xrdml.com/XRDMeasurement/2.3" xmlns:xsi="http://www.w3.org/2001/XMLSchema-instance" xsi:schemaLocation="http://www.xrdml.com/XRDMeasurement/2.3 http://www.xrdml.com/XRDMeasurement/2.3/XRDMeasurement.xsd" status="Completed" recordIdentifier="{303537D4-446D-489E-AF91-15015B973636}">
	<comment>
		<entry/>
	</comment>
	<sample type="To be analyzed">
		<id>GPSS_Li1p2Mn0p4Sn0p1Ta0p2Mg0p3Fe0p1Cl4_122625_694e531dae15af25ac37461c</id>
		<name></name>
		<preparedBy></preparedBy>
	</sample>
	<xrdMeasurement measurementType="Scan" status="Completed" sampleMode="Reflection">
		<usedWavelength intended="K-Alpha 1">
			<kAlpha1 unit="Angstrom">1.5405980</kAlpha1>
			<kAlpha2 unit="Angstrom">1.5444260</kAlpha2>
			<kBeta unit="Angstrom">1.3922500</kBeta>
			<ratioKAlpha2KAlpha1>0.5000</ratioKAlpha2KAlpha1>
		</usedWavelength>
		<incidentBeamPath>
			<radius unit="mm">145.00</radius>
			<xRayTube id="1010048" name="Empyrean Cu LFF HR (9430 033 7310x)">
				<tension unit="kV">40.0</tension>
				<current unit="mA">15.0</current>
				<anodeMaterial>Cu</anodeMaterial>
				<focus type="Line">
					<length unit="mm">12.0</length>
					<width unit="mm">0.4</width>
					<takeOffAngle unit="deg">6.0</takeOffAngle>
				</focus>
			</xRayTube>
			<sollerSlit id="21010002" name="Soller slits 0.04 rad.">
				<opening unit="rad">0.0400</opening>
			</sollerSlit>
			<mask id="22031000" name="Fixed mask 13 mm">
				<width unit="mm">9.00</width>
			</mask>
			<divergenceSlit id="22120001" name="Divergence slit 1°" xsi:type="fixedDivergenceSlitType">
				<distanceToSample unit="mm">50.00</distanceToSample>
				<height unit="mm">1.52</height>
			</divergenceSlit>
		</incidentBeamPath>
		<sampleMovement xsi:type="spinningSampleMovementType">
			<spinnerRevolutionTime unit="seconds">1.0</spinnerRevolutionTime>
		</sampleMovement>
		<diffractedBeamPath>
			<radius unit="mm">145.00</radius>
			<antiScatterSlit id="22090040" name="AS slit 9 mm (PIXcel)" xsi:type="fixedAntiScatterSlitType">
				<height unit="mm">9.00</height>
			</antiScatterSlit>
			<sollerSlit id="21020003" name="Large Soller slits 0.04 rad.">
				<opening unit="rad">0.0400</opening>
			</sollerSlit>
			<filter id="20030001" name="Large beta-filter Nickel">
				<material>Ni</material>
				<thickness unit="mm">0.020</thickness>
			</filter>
			<detector id="7010019" name="PIXcel1D-Medipix3 detector" xsi:type="rtmsDetectorType">
				<phd unit="keV">
					<lowerLevel>4.02</lowerLevel>
					<upperLevel>11.27</upperLevel>
				</phd>
				<mode>Scanning</mode>
				<activeLength unit="deg">5.542</activeLength>
			</detector>
		</diffractedBeamPath>
		<scan appendNumber="0" mode="Continuous" scanAxis="Gonio" status="Completed">
			<header>
				<startTimeStamp>2025-12-27T13:48:17-08:00</startTimeStamp>
				<endTimeStamp>2025-12-27T13:56:24-08:00</endTimeStamp>
				<author>
					<name>AutomatedUser</name>
				</author>
				<source>
					<applicationSoftware version="1.7b (136)">PANalytical Aeris Instrument Suite</applicationSoftware>
					<instrumentControlSoftware version="3.2.00000000 20240306">AERIS</instrumentControlSoftware>
					<instrumentID>950485</instrumentID>
				</source>
			</header>
			<dataPoints>
				<positions axis="2Theta" unit="deg">
					<startPosition>10.00943322</startPosition>
					<endPosition>99.99442286</endPosition>
				</positions>
				<positions axis="Omega" unit="deg">
					<startPosition>5.00471661</startPosition>
					<endPosition>49.99721143</endPosition>
				</positions>
				<commonCountingTime unit="seconds">12.495</commonCountingTime>
				<counts unit="counts">3004 3152 3041 3097 3072 3142 3026 3066 3001 2979 3008 3035 3098 3018 3046 3123 3087 3058 3095 3161 3030 3100 3084 3036 3222 3080 3112 3162 3185 3080 3153 3160 3209 3214 3078 3090 3084 3002 3170 3089 3119 3174 3190 3119 3282 3118 3129 3236 3216 3155 3175 3139 3168 3287 3094 3103 3242 3102 3220 3195 3195 3132 3165 3140 3245 3266 3152 3286 3236 3340 3258 3213 3211 3288 3232 3233 3242 3187 3281 3257 3111 3308 3349 3304 3357 3276 3205 3270 3250 3371 3282 3284 3304 3349 3243 3199 3333 3323 3392 3297 3306 3353 3173 3337 3338 3307 3353 3360 3376 3324 3455 3377 3268 3359 3308 3382 3302 3298 3407 3399 3313 3374 3343 3344 3384 3386 3437 3313 3314 3440 3348 3327 3526 3311 3268 3310 3329 3464 3471 3454 3417 3346 3402 3293 3397 3183 3441 3326 3458 3406 3395 3472 3378 3410 3505 3314 3355 3350 3430 3325 3409 3264 3348 3348 3376 3374 3406 3520 3327 3385 3466 3427 3320 3340 3433 3322 3334 3389 3367 3469 3399 3376 3390 3214 3360 3333 3356 3395 3452 3388 3407 3355 3390 3351 3337 3309 3465 3362 3414 3225 3301 3307 3247 3327 3273 3389 3301 3340 3308 3266 3341 3351 3416 3327 3303 3250 3278 3336 3289 3334 3304 3283 3243 3324 3260 3284 3362 3279 3317 3281 3287 3278 3320 3255 3317 3273 3278 3249 3207 3290 3182 3292 3282 3297 3237 3205 3153 3089 3291 3223 3194 3317 3239 3181 3138 3369 3174 3172 3194 3165 3163 3228 3225 3198 3190 3243 3197 3219 3277 3090 3165 3237 3317 3178 3357 3164 3171 3147 3170 3104 3214 3135 3185 3196 3199 3308 3263 3311 3217 3211 3148 3222 3173 3235 3172 3230 3185 3151 3174 3242 3219 3175 3212 3261 3180 3241 3149 3309 3255 3202 3246 3351 3253 3237 3194 3321 3278 3160 3103 3270 3252 3253 3261 3170 3285 3355 3250 3142 3274 3329 3367 3417 3316 3292 3271 3275 3279 3378 3279 3299 3278 3244 3384 3298 3250 3397 3285 3264 3356 3417 3292 3456 3427 3391 3300 3422 3346 3440 3461 3371 3461 3454 3421 3362 3436 3221 3462 3350 3509 3522 3503 3443 3465 3367 3383 3469 3492 3414 3533 3466 3520 3323 3553 3501 3499 3507 3541 3447 3528 3460 3485 3553 3483 3511 3431 3603 3460 3611 3451 3525 3513 3548 3522 3569 3600 3684 3653 3552 3734 3711 3685 3771 3772 3771 3718 3754 3755 3773 3802 3903 3806 3925 3743 3921 3875 3876 3873 3950 3954 3984 3958 4004 3954 4074 4167 4169 4358 4492 4230 4293 4511 4544 4609 4519 4644 4805 4905 4735 4803 4940 4690 4686 4596 4689 4294 4272 3990 4026 3849 3835 3693 3676 3765 3660 3599 3673 3453 3645 3589 3611 3620 3467 3550 3489 3646 3558 3539 3692 3663 3510 3610 3591 3711 3683 3645 3639 3700 3610 3644 3485 3510 3511 3528 3470 3563 3447 3356 3421 3498 3419 3333 3382 3431 3337 3219 3336 3298 3305 3273 3376 3216 3303 3316 3284 3270 3194 3218 3174 3182 3303 3145 3342 3179 3198 3133 3213 3204 3155 3207 3188 3261 3182 3212 3063 3087 3164 3067 3136 3139 3143 3129 3120 3045 3286 3130 3082 3089 3076 3071 3151 3068 3038 3013 3095 3024 3080 3115 3081 3125 3049 3055 3113 3066 3041 2989 3067 3030 3053 3087 2993 2989 3029 3010 3042 3015 2960 3049 3033 3016 2984 2980 2981 2961 2938 2928 2961 2880 3066 2949 3008 2941 3035 2945 2946 2976 2991 3046 2913 2937 3036 2971 2929 2900 3013 2914 2892 2990 2910 2889 2889 2942 2847 2909 2821 2919 2879 2958 2847 2890 2940 2873 2928 2880 2973 2917 2896 2913 2914 2791 2898 2901 2872 2780 2878 2866 2918 2909 2826 2820 2863 2857 2854 2855 2786 2905 2823 2780 2785 2806 2759 2821 2794 2797 2811 2846 2792 2848 2652 2828 2865 2797 2757 2741 2829 2787 2774 2811 2871 2760 2840 2814 2845 2729 2816 2878 2807 2753 2767 2763 2810 2811 2815 2715 2699 2836 2876 2805 2785 2761 2813 2746 2808 2695 2820 2834 2743 2765 2826 2841 2766 2874 2798 2790 2888 2734 2731 2715 2786 2792 2765 2708 2676 2803 2822 2791 2754 2746 2690 2684 2792 2700 2714 2710 2815 2827 2762 2795 2656 2746 2756 2750 2691 2736 2745 2710 2771 2789 2702 2663 2787 2683 2717 2615 2844 2731 2732 2697 2581 2717 2593 2691 2681 2742 2624 2699 2590 2671 2797 2628 2679 2638 2656 2607 2743 2697 2684 2744 2618 2721 2762 2631 2672 2613 2760 2642 2708 2706 2681 2582 2712 2764 2656 2664 2713 2756 2617 2646 2594 2628 2632 2677 2567 2657 2723 2694 2655 2639 2618 2650 2696 2606 2533 2650 2655 2597 2684 2584 2621 2693 2659 2672 2680 2606 2633 2710 2519 2624 2659 2573 2695 2618 2594 2660 2561 2506 2654 2667 2727 2678 2747 2615 2635 2592 2651 2537 2595 2577 2559 2616 2547 2616 2629 2544 2521 2583 2611 2497 2591 2598 2633 2626 2561 2626 2565 2580 2540 2631 2589 2514 2602 2642 2559 2573 2643 2637 2559 2526 2506 2571 2618 2539 2579 2500 2554 2543 2515 2532 2584 2538 2562 2590 2509 2559 2514 2567 2534 2545 2401 2491 2566 2468 2548 2556 2525 2520 2568 2589 2526 2557 2525 2559 2493 2535 2478 2445 2479 2574 2536 2476 2515 2494 2488 2501 2481 2491 2522 2395 2491 2412 2523 2485 2498 2457 2451 2532 2479 2514 2546 2447 2480 2463 2484 2455 2449 2582 2449 2364 2495 2451 2476 2439 2390 2557 2480 2430 2422 2424 2455 2463 2549 2507 2475 2463 2429 2399 2438 2383 2436 2424 2439 2476 2430 2428 2513 2285 2324 2388 2481 2294 2441 2441 2437 2350 2410 2410 2368 2356 2409 2466 2437 2422 2482 2423 2496 2461 2409 2476 2359 2410 2490 2377 2407 2389 2447 2404 2375 2441 2382 2426 2373 2393 2409 2353 2388 2434 2406 2390 2489 2481 2436 2468 2430 2333 2390 2428 2400 2363 2402 2412 2461 2511 2429 2405 2448 2454 2411 2419 2419 2452 2478 2458 2418 2459 2407 2395 2509 2487 2367 2370 2480 2469 2426 2500 2396 2368 2498 2485 2530 2470 2482 2460 2536 2512 2470 2387 2364 2358 2590 2367 2449 2551 2490 2465 2466 2408 2420 2458 2436 2348 2404 2460 2582 2495 2460 2414 2501 2386 2436 2389 2525 2544 2491 2433 2473 2488 2388 2465 2473 2477 2430 2433 2379 2412 2407 2447 2468 2384 2351 2435 2459 2463 2457 2407 2501 2403 2407 2444 2442 2407 2419 2387 2468 2388 2464 2405 2409 2307 2427 2415 2396 2472 2493 2437 2481 2478 2396 2437 2372 2459 2352 2468 2338 2321 2368 2447 2384 2375 2343 2378 2302 2365 2363 2442 2370 2409 2379 2445 2370 2365 2291 2284 2358 2365 2301 2248 2318 2384 2273 2330 2289 2262 2318 2290 2296 2285 2277 2336 2310 2289 2230 2284 2294 2274 2217 2309 2235 2231 2204 2227 2245 2228 2182 2207 2234 2241 2220 2189 2217 2144 2241 2246 2306 2154 2079 2193 2277 2092 2202 2298 2199 2208 2127 2148 2159 2137 2116 2183 2195 2165 2138 2141 2189 2154 2142 2085 2167 2175 2171 2121 2081 2046 2126 2078 2071 2063 2034 2113 2128 2068 2085 1993 2067 2006 2100 2103 2033 2049 2089 2068 2015 2014 2072 2020 2050 2002 2047 2007 2108 2036 1927 2042 1937 2019 2059 1973 1995 1946 1959 1908 1973 1989 2018 1922 2011 1959 1974 1895 1947 2010 1996 1989 1847 1894 1936 1900 1897 1919 1902 1881 1919 1930 1982 1911 1846 1949 1822 1920 1871 1954 1853 1866 1910 1970 1898 1875 1904 1882 1886 1992 1907 1897 1897 1886 1817 1869 1808 1868 1889 1801 1803 1886 1804 1854 1866 1816 1911 1867 1886 1840 1804 1890 1799 1822 1841 1850 1719 1830 1811 1872 1824 1825 1844 1775 1841 1789 1921 1761 1807 1836 1856 1860 1837 1830 1848 1847 1815 1807 1792 1791 1758 1776 1745 1814 1771 1775 1809 1827 1856 1792 1798 1704 1790 1862 1870 1755 1740 1813 1704 1795 1803 1808 1791 1743 1777 1804 1782 1794 1803 1702 1832 1775 1738 1916 1807 1778 1784 1849 1792 1752 1807 1728 1837 1782 1853 1809 1815 1785 1724 1722 1831 1759 1757 1787 1708 1717 1827 1793 1876 1810 1784 1823 1795 1726 1811 1815 1834 1801 1754 1796 1767 1861 1841 1849 1785 1749 1757 1702 1786 1720 1806 1848 1890 1840 1890 1765 1733 1795 1819 1823 1777 1798 1742 1815 1795 1821 1814 1894 1765 1836 1839 1800 1783 1868 1723 1747 1798 1843 1822 1803 1740 1868 1845 1775 1789 1698 1784 1844 1782 1850 1791 1810 1780 1796 1766 1853 1825 1805 1829 1855 1888 1720 1830 1783 1762 1789 1823 1729 1817 1751 1736 1917 1817 1691 1795 1794 1790 1823 1812 1829 1782 1748 1803 1760 1783 1774 1783 1817 1840 1830 1792 1799 1827 1731 1782 1806 1753 1728 1807 1788 1700 1866 1769 1736 1747 1761 1709 1773 1892 1782 1729 1777 1802 1720 1730 1687 1744 1800 1770 1659 1709 1770 1709 1629 1762 1776 1816 1761 1762 1723 1767 1657 1711 1747 1647 1728 1764 1638 1656 1670 1636 1604 1690 1674 1706 1643 1663 1746 1689 1702 1704 1638 1665 1702 1595 1665 1615 1696 1631 1709 1675 1611 1670 1649 1631 1691 1625 1635 1668 1689 1586 1653 1676 1541 1584 1550 1693 1632 1607 1645 1587 1618 1559 1574 1640 1604 1645 1632 1609 1534 1604 1560 1609 1636 1547 1503 1537 1528 1619 1620 1635 1534 1526 1609 1601 1546 1551 1571 1532 1517 1530 1546 1522 1523 1466 1538 1523 1534 1526 1546 1542 1451 1451 1504 1455 1489 1466 1477 1520 1503 1474 1476 1526 1481 1487 1517 1485 1508 1478 1558 1471 1508 1570 1525 1565 1504 1599 1579 1636 1605 1591 1614 1675 1590 1645 1621 1639 1618 1698 1574 1631 1647 1673 1646 1635 1641 1666 1607 1716 1769 1740 1843 1777 1749 1816 1873 1956 2032 1974 1998 2030 2091 2156 2110 2105 2029 2076 1933 1938 1871 1871 1845 1805 1715 1688 1663 1649 1617 1505 1603 1587 1532 1536 1511 1481 1486 1487 1514 1436 1417 1331 1427 1453 1456 1474 1433 1448 1416 1349 1413 1388 1368 1341 1416 1463 1382 1352 1361 1336 1422 1351 1400 1422 1303 1367 1368 1375 1386 1411 1422 1423 1366 1394 1382 1414 1370 1378 1412 1365 1439 1324 1386 1372 1390 1369 1470 1373 1456 1456 1508 1540 1475 1532 1612 1602 1721 1807 1802 1811 1818 1934 1966 2037 2009 2065 1947 2149 2083 2098 2103 2135 2102 2150 2198 2202 2263 2390 2412 2526 2737 2746 2909 3008 3215 3361 3650 3737 3868 4040 4182 4176 4196 4253 4228 4093 3912 3748 3559 3465 3081 2932 2741 2544 2339 2154 2130 1874 1738 1631 1747 1542 1604 1549 1488 1546 1474 1435 1395 1482 1377 1396 1381 1424 1394 1393 1491 1344 1365 1382 1440 1392 1488 1470 1422 1448 1432 1404 1379 1343 1347 1458 1271 1336 1376 1323 1251 1272 1216 1220 1254 1322 1205 1321 1272 1242 1253 1256 1254 1254 1237 1224 1263 1241 1227 1204 1247 1212 1236 1296 1152 1236 1247 1223 1262 1222 1230 1204 1182 1239 1193 1213 1234 1177 1227 1190 1193 1174 1238 1176 1175 1201 1199 1218 1173 1253 1221 1220 1202 1219 1192 1174 1183 1176 1159 1185 1172 1246 1138 1168 1161 1185 1113 1128 1153 1143 1193 1178 1239 1172 1107 1206 1166 1201 1119 1175 1157 1130 1108 1159 1147 1174 1127 1123 1197 1215 1141 1198 1122 1204 1155 1168 1049 1151 1091 1144 1159 1128 1122 1164 1128 1106 1137 1139 1108 1048 1168 1129 1111 1133 1094 1154 1079 1124 1114 1174 1105 1032 1131 1152 1157 1083 1152 1144 1146 1133 1134 1122 1112 1136 1182 1124 1129 1098 1156 1217 1112 1102 1119 1103 1108 1136 1104 1077 1057 1117 1131 1080 1125 1134 1163 1134 1079 1129 1084 1127 1126 1169 1154 1084 1087 1181 1081 1099 1088 1137 1126 1107 1087 1145 1159 1140 1080 1052 1121 1149 1107 1096 1046 1139 1111 1129 1122 1125 1105 1168 1139 1161 1110 1149 1111 1155 1173 1118 1179 1092 1081 1129 1040 1098 1129 1153 1153 1066 1142 1085 1124 1101 1047 1114 1054 1167 1155 1137 1119 1120 1134 1086 1133 1090 1117 1122 1096 1071 1079 1048 1134 1100 1084 1096 1081 1099 1025 1097 1090 1101 1074 1133 1077 1128 1103 1128 1076 1103 1115 1060 1088 1085 1100 1090 1072 1070 1085 1048 1086 1106 1072 1143 1089 1045 1067 1035 1075 1011 1054 1083 1054 1062 1098 1167 1061 1096 1074 1168 1140 1086 1074 1049 1089 1086 1110 1121 1115 1015 1104 1025 1073 1021 1109 1090 1110 1124 1075 1088 1057 1108 1121 1057 1077 1041 1062 1139 1043 1141 1112 1106 1132 1081 1136 1139 1193 1137 1123 1088 1122 1134 1102 1156 1088 1060 1116 1161 1137 1151 1168 1129 1178 1180 1175 1214 1223 1286 1305 1373 1364 1396 1486 1611 1626 1743 1849 1901 2068 2081 2249 2331 2318 2478 2403 2515 2538 2546 2582 2587 2719 2612 2855 2835 2949 3067 3203 3367 3569 3868 3862 4073 4349 4654 4978 5168 5523 5737 5846 5916 5940 6025 6056 5737 5694 5460 5127 4839 4651 4189 3863 3610 3285 3037 2794 2569 2314 2192 2079 1848 1748 1709 1644 1637 1627 1624 1607 1541 1584 1578 1618 1594 1500 1493 1495 1507 1529 1522 1598 1577 1627 1600 1511 1573 1550 1528 1522 1523 1522 1406 1433 1485 1471 1322 1332 1385 1315 1281 1296 1309 1251 1248 1227 1203 1184 1158 1108 1118 1105 1113 1080 1066 1061 1005 1180 1056 1100 1032 1093 1087 1041 1088 1094 992 1094 1062 1046 1036 1074 1054 1057 1072 1057 1017 1069 1027 1063 1015 1007 1033 1104 1056 1062 1083 1027 1056 1039 1058 1032 985 1027 1010 999 1010 1048 1071 1031 992 1064 1027 996 1039 1028 1030 1023 1027 1042 1002 1037 976 1056 964 973 1028 1028 1036 1053 1022 1060 1073 1011 1033 990 1039 950 1051 989 1025 1038 986 1062 989 996 1039 1027 976 1031 1070 939 960 1039 1028 1001 985 996 955 969 1004 990 1002 961 1046 996 993 978 1055 1057 955 1005 1012 1031 991 952 1015 1068 955 942 995 1021 955 1000 1021 1008 991 998 955 1023 992 1010 989 992 1020 1011 1011 992 987 961 976 1008 1049 1007 988 1005 985 991 1008 1006 970 977 1045 1017 968 946 990 1063 1015 965 982 1014 998 972 1072 987 972 1044 1042 952 978 998 1028 939 997 1010 973 971 987 965 975 978 933 992 978 1009 972 1005 978 982 941 1000 1000 1019 1018 979 968 991 986 974 1030 948 1002 985 1013 986 915 972 961 976 997 967 952 997 981 1018 1053 1031 979 1011 986 995 980 979 1034 1039 1074 1008 991 996 998 1007 1010 986 980 936 938 990 927 969 991 999 935 984 936 903 990 915 984 970 1004 939 962 953 939 1006 932 915 969 977 951 915 907 958 999 985 952 942 979 978 1024 972 894 894 913 955 938 1009 1025 1010 1003 983 988 978 970 1006 1002 943 940 950 912 979 983 925 946 903 984 931 979 923 955 962 923 905 963 916 946 943 936 925 900 903 906 929 907 975 898 882 931 923 897 975 966 930 945 911 937 920 899 987 928 915 907 929 881 995 902 962 913 897 904 932 940 892 935 955 911 892 897 926 915 967 915 933 934 915 955 926 988 920 891 931 916 870 939 872 897 938 894 879 893 943 900 928 937 934 993 965 947 906 905 906 908 959 906 912 936 912 925 929 990 923 878 973 885 890 872 937 948 832 948 879 893 876 961 922 907 880 932 887 868 881 889 903 842 918 893 920 940 916 860 892 915 869 908 954 926 900 947 838 935 898 938 873 923 915 882 902 892 855 928 874 938 917 906 887 908 905 912 908 896 902 872 927 846 910 924 889 884 862 921 866 895 870 885 914 916 880 942 836 892 863 908 857 935 948 923 1018 901 882 875 919 922 897 920 882 833 922 882 898 849 905 910 964 887 922 877 911 908 928 886 909 905 842 867 916 939 879 943 888 872 893 954 973 896 900 939 869 888 911 855 853 854 858 905 912 878 844 887 905 935 881 932 925 871 866 862 921 873 905 888 919 946 868 960 871 840 906 926 895 826 904 920 924 905 899 889 882 930 909 944 890 941 842 875 883 911 853 848 940 921 862 903 843 881 869 849 870 878 879 959 876 840 915 857 880 905 878 856 906 918 895 911 861 865 893 907 792 873 910 890 865 917 919 878 893 881 892 922 895 915 923 901 917 918 855 918 877 888 867 884 875 837 871 843 865 857 851 911 873 933 878 947 880 911 871 879 883 898 903 790 901 911 814 911 900 803 893 886 856 923 911 843 808 866 880 890 852 905 856 906 915 925 887 877 880 888 859 897 893 890 912 905 890 901 906 881 917 931 907 885 890 910 929 892 862 875 917 914 865 927 850 920 927 868 840 931 864 845 849 858 884 892 887 852 929 825 888 863 844 853 859 905 876 865 881 876 834 909 857 874 870 912 815 862 924 867 872 860 915 873 881 846 859 909 903 815 820 884 887 864 874 842 897 927 895 903 899 847 819 868 944 890 904 901 884 847 905 891 870 887 875 862 910 887 892 918 899 832 900 852 883 939 883 890 854 911 862 890 875 846 886 883 914 831 868 859 913 889 896 867 925 877 877 873 877 888 895 864 904 845 921 905 870 865 840 922 881 888 875 930 813 855 890 889 911 883 832 855 901 904 909 887 906 876 891 846 909 867 905 932 909 901 869 849 847 908 838 854 885 834 854 885 873 890 871 887 866 864 868 887 857 883 901 885 882 834 911 816 923 872 850 947 897 892 937 851 882 866 875 862 841 929 869 895 831 909 845 866 892 893 871 953 893 956 953 961 916 901 974 911 941 993 1022 1005 1020 972 994 1011 1032 1040 1054 1048 1058 1087 1125 1127 1185 1177 1224 1242 1216 1235 1323 1361 1373 1392 1368 1382 1387 1463 1436 1484 1421 1480 1354 1393 1369 1364 1287 1268 1229 1167 1204 1136 1143 1123 1140 1081 1004 1061 1030 970 979 917 932 934 877 967 918 899 837 901 932 832 869 818 836 824 861 853 912 861 873 864 852 908 876 899 902 893 883 882 912 886 914 892 850 911 910 906 931 923 915 921 914 887 913 917 918 875 847 909 954 942 903 865 920 911 892 895 898 898 859 891 889 909 880 880 899 908 930 913 909 923 855 919 836 846 836 830 871 930 891 894 876 915 834 894 842 881 857 897 835 914 899 859 928 851 874 902 905 907 915 874 883 873 845 906 918 844 879 843 864 935 892 858 910 857 876 930 914 845 851 848 881 893 847 866 840 898 852 900 864 816 849 863 833 863 877 889 883 846 860 860 859 916 826 910 884 843 858 904 871 825 865 893 865 850 867 895 901 859 860 878 847 873 857 844 868 903 895 851 878 865 852 880 845 871 890 858 884 919 904 855 825 851 885 876 839 923 865 823 884 862 849 848 834 827 859 855 850 932 908 895 906 827 874 864 870 867 891 819 835 847 912 859 924 898 913 861 837 874 893 890 933 867 843 896 907 874 892 881 916 883 848 878 906 921 870 856 864 890 831 853 870 817 921 853 895 809 900 890 908 925 885 854 925 820 897 879 907 838 919 922 846 822 871 876 851 835 871 873 902 859 895 900 860 855 867 825 889 836 829 904 896 818 900 926 812 900 910 905 884 902 922 912 895 886 941 860 862 875 839 923 934 911 865 940 900 908 881 904 907 967 917 909 901 893 857 948 936 926 1007 942 964 966 970 1023 960 946 1071 1032 1056 1152 1117 1137 1261 1222 1287 1306 1402 1485 1522 1580 1647 1667 1850 1844 1893 1914 1936 2062 2038 2095 2272 2335 2396 2572 2707 2758 2935 3066 3234 3337 3546 3701 3678 3914 4052 4061 4217 4262 4284 4169 4115 3932 4007 3854 3622 3471 3372 3052 2921 2845 2704 2629 2460 2397 2248 2090 1967 1838 1699 1586 1537 1469 1425 1403 1220 1337 1285 1220 1147 1166 1168 1122 1048 1126 1094 1101 1051 1038 1071 1030 1083 1047 1008 1061 1020 1023 993 1013 1006 1011 999 968 988 934 987 974 980 1022 969 981 977 991 990 976 1030 972 1068 1008 1056 1028 1013 1043 1017 950 1047 1026 993 1032 977 1028 996 998 1009 998 1004 1026 1017 1039 981 1079 1025 1023 1040 1064 1014 1053 1010 1074 986 924 1056 954 968 988 972 1005 894 936 924 988 915 927 926 901 925 900 905 891 888 890 913 916 910 937 872 884 885 913 900 906 864 904 932 917 822 918 880 855 814 840 837 886 840 882 846 840 789 912 888 906 860 919 884 870 858 805 948 915 911 856 912 910 862 821 851 877 875 882 866 931 900 880 888 894 862 883 869 848 888 865 880 854 878 873 880 943 818 895 944 934 862 972 917 900 957 919 993 936 964 951 964 928 969 1011 1027 1062 1066 1048 984 1039 1144 1110 1081 1098 1119 1157 1226 1172 1140 1174 1117 1172 1085 1191 1181 1142 1227 1076 1152 1090 1109 1100 982 1030 1094 1018 1044 1008 1004 958 936 977 965 1005 944 958 905 963 932 906 892 971 911 895 931 970 873 913 935 909 859 881 911 912 881 891 896 892 833 852 858 931 897 909 827 865 862 896 821 855 853 854 878 828 893 861 819 861 883 832 876 889 879 856 864 842 817 803 860 825 816 812 854 848 896 820 823 808 845 830 866 824 853 887 851 845 839 866 857 881 809 829 831 782 832 848 862 833 842 789 846 818 830 832 805 815 807 858 816 897 834 825 883 871 811 844 822 817 838 856 872 796 812 825 853 833 866 815 841 885 857 838 893 835 830 858 865 846 850 818 800 797 841 792 847 804 866 830 867 850 803 833 831 882 846 781 806 812 768 799 818 802 837 837 851 840 853 791 832 805 855 857 779 808 801 812 873 862 818 831 802 811 788 831 809 862 817 788 802 826 807 745 825 805 818 849 834 868 831 833 894 839 826 805 817 797 855 874 784 815 813 866 823 831 783 793 782 815 832 840 835 797 809 793 798 842 885 858 859 802 815 812 839 780 801 880 817 893 795 843 821 816 789 804 851 754 841 850 817 854 846 821 843 797 838 775 835 831 881 827 811 775 833 778 806 869 778 902 831 890 786 833 798 785 798 831 822 828 828 829 778 878 857 811 855 842 839 773 788 848 848 804 798 783 842 854 819 845 781 798 803 799 760 846 815 820 857 809 854 823 858 786 770 780 847 803 835 839 797 824 810 896 833 800 793 829 775 824 808 836 772 810 808 797 811 808 840 794 823 811 791 759 848 804 793 846 759 836 811 806 812 802 834 818 846 788 786 810 772 818 777 813 795 846 872 847 790 847 805 828 804 857 830 857 777 836 813 835 790 849 808 805 791 758 871 818 799 834 835 827 816 797 793 828 837 820 825 832 786 788 769 832 819 874 798 796 794 813 865 833 868 802 838 770 818 816 754 770 790 827 796 789 814 827 865 806 816 796 801 813 816 824 807 811 865 833 840 791 753 759 788 789 797 827 849 804 854 780 839 806 776 807 803 779 879 824 818 779 821 808 793 768 814 812 797 813 812 802 806 846 763 778 779 826 825 805 778 793 813 823 798 795 842 835 792 776 849 800 807 785 854 779 834 771 786 799 787 801 808 771 818 789 766 789 822 828 777 793 851 805 806 821 846 837 822 845 804 806 821 834 840 802 832 850 820 845 807 887 846 811 875 829 826 800 867 829 866 827 816 819 874 819 910 867 859 922 932 898 884 882 924 926 843 880 896 910 873 881 840 917 832 830 888 830 834 874 849 936 855 853 850 874 869 895 860 849 869 825 841 900 904 847 895 870 877 863 903 931 900 897 956 908 957 962 933 1000 982 960 1063 1090 1046 1109 1073 1087 1088 1103 1092 1141 1175 1230 1285 1278 1350 1371 1318 1368 1378 1350 1362 1389 1392 1335 1345 1330 1355 1248 1249 1205 1193 1167 1216 1131 1128 1117 1087 1055 1065 986 1050 995 963 922 953 970 848 888 900 841 892 847 830 816 873 807 813 839 829 833 894 824 846 849 838 785 802 802 859 873 831 761 790 829 820 803 799 817 777 820 779 805 832 846 780 774 832 837 813 803 805 795 878 848 818 844 782 868 892 872 814 811 847 859 899 829 813 874 869 853 878 860 843 813 843 898 811 860 818 814 818 824 864 817 807 827 869 843 808 806 851 777 801 771 849 823 769 868 812 825 839 756 783 801 826 809 708 812 791 787 837 768 827 819 799 793 783 781 786 825 775 817 795 821 808 803 789 792 755 787 774 824 831 828 821 769 782 768 775 752 816 803 858 836 799 793 820 780 831 813 784 799 806 713 797 759 786 800 773 791 821 790 784 775 757 810 827 813 799 845 777 818 789 779 795 856 801 808 776 822 839 764 774 791 788 800 825 785 819 853 815 762 884 809 839 837 788 854 801 779 799 830 839 822 821 799 877 817 817 848 840 881 928 906 916 981 974 936 958 1058 1025 986 1033 1037 1100 1132 1155 1077 1145 1161 1217 1215 1356 1327 1320 1367 1449 1461 1613 1551 1611 1636 1657 1745 1655 1664 1759 1652 1634 1610 1674 1578 1565 1637 1492 1489 1401 1351 1346 1327 1328 1306 1276 1244 1275 1167 1164 1050 1058 1102 1120 1042 942 983 997 914 946 896 929 887 872 844 873 865 883 882 902 866 906 859 869 876 859 838 819 888 879 872 875 851 868 846 765 789 810 848 859 859 780 867 834 838 806 825 762 848 860 823 822 778 809 844 790 797 808 761 818 787 754 801 791 792 850 787 796 802 796 820 804 792 785 779 830 842 746 826 802 821 867 789 811 851 813 811 723 757 765 822 834 798 801 794 816 871 761 784 795 785 832 818 793 796 839 767 832 819 768 785 777 757 753 776 765 821 808 812 778 769 794 784 766 720 822 774 799 804 831 805 760 750 780 761 789 809 796 795 756 835 838 806 804 873 828 842 808 803 803 839 802 918 876 905 883 896 866 875 868 905 932 878 951 992 885 1001 977 984 960 990 964 996 988 927 960 926 890 937 931 904 878 892 890 855 841 847 858 908 883 873 826 842 874 882 843 809 798 775 807 754 818 780 802 826 840 761 814 807 824 770 797 726 766 754 825 790 813 808 758 774 765 816 784 814 792 780 698 800 767 724 836 807 767 746 786 729 764 770 807 760 752 767 768 815 757 809 822 778 788 755 792 799 769 756 776 773 748 739 778 758 771 753 753 774 777 749 763 807 718 795 802 744 834 741 746 773 797 742 799 771 811 771 788 753 767 820 815 760 792 760 770 764 784 790 774 748 768 748 785 832 797 718 737 788 704 780 804 787 749 743 802 808 833 782 744 763 799 743 794 765 792 734 733 784 794 754 819 742 780 794 770 761 829 769 786 714 780 823 790 769 733 734 761 747 772 790 774 784 741 773 774 743 726 746 780 767 799 753 732 746 753 779 723 742 756 764 730 783 747 824 813 765 748 734 772 767 719 731 775 756 736 787 792 755 756 742 742 774 758 741 738 743 777 776 749 792 757 743 713 727 729 729 774 717 818 815 724 712 726 768 749 741 706 752 750 717 729 691 733 761 727 780 728 773 743 733 789 768 745 729 722 713 755 736 776 739 705 800 718 742 782 774 760 781 740 706 730 730 750 732 782 752 800 764 764 721 746 756 794 747 774 767 756 761 777 718 766 745 735 739 783 763 785 765 693 781 733 787 802 735 786 794 736 779 772 729 744 743 706 720 760 741 776 744 810 718 735 752 743 767 789 707 801 712 738 720 766 703 719 695 741 780 771 752 729 806 707 745 747 728 721 766 749 758 777 745 775 724 758 743 781 757 765 740 731 749 722 717 723 733 673 753 763 784 811 735 739 735 746 742 753 748 752 743 708 774 806 795 744 777 753 717 721 713 745 769 747 780 772 784 799 769 792 707 702 773 777 744 718 746 744 773 746 747 730 788 763 786 752 742 752 744 756 715 701 761 762 737 788 796 750 798 725 753 745 709 691 731 701 746 741 686 725 755 743 737 794 813 760 777 751 724 770 746 716 749 761 742 736 788 765 751 693 787 747 775 801 710 765 779 729 721 771 737 766 808 779 767 817 780 813 840 846 756 751 826 764 758 752 789 765 821 896 840 797 804 853 880 901 840 841 835 845 903 833 853 824 841 814 857 749 845 812 815 791 801 831 785 790 823 830 822 805 792 820 733 823 751 795 771 792 806 773 738 728 757 738 749 788 837 752 717 768 786 692 711 729 714 768 732 732 688 756 730 742 752 736 757 742 764 762 749 741 835 759 789 751 728 787 708 757 805 764 756 732 784 749 744 746 786 745 775 756 789 761 734 757 736 683 743 742 813 799 731 763 761 803 758 770 767 788 730 751 754 765 742 780 733 709 780 746 753 784 727 767 742 731 787 726 768 727 781 720 732 776 708 723 731 758 733 752 753 744 771 729 719 749 773 702 781 718 755 738 735 730 727 725 722 723 714 748 730 736 717 733 785 725 728 759 750 734 716 769 741 783 768 747 806 715 705 737 783 747 807 739 734 751 706 779 738 792 793 749 721 749 714 781 755 792 752 697 725 797 725 760 760 760 733 750 772 765 736 769 760 722 720 716 722 735 711 764 749 760 704 756 762 766 739 723 768 762 699 699 699 749 772 738 795 747 740 731 752 790 715 749 705 760 711 724 727 741 722 723 726 741 741 716 809 743 760 707 750 758 751 753 802 767 776 731 771 735 727 796 749 738 761 746 807 801 753 785 735 736 760 749 826 852 798 749 835 900 842 839 877 889 852 872 906 893 898 943 942 935 938 993 1028 982 1031 1062 1004 998 1013 1044 999 1034 1024 1055 1028 1054 1028 994 957 950 974 979 982 962 945 938 899 926 961 897 907 905 884 854 835 955 904 932 873 856 881 855 808 809 801 813 817 800 778 757 775 778 736 752 770 777 800 762 786 754 773 773 711 736 762 740 782 779 768 787 764 725 820 722 776 710 759 733 740 735 764 801 784 721 711 786 858 745 766 749 777 808 724 739 803 756 717 718 759 762 767 750 751 754 757 735 731 778 776 776 766 770 751 791 734 764 791 751 709 774 756 744 788 753 705 757 771 737 744 768 728 750 754 744 780 734 783 748 787 763 743 722 764 740 799 729 745 743 771 751 734 764 741 774 799 737 775 733 723 796 719 768 777 767 726 748 774 774 758 707 766 778 773 781 735 722 745 785 708 746 771 712 765 811 717 721 751 800 759 733 736 789 747 730 751 763 751 776 725 724 785 776 688 729 787 766 786 765 753 702 790 734 710 760 795 733 710 707 755 777 738 679 730 745 718 735 706 734 713 756 781 745 720 718 750 764 740 757 773 713 726 697 785 759 758 746 746 702 727 707 747 734 711 793 746 723 733 734 724 743 740 758 723 764 727 736 691 745 733 770 730 707 775 756 792 762 729 788 677 733 801 782 754 754 717 675 693 736 741 759 703 758 728 694 742 737 704 759 694 732 732 734 789 721 804 684 750 795 723 718 732 727 734 735 705 788 714 701 760 756 709 751 753 719 740 739 749 711 741 739 736 747 781 712 746 742 754 712 728 753 791 745 719 766 712 771 759 751 737 739 716 790 731 695 708 750 719 737 715 711 775 683 740 726 777 712 717 719 760 746 766 713 721 767 756 726 732 764 777 735 741 797 745 779 668 693 717 758 724 764 706 792 704 759 725 745 743 782 768 737 782 705 745 756 713 748 722 729 766 756 737 744 761 758 767 745 801 740 709 782 703 672 725 743 698 755 720 764 715 764 788 680 780 713 754 765 770 748 751 714 732 753 711 722 712 728 731 780 745 814 716 734 777 736 742 684 680 705 752 718 726 785 758 697 794 732 761 761 799 740 709 743 761 778 765 769 716 773 739 746 703 762 746 737 742 730 748 715 728 767 718 725 733 814 731 747 753 789 770 747 759 763 761 728 738 748 763 729 762 763 714 766 741 766 748 720 759 780 732 760 711 740 703 717 738 757 718 735 742 721 725 694 709 780 766 770 746 757 711 763 726 734 784 736 754 747 727 739 767 734 691 709 724 735 765 746 694 734 792 778 751 786 762 739 742 735 844 690 769 755 735 726 741 785 732 738 727 746 736 752 792 722 756 772 775 776 755 695 737 776 773 757 769 721 709 762 742 717 737 728 799 756 741 780 706 711 816 725 759 770 734 767 723 756 730 775 753 737 747 751 783 773 759 739 743 743 769 836 828 796 706 764 765 767 771 764 761 782 759 760 797 812 833 824 759 788 785 807 796 804 835 849 831 851 800 825 878 821 882 824 829 855 863 840 903 805 813 753 797 801 833 794 802 830 769 829 801 833 830 874 809 832 815 819 760 778 785 792 808 808 771 842 830 815 821 810 823 847 830 827 814 852 848 839 811 847 811 889 881 945 896 938 878 864 902 947 993 948 932 951 950 904 873 889 931 939 919 872 860 847 893 890 890 831 837 866 833 820 873 836 900 816 859 839 769 884 859 828 878 816 761 827 806 764 818 818 772 784 826 789 783 809 772 775 745 740 757 784 769 737 793 771 786 731 766 733 743 758 734 806 803 760 789 812 722 771 720 818 755 779 747 773 736 784 757 788 794 796 750 764 800 746 779 761 742 791 752 745 757 740 775 792 809 739 793 803 761 751 698 752 788 779 741 745 721 807 844 765 714 770 757 735 721 771 767 746 725 748 739 768 751 754 783 771 788 765 801 838 730 776 735 773 778 809 783 689 778 747 771 777 845 776 745 761 744 758 771 806 761 757 780 774 759 759 745 838 781 770 748 781 767 787 772 717 796 757 815 806 762 831 801 766 788 824 762 753 805 855 802 838 809 768 808 754 827 793 828 780 796 765 875 807 776 844 837 793 910 865 858 888 838 864 916 915 886 929 980 923 954 1026 1047 1042 1045 1082 1162 1157 1170 1181 1156 1242 1249 1211 1324 1261 1295 1326 1327 1398 1398 1336 1394 1405 1423 1395 1376 1352 1300 1380 1319 1311 1338 1279 1318 1188 1187 1204 1187 1225 1175 1163 1220 1123 1150 1124 1157 1056 1117 1118 1085 1026 1123 1021 985 990 958 990 974 945 898 945 857 855 915 837 913 837 818 886 787 797 854 864 817 854 833 850 834 791 863 780 745 815 811 792 794 828 847 774 799 791 788 823 766 790 824 737 754 843 791 785 777 791 781 745 817 781 835 811 780 793 778 779 787 727 768 767 797 804 762 834 782 807 832 776 812 791 786 778 735 806 786 746 796 780 736 804 797 769 839 753 847 785 782 767 772 775 752 791 762 826 806 801 773 767 785 775 740 730 822 798 818 763 790 825 821 770 790 808 833 807 842 840 770 830 843 842 865 815 844 823 817 835 827 867 856 822 866 851 842 832 854 796 779 850 777 808 854 836 835 799 857 807 872 887 840 849 841 861 784 815 834 823 788 796 829 814 833 830 768 758 773 813 768 820 746 790 813 798 786 811 785 752 785 735 779 830 804 801 801 793 699 766 784 746 808 804 757 809 777 757 760 792 741 784 773 773 786 736 774 731 734 729 754 693 771 714 752 819 752 770 753 782 778 756 795 719 738 770 766 721 761 728 744 747 759 730 750 716 743 761 741 706 747 718 738 739 686 804 758 786 755 767 788 762 727 785 756 791 758 803 766 778 726 745 759 751 740 747 757 785 790 729 749 725 771 730 749 676 755 719 756 782 698 763 742 763 743 777 724 713 751 758 756 822 703 717 710 762 783 698 732 722 739 713 797 747 755 739 760 754 709 745 758 722 731 745 769 737 739 733 795 736 730 732 817 722 822 747 757 764 695 742 725 704 737 789 753 724 754 736 683 753 743 768 716 716 742 773 726 778 774 745 767 725 784 768 719 761 786 765 719 787 773 759 734 697 714 733 735 700 753 697 789 713 760 741 721 750 767 706 726 709 761 764 766 733 756 757 720 714 756 718 738 719 714 779 717 781 770 717 747 719 688 785 738 772 735 708 772 707 760 772 753 707 752 763 740 740 796 734 714 760 715 718 745 687 726 742 761 730 716 688 726 761 702 743 767 798 753 735 737 792 775 837 765 750 727 755 760 772 744 782 797 688 745 814 704 749 742 750 756 757 732 730 772 705 754 735 746 741 730 726 754 732 780 729 775 728 781 707 773 718 720 718 735 728 773 746 762 731 775 723 737 725 780 797 734 728 755 782 705 751 715 766 725 729 740 778 774 788 762 721 672 764 750 766 740 721 752 742 753 712 715 675 757 770 772 726 777 744 743 740 787 736 685 722 749 701 757 768 754 746 729 724 730 745 748 741 742 744 702 744 754 805 730 773 733 763 785 754 727 736 725 747 744 752 743 782 719 715 749 750 723 734 757 759 807 751 749 825 780 792 774 783 715 761 796 765 788 778 813 807 834 790 797 826 789 765 854 777 805 784 823 804 771 876 833 801 757 785 778 795 790 812 791 825 812 768 755 725 788 786 785 805 803 768 745 772 792 811 764 789 807 823 774 786 756 735 744 822 818 774 749 769 788 782 787 744 744 724 768 746 711 729 746 795 732 793 720 757 753 710 785 716 789 708 748 759 803 786 750 755 716 779 740 767 812 757 782 702 746 761 764 786 722 718 741 757 767 711 787 713 720 726 797 736 698 726 754 751 735 761 766 765 717 759 776 793 772 703 746 772 737 797 771 753 735 726 736 739 739 755 760 742 716 736 719 743 705 733 686 734 756 758 717 771 736 787 741 750 782 752 732 770 760 770 757 729 753 805 793 705 743 730 791 759 750 697 766 739 701 790 752 741 757 746 735 817 717 733 734 712 766 777 737 804 738 748 777 716 751 776 767 766 745 739 749 734 776 776 776 811 798 794 744 754 739 743 731 748 659 709 734 763 738 763 770 765 735 726 751 746 762 730 780 776 756 747 731 761 786 769 802 793 791 773 772 721 777 806 730 768 778 774 738 756 767 755 789 771 800 796 727 858 809 766 825 789 805 839 833 852 853 754 789 799 859 838 857 885 871 922 854 938 900 882 904 933 975 967 982 965 1031 1074 980 1056 1098 1062 1119 1128 1132 1143 1157 1136 1164 1138 1160 1221 1190 1155 1271 1176 1210 1139 1116 1151 1105 1110 1225 1143 1074 1133 1106 1068 1069 1087 1090 1060 1050 999 1013 1049 1040 1014 1000 1050 1041 1004 1052 1033 1014 963 981 944 907 919 906 874 871 913 868 839 882 795 887 834 803 811 775 827 783 820 852 799 818 751 805 789 752 790 789 760 788 783 781 790 757 830 769 756 764 805 793 792 749 792 827 794 794 755 779 806 733 772 755 785 761 773 754 803 779 770 784 814 775 770 792 795 753 817 796 744 740 756 746 780 761 772 778 783 760 708 803 769 790 716 767 786 807 720 722 738 786 758 777 746 777 782 800 779 757 772 789 757 730 760 766 753 798 831 777 786 763 787 789 776 754 786 799 767 745 771 764 779 753 799 785 773 717 760 787 785 825 753 786 792 799 755 789 841 819 786 791 779 777 795 803 802 820 759 825 764 827 841 824 783 818 791 793 759 734 728 765 810 776 726 800 716 791 804 771 727 771 737 745 753 730 765 769 770 768 794 679 737 764 747 770 805 753 795 770 758 781 764 770 797 763 733 746 769 743 749 764 759 731 780 729 773 740 742 723 736 723 698 728 747 766 791 651 807 744 730 725 761 762 728 743 771 704 724 766 755 736 746 755 741 772 790 764 734 748 758 756 779 735 755 771 741 703 748 716 684 789 701 766 769 741 740 792 770 727 802 758 737 761 748 794 676 758 766 747 799 815 764 732 783 770 753 703 708 727 714 768 729 765 749 741 762 743 778 754 757 766 747 703 788 744 746 761 747 738 749 750 775 713 732 780 721 748 735 725 761 740 740 766 761 721 787 745 727 740 796 715 775 756 746 710 713 744 724 772 806 767 759 698 766 762 771 725 748 721 739 703 740 736 746 760 730 704 782 736 764 718 720 777 805 707 740 734 725 736 688 755 796 742 703 760 746 789 764 698 752 700 750 760 741 695 735 715 762 738 783 719 824 775 742 740 752 707 763 731 781 788 712 740 731 767 776 736 764 749 736 745 728 741 712 744 735 780 730 756 736 741 715 731 701 705 726 720 804 756 777 741 715 732 706 738 793 711 735 742 731 755 736 749 701 777 734 708 704 725 733 731 775 735 783 723 735 728 740 742 764 739 721 722 756 734 744 693 752 683 708 750 745 742 764 709 750 693 741 736 717 766 757 763 765 735 746 716 706 748 786 783 780 727 742 743 711 786 775 740 751 714 718 773 747 708 747 721 653 788 697 720 768 749 771 730 771 734 733 764 747 733 766 671 750 703 708 727 775 720 721 736 729 769 761 775 717 714 699 759 792 728 688 728 738 721 718 744 742 754 768 740 736 752 735 734 798 751 756 788 741 751 718 749 726 757 784 745 753 763 734 734 761 797 756 733 717 759 722 728 767 794 749 768 790 779 798 758 802 803 743 762 804 783 852 815 837 821 839 788 841 807 828 838 848 824 850 859 811 845 821 794 843 884 814 793 866 880 868 845 867 840 855 840 905 806 860 846 837 785 850 852 832 884 858 773 843 823 852 828 876 810 821 799 804 860 784 845 837 849 865 847 808 821 882 861 810 806</counts>
			</dataPoints>
		</scan>
	</xrdMeasurement>
</xrdMeasurements>
