<?xml version="1.0"?>
<xrdMeasurements xmlns="http://www.xrdml.com/XRDMeasurement/2.3" xmlns:xsi="http://www.w3.org/2001/XMLSchema-instance" xsi:schemaLocation="http://www.xrdml.com/XRDMeasurement/2.3 http://www.xrdml.com/XRDMeasurement/2.3/XRDMeasurement.xsd" status="Completed" recordIdentifier="{10F0E565-D790-4A1B-9D4D-EA69549051E4}">
	<comment>
		<entry/>
	</comment>
	<sample type="To be analyzed">
		<id>GPSS_Li1p4Mg0p4Y0p6Cl4_112225_6921f967f4e53d1f72397d30</id>
		<name></name>
		<preparedBy></preparedBy>
	</sample>
	<xrdMeasurement measurementType="Scan" status="Completed" sampleMode="Reflection">
		<usedWavelength intended="K-Alpha 1">
			<kAlpha1 unit="Angstrom">1.5405980</kAlpha1>
			<kAlpha2 unit="Angstrom">1.5444260</kAlpha2>
			<kBeta unit="Angstrom">1.3922500</kBeta>
			<ratioKAlpha2KAlpha1>0.5000</ratioKAlpha2KAlpha1>
		</usedWavelength>
		<incidentBeamPath>
			<radius unit="mm">145.00</radius>
			<xRayTube id="1010048" name="Empyrean Cu LFF HR (9430 033 7310x)">
				<tension unit="kV">40.0</tension>
				<current unit="mA">15.0</current>
				<anodeMaterial>Cu</anodeMaterial>
				<focus type="Line">
					<length unit="mm">12.0</length>
					<width unit="mm">0.4</width>
					<takeOffAngle unit="deg">6.0</takeOffAngle>
				</focus>
			</xRayTube>
			<sollerSlit id="21010002" name="Soller slits 0.04 rad.">
				<opening unit="rad">0.0400</opening>
			</sollerSlit>
			<mask id="22031000" name="Fixed mask 13 mm">
				<width unit="mm">9.00</width>
			</mask>
			<divergenceSlit id="22120001" name="Divergence slit 1°" xsi:type="fixedDivergenceSlitType">
				<distanceToSample unit="mm">50.00</distanceToSample>
				<height unit="mm">1.52</height>
			</divergenceSlit>
		</incidentBeamPath>
		<sampleMovement xsi:type="spinningSampleMovementType">
			<spinnerRevolutionTime unit="seconds">1.0</spinnerRevolutionTime>
		</sampleMovement>
		<diffractedBeamPath>
			<radius unit="mm">145.00</radius>
			<antiScatterSlit id="22090040" name="AS slit 9 mm (PIXcel)" xsi:type="fixedAntiScatterSlitType">
				<height unit="mm">9.00</height>
			</antiScatterSlit>
			<sollerSlit id="21020003" name="Large Soller slits 0.04 rad.">
				<opening unit="rad">0.0400</opening>
			</sollerSlit>
			<filter id="20030001" name="Large beta-filter Nickel">
				<material>Ni</material>
				<thickness unit="mm">0.020</thickness>
			</filter>
			<detector id="7010019" name="PIXcel1D-Medipix3 detector" xsi:type="rtmsDetectorType">
				<phd unit="keV">
					<lowerLevel>4.02</lowerLevel>
					<upperLevel>11.27</upperLevel>
				</phd>
				<mode>Scanning</mode>
				<activeLength unit="deg">5.542</activeLength>
			</detector>
		</diffractedBeamPath>
		<scan appendNumber="0" mode="Continuous" scanAxis="Gonio" status="Completed">
			<header>
				<startTimeStamp>2025-11-25T09:56:11-08:00</startTimeStamp>
				<endTimeStamp>2025-11-25T10:04:18-08:00</endTimeStamp>
				<author>
					<name>AutomatedUser</name>
				</author>
				<source>
					<applicationSoftware version="1.7b (136)">PANalytical Aeris Instrument Suite</applicationSoftware>
					<instrumentControlSoftware version="3.2.00000000 20240306">AERIS</instrumentControlSoftware>
					<instrumentID>950485</instrumentID>
				</source>
			</header>
			<dataPoints>
				<positions axis="2Theta" unit="deg">
					<startPosition>10.00943322</startPosition>
					<endPosition>99.99442286</endPosition>
				</positions>
				<positions axis="Omega" unit="deg">
					<startPosition>5.00471661</startPosition>
					<endPosition>49.99721143</endPosition>
				</positions>
				<commonCountingTime unit="seconds">12.495</commonCountingTime>
				<counts unit="counts">2964 2915 2848 2999 2956 2928 2954 2892 2934 2994 2968 3044 2931 2919 2881 2892 2919 2962 2827 2972 2943 2893 2933 2909 2918 2843 2945 2869 2886 2925 2922 2801 2949 2986 2906 2928 2980 2927 2911 2979 2988 2885 3005 2991 2937 3046 2903 2920 2963 3019 2958 2899 2928 2991 2971 2976 2929 3080 3029 3027 2955 2937 2999 2931 2993 3002 2918 3129 3017 2942 2986 3071 2959 2984 2966 3000 3032 2964 3062 3012 2965 2961 2976 3045 3037 2995 2969 3070 3044 3024 3013 3001 3054 3120 3086 3007 2990 3054 3088 2995 3077 3183 2938 2915 3037 3056 3078 3077 3123 3047 3198 3034 3071 3081 3088 3055 3049 3175 3053 3032 3059 3016 3090 2960 3063 3033 3110 3128 3208 3123 3091 3045 3146 3014 3137 3024 3029 3110 3068 2909 3150 3109 3069 3128 3075 3118 3213 3116 3095 2994 3106 3098 3102 3082 3268 3122 3109 3135 3095 3184 3161 3021 3136 3105 3123 3117 3172 3202 3119 3127 3061 3062 3123 3144 3031 3084 3127 3116 3101 2993 3158 3085 3018 3058 3098 3140 3088 3171 3130 3100 2987 3075 3174 3016 3095 3083 3152 3040 3128 3064 3060 3073 3021 3122 3112 3073 3133 3017 3019 3135 3030 3023 3122 3077 3032 2948 3001 3220 2955 2950 2950 3101 3058 3012 2883 2915 2936 3004 2979 2974 2953 3081 2941 2999 3007 2954 2982 3009 2851 2951 3045 3073 3007 2904 2961 2928 2976 2884 2898 2966 2991 2817 2998 2851 2957 2966 2821 2907 2790 2991 2829 2965 2902 2917 2859 2961 2952 2858 2786 2993 2969 2902 2800 2925 2851 2965 2877 2907 2947 2834 2741 2944 2816 2880 2882 2945 2816 3031 3020 2924 2841 2945 2920 2917 2864 2806 3020 2895 2919 2973 2901 2952 2938 2987 2914 2801 2989 2774 2933 2936 2846 2851 2959 2924 2965 2818 2889 2947 2939 2997 2864 2947 2914 2857 2897 2874 2850 2854 2989 2914 2945 2931 2919 2963 2885 3010 2878 2960 2948 2929 3055 2978 3022 2951 2995 2978 2967 2933 2894 2945 2964 2975 2953 2969 3043 2902 3020 3059 3018 2973 2952 3059 2938 3014 3088 2992 3110 2979 3081 3118 3004 3045 3088 2964 3123 2985 3121 3120 3122 2962 3020 3076 3105 3121 3115 3047 3097 3068 3073 3101 3111 3141 3117 3111 3210 3076 3098 3132 3075 3203 3150 3168 3200 3178 3054 3144 3299 3095 3104 3145 3210 3158 3273 3201 3154 3139 3294 3265 3352 3213 3323 3225 3367 3354 3341 3315 3343 3393 3351 3273 3262 3391 3247 3319 3394 3318 3180 3357 3362 3295 3335 3213 3274 3237 3320 3379 3375 3359 3275 3270 3278 3287 3266 3238 3227 3265 3331 3353 3367 3254 3180 3270 3210 3249 3344 3296 3138 3299 3126 3214 3175 3182 3186 3121 3179 3099 3118 3290 3113 3129 3177 3118 3237 3086 3163 3211 3184 3157 3046 3113 3118 3102 3009 3065 3065 3088 3096 3031 3146 3029 3126 3136 3033 3158 3109 3147 3180 3171 3158 3122 3025 3189 3145 3177 3232 3284 3444 3410 3417 3508 3630 3601 3709 3799 3768 3761 3629 3679 3607 3747 3701 3696 3535 3473 3459 3463 3524 3395 3435 3491 3494 3373 3435 3532 3408 3566 3466 3695 3612 3491 3513 3453 3393 3413 3261 3428 3320 3367 3213 3261 3191 3341 3222 3285 3190 3229 3146 3162 3136 3116 3111 3076 3031 3002 2997 2994 2898 2929 2998 3010 2879 2780 2943 2875 2887 2941 2916 2778 2736 2829 2928 2857 2848 2847 2803 2879 2840 2818 2874 2776 2891 2806 2970 2834 2834 2806 2746 2756 2836 2794 2807 2764 2906 2851 2873 2861 2834 2749 2771 2765 2721 2690 2814 2791 2845 2689 2706 2758 2817 2691 2828 2721 2820 2699 2770 2872 2761 2900 2838 2874 2805 2805 2846 2868 2746 2854 3066 2846 2908 2962 3077 2982 3102 2997 3072 3168 3018 3096 3188 3106 3079 3276 3189 3223 3240 3201 3275 3153 3075 3160 3150 3143 3175 3120 3179 3066 3143 3264 3165 3192 3114 3315 3291 3476 3383 3464 3413 3529 3410 3391 3494 3406 3500 3487 3355 3351 3356 3338 3376 3366 3251 3162 3173 3094 3082 3013 3103 3091 3036 2919 2915 2902 2913 2933 2834 2932 2737 2769 2696 2663 2695 2786 2678 2678 2669 2786 2659 2656 2821 2708 2505 2630 2645 2721 2730 2656 2697 2610 2595 2679 2731 2677 2725 2694 2689 2680 2756 2732 2596 2691 2525 2603 2625 2673 2599 2606 2652 2588 2710 2642 2716 2647 2593 2626 2613 2734 2560 2613 2542 2695 2656 2597 2569 2537 2612 2629 2557 2566 2637 2619 2469 2611 2591 2585 2531 2598 2607 2636 2593 2535 2571 2577 2496 2624 2531 2603 2628 2568 2539 2583 2480 2485 2538 2634 2482 2575 2551 2651 2485 2587 2518 2569 2577 2551 2444 2611 2413 2541 2603 2480 2447 2566 2457 2456 2506 2597 2501 2444 2528 2531 2527 2492 2527 2498 2475 2558 2598 2488 2450 2485 2583 2454 2500 2531 2474 2564 2443 2481 2537 2514 2368 2454 2510 2513 2512 2534 2623 2515 2508 2371 2437 2512 2477 2422 2455 2477 2474 2412 2383 2474 2359 2447 2508 2431 2440 2508 2408 2496 2485 2391 2390 2387 2436 2383 2530 2425 2519 2501 2534 2446 2494 2416 2476 2477 2383 2401 2462 2475 2464 2524 2410 2470 2397 2445 2453 2396 2452 2412 2431 2457 2396 2411 2484 2424 2467 2415 2365 2422 2440 2404 2406 2481 2372 2555 2383 2337 2382 2525 2417 2321 2354 2522 2445 2334 2463 2348 2343 2418 2270 2361 2437 2353 2457 2414 2394 2433 2441 2445 2457 2458 2356 2466 2425 2281 2398 2298 2394 2365 2382 2401 2373 2394 2475 2428 2388 2395 2476 2314 2400 2310 2410 2349 2303 2465 2364 2379 2323 2369 2377 2390 2430 2438 2457 2411 2334 2290 2378 2412 2327 2353 2335 2342 2244 2360 2341 2303 2301 2416 2308 2358 2364 2395 2345 2438 2315 2390 2358 2251 2414 2355 2335 2369 2345 2433 2305 2346 2429 2321 2385 2334 2298 2293 2331 2297 2397 2432 2394 2388 2298 2374 2383 2404 2405 2369 2446 2406 2262 2370 2382 2320 2346 2435 2401 2322 2433 2326 2368 2308 2348 2375 2372 2340 2345 2203 2430 2379 2425 2358 2409 2468 2411 2393 2444 2380 2453 2447 2416 2454 2439 2336 2402 2462 2450 2486 2486 2363 2400 2496 2402 2449 2337 2423 2445 2392 2401 2406 2430 2496 2412 2455 2374 2381 2436 2361 2434 2359 2375 2415 2422 2341 2317 2417 2397 2265 2336 2409 2338 2416 2436 2332 2425 2439 2315 2357 2278 2351 2297 2272 2306 2379 2297 2260 2330 2366 2242 2304 2196 2268 2307 2400 2233 2343 2234 2328 2218 2301 2368 2224 2246 2312 2199 2277 2272 2332 2198 2307 2368 2229 2254 2348 2236 2213 2250 2161 2181 2232 2251 2251 2236 2272 2358 2247 2267 2163 2236 2284 2151 2183 2135 2248 2194 2239 2223 2139 2200 2192 2205 2160 2151 2152 2228 2090 2253 2244 2157 2102 2130 2135 2129 2103 2078 2157 2169 2118 2122 2195 2062 2127 2178 2143 2174 2174 2043 2125 1994 2142 2128 2116 2135 2138 2105 2015 2111 2036 2046 2072 2182 2025 2122 2074 2149 2119 2095 2001 2157 2181 2114 2201 2209 2281 2219 2309 2376 2385 2373 2428 2416 2377 2418 2515 2468 2478 2403 2452 2389 2354 2317 2286 2309 2284 2251 2234 2262 2296 2281 2249 2142 2263 2235 2223 2326 2186 2261 2272 2200 2275 2150 2168 2173 2226 2110 2073 2146 2033 2069 2065 2097 2087 2040 2050 1956 1995 2018 1964 1977 2008 1869 1978 1896 1889 1898 1870 1904 1775 1869 1924 1782 1882 1814 1897 1823 1890 1835 1751 1865 1780 1931 1826 1822 1795 1939 1740 1889 1821 1776 1845 1888 1815 1820 1830 1857 1841 1773 1786 1773 1695 1818 1750 1817 1798 1751 1781 1684 1711 1891 1703 1784 1802 1740 1771 1734 1748 1791 1789 1782 1730 1816 1697 1760 1801 1703 1804 1813 1784 1776 1671 1743 1792 1772 1759 1758 1749 1728 1785 1695 1733 1683 1766 1723 1737 1644 1833 1732 1753 1667 1746 1664 1691 1685 1739 1609 1738 1685 1793 1784 1805 1693 1738 1684 1675 1717 1765 1671 1745 1730 1783 1698 1759 1719 1739 1734 1716 1745 1742 1734 1671 1713 1823 1692 1743 1700 1765 1747 1733 1753 1714 1714 1718 1795 1695 1678 1736 1698 1734 1682 1754 1793 1798 1731 1806 1730 1741 1683 1714 1718 1846 1773 1832 1730 1743 1735 1717 1689 1661 1798 1805 1706 1748 1686 1821 1843 1752 1767 1780 1750 1723 1693 1737 1700 1781 1694 1672 1710 1711 1715 1691 1667 1757 1772 1820 1666 1721 1801 1751 1761 1728 1658 1717 1763 1805 1783 1787 1682 1764 1788 1825 1756 1729 1801 1855 1715 1813 1756 1746 1671 1802 1765 1679 1728 1753 1739 1726 1714 1699 1720 1868 1755 1790 1759 1741 1764 1786 1663 1655 1683 1652 1736 1777 1712 1772 1814 1654 1740 1697 1767 1739 1732 1783 1617 1754 1742 1736 1631 1725 1668 1665 1638 1681 1598 1727 1656 1674 1727 1679 1689 1676 1662 1634 1685 1657 1646 1639 1592 1615 1643 1622 1566 1634 1671 1625 1609 1598 1611 1640 1600 1587 1557 1625 1560 1658 1562 1588 1484 1596 1552 1513 1592 1601 1527 1507 1532 1551 1658 1550 1528 1474 1573 1500 1552 1566 1556 1565 1592 1501 1605 1539 1591 1465 1515 1563 1461 1481 1524 1539 1503 1478 1584 1508 1540 1474 1524 1526 1521 1480 1457 1457 1526 1539 1495 1490 1544 1478 1463 1459 1515 1374 1431 1477 1463 1477 1410 1484 1459 1502 1444 1439 1482 1504 1443 1472 1462 1388 1528 1429 1499 1457 1555 1492 1496 1475 1479 1449 1398 1467 1446 1417 1538 1398 1399 1438 1405 1387 1466 1454 1446 1426 1460 1339 1491 1452 1402 1427 1423 1510 1394 1502 1432 1446 1514 1480 1480 1489 1528 1498 1538 1608 1564 1604 1676 1626 1653 1716 1712 1706 1631 1751 1715 1674 1797 1756 1678 1704 1674 1670 1662 1576 1618 1646 1569 1664 1561 1690 1536 1680 1630 1710 1664 1608 1638 1631 1699 1602 1604 1551 1590 1605 1550 1541 1541 1512 1571 1471 1592 1481 1491 1462 1448 1444 1353 1521 1413 1362 1366 1404 1366 1322 1354 1379 1345 1377 1258 1271 1242 1285 1262 1262 1259 1330 1262 1306 1335 1278 1300 1320 1264 1285 1299 1251 1331 1261 1330 1276 1301 1302 1282 1356 1291 1265 1323 1297 1297 1308 1333 1296 1225 1345 1324 1405 1414 1435 1361 1510 1522 1613 1691 1756 1822 1928 1949 2122 2064 2197 2347 2204 2278 2140 2267 2157 2019 2081 1982 1921 1951 1857 1783 1839 1743 1740 1676 1674 1661 1661 1650 1635 1589 1618 1595 1667 1666 1617 1641 1635 1704 1629 1529 1549 1553 1459 1536 1557 1510 1370 1449 1384 1422 1371 1386 1312 1244 1316 1224 1243 1172 1264 1223 1239 1237 1202 1175 1177 1222 1164 1115 1140 1214 1190 1127 1142 1076 1154 1176 1138 1195 1111 1146 1149 1032 1122 1133 1110 1143 1139 1125 1128 1139 1201 1097 1147 1069 1133 1136 1137 1177 1110 1136 1100 1142 1109 1162 1033 1105 1171 1125 1121 1083 1059 1103 1119 1092 1152 1065 1113 1154 1078 1155 1095 1134 1053 1150 1126 1129 1085 1145 1045 1135 1123 1111 1120 1164 1115 1070 1119 1119 1065 1160 1115 1177 1171 1213 1195 1251 1303 1274 1303 1397 1425 1450 1535 1523 1706 1827 1820 2021 2194 2302 2542 2743 2874 3001 3197 3346 3283 3374 3310 3325 3250 3306 3077 3071 2979 2893 2725 2734 2629 2664 2605 2643 2616 2673 2765 2730 2715 2729 2900 2888 2843 2759 2850 2783 2661 2794 2768 2622 2526 2537 2451 2328 2238 2276 2182 2078 2062 1979 1923 1917 1751 1755 1710 1722 1695 1604 1492 1571 1488 1539 1531 1484 1483 1447 1388 1386 1334 1309 1322 1294 1303 1257 1245 1277 1247 1249 1262 1231 1285 1263 1262 1232 1276 1273 1085 1190 1172 1110 1146 1152 1186 1186 1093 1149 1070 1065 1091 1120 1052 1044 1158 1103 1096 1065 1090 1066 1021 1105 1031 1077 1000 1025 1018 999 1043 1011 945 1051 999 1008 986 1019 1020 1028 1032 1053 979 1009 1036 1056 1016 1102 1102 1024 1035 1081 1010 1015 1029 1039 1090 1031 1106 1047 1028 1010 1025 1032 1019 1045 1050 1028 1058 986 938 972 1017 979 1037 1075 1032 1023 1047 1006 999 1016 965 1008 1026 996 968 999 997 997 983 950 955 985 988 957 978 970 927 994 922 1004 987 975 1016 910 953 1035 987 939 994 936 1013 910 957 981 946 1007 930 973 942 1040 1010 963 1015 938 1025 1034 1027 1073 1066 1099 1105 1160 1214 1226 1330 1323 1375 1376 1493 1502 1483 1579 1484 1536 1480 1492 1496 1434 1439 1398 1419 1319 1368 1287 1301 1246 1284 1237 1212 1248 1254 1155 1153 1157 1160 1172 1170 1112 1130 1125 1120 1197 1105 1214 1088 1166 1148 1139 1163 1138 1073 1156 1147 1181 1195 1211 1268 1210 1343 1287 1300 1290 1265 1323 1298 1269 1328 1253 1335 1319 1243 1313 1322 1240 1215 1231 1187 1201 1185 1195 1200 1199 1211 1096 1164 1192 1162 1174 1141 1056 1052 1136 1149 1139 1078 1144 1084 1147 1044 1103 1064 1121 1025 997 1036 999 1032 1031 1005 1003 1061 996 987 970 924 928 928 873 999 920 956 952 881 904 912 899 912 968 849 916 840 897 856 901 850 863 903 857 907 856 919 928 881 913 820 863 918 937 874 908 850 892 895 900 953 918 874 887 909 904 886 850 882 920 834 859 928 881 845 904 918 905 873 869 846 848 888 838 861 802 829 843 857 797 847 867 933 897 873 826 840 885 869 879 900 885 888 922 830 844 821 823 837 897 839 862 833 833 848 895 847 869 868 878 835 849 796 903 877 889 841 875 843 814 789 812 838 782 835 819 876 842 871 842 829 853 779 827 899 838 835 826 855 842 825 837 822 804 873 822 877 848 851 837 891 870 856 873 847 858 880 876 982 939 1023 1004 967 996 970 1022 925 1005 1006 970 1005 939 1010 935 921 986 891 1014 1030 923 933 975 958 843 947 906 854 907 917 964 927 952 911 946 852 954 941 894 941 877 839 932 890 891 917 867 879 871 818 801 808 843 808 796 835 822 828 816 834 845 831 780 752 780 781 819 836 815 813 802 831 803 750 780 791 770 743 767 797 783 802 781 793 733 734 804 673 789 743 760 776 769 737 782 775 747 770 827 725 798 752 793 788 820 786 751 759 762 737 721 742 757 781 779 725 764 778 763 753 760 766 751 763 754 718 762 740 762 733 794 753 803 795 744 704 721 711 759 693 724 758 732 773 748 754 723 745 717 781 730 748 736 702 761 730 727 761 707 778 805 707 742 701 714 698 726 662 730 753 725 704 739 799 794 770 724 742 741 688 733 654 745 659 721 776 730 782 740 750 731 744 761 703 775 752 759 776 775 696 712 753 731 758 741 768 763 719 714 742 688 718 669 680 699 704 684 732 676 728 729 753 705 704 758 721 746 695 739 741 736 673 688 755 723 694 736 785 691 710 680 743 643 675 703 702 761 694 774 703 721 718 694 710 644 661 697 722 722 686 708 708 697 677 695 667 686 682 696 681 706 740 737 706 728 753 727 667 741 698 686 698 743 760 706 681 744 719 735 697 721 753 731 684 700 733 708 719 719 694 688 696 702 670 651 703 717 758 721 732 664 701 702 717 733 714 728 703 732 705 665 727 754 817 753 760 752 797 799 758 803 787 788 782 748 729 768 794 768 766 771 764 759 739 751 724 726 736 746 787 805 761 773 762 762 732 723 731 755 759 732 712 795 795 767 762 784 716 773 751 770 728 743 767 781 724 749 766 749 773 834 776 829 827 772 813 814 903 857 914 888 935 1014 1024 1173 1240 1236 1312 1429 1436 1569 1756 1793 1827 2018 2003 1972 1978 2056 2070 2124 2101 2160 2081 2252 2109 2087 1972 1967 1943 2070 1981 1993 1955 1860 1844 1851 1701 1694 1680 1609 1545 1484 1509 1425 1451 1493 1441 1435 1419 1344 1261 1232 1248 1151 1159 1211 1078 1088 1066 1074 1050 960 908 883 845 840 878 861 806 794 770 756 745 718 765 752 705 686 709 730 751 724 755 766 719 696 676 733 681 694 762 716 692 724 715 668 682 667 707 708 695 656 619 672 706 641 656 670 711 686 699 689 662 696 666 682 692 640 669 688 683 698 676 644 633 683 634 648 671 703 660 618 707 695 685 694 650 675 696 660 695 673 669 704 670 671 710 707 698 689 673 666 699 701 681 672 696 698 675 697 663 671 683 654 685 723 665 760 677 711 751 708 774 734 787 790 788 753 787 766 785 762 808 751 796 770 748 816 780 824 787 742 774 806 837 758 832 765 727 763 734 735 774 710 811 773 795 744 750 740 703 743 723 788 677 701 764 718 678 728 731 679 724 726 703 749 737 745 720 719 675 727 733 739 766 788 784 846 820 801 808 769 780 791 776 869 813 783 816 786 764 838 809 797 732 779 748 770 728 749 735 754 784 818 729 747 719 772 704 676 661 754 704 745 710 689 681 707 676 638 723 710 673 675 691 725 616 704 610 646 632 564 638 658 633 699 669 662 666 664 672 714 699 686 730 692 772 716 727 784 734 794 731 786 853 767 850 803 806 759 792 823 826 759 807 750 760 756 814 794 780 746 720 775 773 677 744 740 705 653 761 657 703 683 709 697 692 689 698 684 655 667 651 672 672 645 655 669 651 660 630 618 629 595 634 591 636 640 650 631 680 583 636 640 605 676 595 649 616 628 634 611 696 603 625 659 647 652 682 631 602 645 672 651 629 628 591 625 654 675 658 628 672 653 663 659 706 656 703 705 681 655 709 712 682 721 642 668 686 651 690 719 663 664 669 611 672 691 715 639 654 690 697 674 679 665 700 694 662 630 667 679 643 664 665 656 639 661 634 668 675 653 584 636 639 657 627 603 676 592 622 631 642 600 653 617 643 636 658 625 641 651 632 655 628 624 622 567 631 598 594 617 606 608 623 601 640 622 609 643 653 652 649 630 579 625 678 687 605 661 602 677 650 594 655 616 589 624 651 653 687 605 648 643 642 617 571 619 628 596 631 639 602 590 624 629 648 630 626 656 608 629 617 610 605 607 665 656 589 609 669 621 580 564 567 585 553 624 590 624 571 597 564 619 596 588 583 568 597 585 566 587 557 557 533 617 596 612 589 559 569 594 556 616 575 574 572 576 559 589 593 566 587 574 573 570 571 595 522 606 533 555 559 569 580 616 545 578 560 601 578 629 565 546 609 595 576 590 539 598 585 597 592 632 562 559 601 561 619 608 581 610 600 563 568 545 590 582 569 585 624 556 626 562 601 602 614 581 587 591 585 590 589 585 638 554 583 563 624 594 577 584 572 604 580 589 577 621 594 624 598 616 618 581 591 595 602 675 663 598 644 682 606 636 646 644 617 609 663 660 641 589 613 637 613 636 612 654 632 603 674 665 711 673 740 670 698 654 647 711 661 643 664 655 659 729 686 685 642 669 683 730 667 678 708 682 694 707 739 751 710 774 714 789 770 717 798 773 828 767 834 882 916 956 961 933 989 1075 1011 1129 1057 1118 1081 1104 1078 1112 1084 1127 1134 1187 1185 1234 1232 1224 1273 1306 1269 1298 1372 1381 1388 1331 1267 1195 1222 1147 1130 1109 1120 1125 1129 1168 1114 1061 1065 1013 987 909 941 908 861 918 839 900 815 820 772 824 842 816 771 854 883 860 859 822 857 854 846 881 832 830 855 869 807 889 834 878 823 844 845 803 853 912 847 871 812 826 756 805 856 792 785 787 758 772 840 745 708 772 727 713 729 661 782 695 720 714 701 716 705 666 610 662 594 619 642 622 644 632 656 662 650 594 643 564 619 604 624 582 566 648 592 610 634 567 608 550 553 618 540 620 548 565 587 605 554 564 596 534 561 539 569 573 552 544 597 546 545 523 587 583 559 606 570 550 525 594 603 569 552 541 600 568 544 536 571 550 590 575 566 528 489 563 548 549 559 551 542 490 530 520 525 554 555 576 544 559 580 520 560 537 508 522 553 550 543 524 513 549 573 520 554 563 567 551 562 534 529 556 568 550 571 560 544 567 523 523 519 562 513 543 531 558 603 574 567 556 532 524 532 570 581 578 556 534 503 525 544 560 564 546 526 550 551 563 526 568 528 512 523 521 554 546 537 520 555 549 533 550 518 551 511 554 520 554 520 553 565 564 612 593 636 552 649 596 641 635 682 649 636 622 637 702 705 727 689 679 696 697 663 654 690 656 659 694 694 683 685 683 680 691 657 661 666 684 670 607 689 639 668 596 635 646 625 670 630 691 635 619 629 632 660 626 616 615 620 605 622 571 660 550 563 623 543 575 518 564 600 600 592 561 554 571 585 535 555 595 576 564 548 565 564 591 552 597 569 600 557 573 557 586 601 626 626 626 621 657 679 699 695 704 717 706 727 709 752 719 742 728 659 733 710 790 761 710 683 731 706 648 748 731 664 664 609 681 624 573 651 617 645 608 593 628 584 633 620 594 615 573 556 596 567 578 554 552 542 547 594 534 557 550 511 549 557 509 553 541 549 524 512 556 532 569 536 529 534 528 573 572 559 608 635 640 626 613 677 597 656 671 729 705 684 687 649 664 725 655 738 710 718 714 768 745 766 757 759 762 703 819 791 755 774 787 771 773 776 739 714 766 720 744 757 700 701 650 670 671 673 634 593 650 618 617 559 600 620 563 557 523 560 550 565 628 541 544 487 508 496 502 543 499 510 502 512 515 490 497 533 505 457 525 516 497 475 515 496 496 497 487 545 499 477 508 522 522 556 486 482 475 505 489 475 511 536 545 490 521 481 509 533 545 475 487 514 542 478 512 525 511 516 569 490 549 529 574 553 579 570 551 570 548 578 514 494 521 544 534 523 517 540 541 534 548 552 561 521 525 487 504 511 532 502 504 495 514 493 451 522 545 509 484 533 473 513 459 506 467 505 482 517 489 450 453 489 493 465 446 475 492 466 493 483 491 469 531 459 472 458 444 452 415 525 461 506 468 478 471 475 456 491 461 478 460 462 458 462 486 445 461 407 486 507 498 484 516 464 489 477 498 526 439 491 427 476 481 476 452 503 478 460 487 444 449 500 454 494 476 442 530 457 462 451 438 442 469 464 478 503 463 514 461 465 495 473 437 450 485 474 491 491 474 469 475 457 451 511 517 472 467 446 447 496 458 464 451 478 467 515 461 461 468 480 493 462 478 483 435 505 491 437 469 475 485 429 468 480 454 517 433 443 452 456 445 409 416 456 465 423 479 475 482 492 493 479 492 476 518 467 466 472 463 479 483 474 451 501 495 464 500 485 539 486 530 502 536 512 565 555 544 519 535 553 488 551 532 557 512 552 578 507 499 545 586 496 538 498 536 490 512 519 542 474 460 533 509 535 512 486 471 461 475 481 465 476 476 502 522 523 467 454 486 447 500 501 524 439 476 476 424 483 450 497 448 442 483 472 501 495 471 486 479 457 475 483 483 475 472 476 473 477 463 507 523 536 489 512 538 459 527 491 543 542 536 524 557 505 515 552 515 514 510 521 528 467 471 503 515 520 543 518 560 517 538 456 498 549 507 497 477 537 444 511 461 471 511 499 452 504 484 479 511 499 533 492 458 529 451 549 529 526 503 494 557 549 550 516 540 530 544 545 564 543 505 560 578 549 543 566 530 555 517 563 560 517 532 519 524 537 555 541 564 566 547 552 515 568 538 522 546 551 585 585 542 558 550 603 544 576 542 546 629 586 584 539 594 602 570 561 555 571 580 582 609 596 599 564 643 570 570 579 588 605 585 576 564 589 563 562 535 570 545 575 587 557 553 520 510 580 555 598 563 545 488 544 560 534 519 549 527 513 521 504 519 495 579 557 522 506 497 551 510 575 486 480 509 499 474 493 538 535 473 499 538 497 494 498 556 548 504 520 505 495 533 487 532 490 500 511 469 463 473 478 493 517 424 491 439 495 462 501 503 507 454 526 474 465 442 453 453 464 474 476 463 448 452 436 428 459 484 486 461 440 451 462 496 445 422 430 405 431 407 443 474 414 381 428 420 402 423 419 469 428 414 464 455 461 497 453 430 429 427 452 458 414 468 455 436 423 437 464 442 449 434 434 430 419 426 445 424 414 418 422 438 396 452 445 390 436 408 419 444 425 445 417 460 455 471 463 409 444 482 446 483 433 432 514 481 480 456 473 503 507 458 507 563 536 534 577 568 592 581 646 518 635 648 699 664 700 731 701 691 698 705 661 676 629 636 677 613 651 648 648 618 648 636 634 674 618 616 569 568 578 569 599 567 561 524 530 553 560 488 550 486 492 500 496 484 486 547 490 491 499 508 452 472 469 485 469 488 485 434 460 440 451 456 463 434 426 442 471 429 436 467 449 454 453 462 460 469 516 422 498 430 447 468 473 432 487 468 447 463 419 387 508 438 442 463 460 433 440 473 472 470 439 438 415 388 431 438 372 505 441 411 444 388 404 419 410 435 412 404 431 425 403 424 422 409 430 410 448 419 414 439 444 424 422 414 407 464 412 446 423 427 414 418 432 469 395 391 419 455 429 433 387 406 423 426 471 394 405 458 449 456 482 471 437 436 402 420 479 409 445 380 410 415 424 399 432 384 440 425 394 400 442 413 435 375 382 403 412 452 427 414 446 441 375 446 398 415 387 431 448 443 377 417 432 428 441 427 437 405 420 425 463 465 446 420 457 447 457 439 480 460 461 491 443 470 425 444 448 461 498 502 440 484 451 433 433 423 449 445 437 436 396 433 424 466 331 441 414 410 439 448 431 409 407 432 378 422 411 417 431 418 391 442 437 381 458 403 425 414 440 410 375 392 384 389 417 377 407 389 393 397 420 417 399 450 430 366 465 383 404 420 419 384 369 416 411 433 400 429 437 424 408 421 441 363 431 417 447 398 392 412 436 418 408 423 405 407 395 421 428 382 453 465 421 476 430 464 466 434 488 427 407 448 439 436 436 422 402 436 424 426 436 414 407 429 433 412 454 421 443 473 417 443 437 420 468 421 507 468 486 470 488 496 510 513 532 501 544 552 537 519 554 543 515 545 535 536 512 580 541 526 551 497 546 563 556 557 556 551 559 537 568 525 538 486 492 474 488 502 464 505 507 492 466 489 471 459 445 442 479 411 427 454 416 453 413 460 414 408 407 403 417 396 412 400 435 430 424 377 375 438 406 383 446 398 375 361 399 426 422 437 440 388 398 448 372 419 339 400 424 376 422 410 398 429 406 414 379 392 387 383 425 409 439 373 397 421 398 457 379 407 376 397 426 425 435 394 385 417 430 398 390 437 407 437 423 434 391 411 391 423 387 436 386 422 378 404 369 404 425 386 405 420 390 392 415 409 462 402 439 459 454 433 392 411 459 381 455 416 436 430 410 438 426 431 435 414 417 426 421 390 452 458 462 431 415 390 403 412 428 402 408 409 431 434 428 428 453 430 418 414 420 410 391 412 406 436 398 387 397 403 398 397 397 429 408 431 420 445 406 419 387 406 411 423 399 423 416 424 440 448 420 451 466 473 471 442 445 496 456 462 529 471 471 462 447 444 498 451 454 454 449 447 441 457 511 407 431 449 418 464 424 456 437 468 457 461 432 408 443 433 428 396 436 417 415 376 436 404 428 409 436 402 406 420 416 376 408 397 367 402 390 359 393 375 375 372 377 368 375 395 412 416 368 387 371 372 407 368 365 414 421 415 404 429 430 401 394 393 364 404 415 383 398 410 399 407 408 380 400 394 382 391 395 374 410 381 391 404 417 384 389 437 425 346 427 354 401 357 386 367 418 380 397 346 404 397 390 389 356 408 382 400 410 402 410 420 416 411 405 403 434 361 376 399 385 383 393 440 385 439 403 424 437 449 426 376 404 390 422 406 443 374 403 411 433 439 443 398 421 398 422 405 419 429 431 419 375 429 433 393 422 389 432 364 388 407 444 422 403 408 381 413 417 399 395 397 434 408 369 375 394 397 390 412 373 393 353 368 381 385 373 399 397 365 370 402 341 397 395 359 391 363 402 373 404 378 381 378 376 383 361 395 415 352 375 400 352 375 373 366 388 359 358 370 356 428 409 404 403 393 356 400 379 377 386 349 414 361 397 384 375 352 399 379 405 393 401 375 425 391 385 370 448 357 429 392 431 406 383 438 398 381 393 405 390 400 413 432 385 403 418 429 435 396 441 397 447 409 424 428 414 463 441 409 419 426 437 442 410 415 446 431 403 408 435 405 424 397 416 414 399 408 404 369 402 369 391 382 389 376 411 432 390 375 383 388 381 414 379 371 360 393 411 393 349 363 364 400 346 386 380 385 391 418 411 411 387 373 414 401 392 412 404 398 372 426 384 400 392 418 410 431 371 440 387 425 428 425 399 397 393 393 379 404 426 374 441 409 441 390 364 411 335 391 360 433 428 439 432 375 396 364 345 399 370 413 402 413 396 381 371 405 374 359 384 358 414 392 399 392 362 411 383 403 408 377 398 389 375 398 433 412 408 368 395 426 382 383 385 389 370 435 416 413 386 369 398 384 399 404 378 389 427 403 403 374 389 357 373 422 402 368 385 383 378 336 391 401 359 348 380 356 410 427 372 351 424 390 349 359 368 393 362 400 353 365 374 332 364 332 383 360 373 370 386 385 393 382 389 350 390 369 354 374 390 420 376 372 377 398 388 391 361 422 348 380 351 371 400 321 347 354 416 348 409 398 377 337 388 359 350 368 363 365 412 367 381 388 379 343 403 374 382 379 414 426 405 404 389 381 416 367 381 346 360 405 421 401 378 411 416 418 371 462 376 399 443 402 397 403 409 355 402 372 400 389 391 388 401 370 412 370 385 377 418 404 374 380 397 379 334 391 364 412 425 380 447 358 404 340 393 347 375 368 378 367 327 371 366 396 365 371 394 372 358 387 377 398 405 386 401 434 394 375 361 366 371 403 377 395 425 406 422 406 404 403 408 462 421 417 405 424 429 411 432 387 447 421 438 385 388 394 397 394 443 409 432 425 384 459 405 423 384 400 385 413 404 396 395 440 385 390 424 440 356 390 413 401 384 402 463 405 430 427 405 381 419 374 386 415 430 401 387 377 390 395 377 467 429 439 463 468 427 434 463 457 454 485 479 460 489 436 430 498 475 435 463 492 444 478 481 498 480 457 474 422 420 455 435 431 408 422 439 455 466 443 435 426 424 436 414 420 457 397 414 426 404 381 365 353 430 365 385 396 407 357 412 434 417 433 389 382 399 359 395 364 407 392 364 407 384 420 398 406 384 362 386 397 388 397 400 351 376 381 410 391 359 354 406 360 374 421 384 401 376 425 378 364 381 345 365 391 362 396 374 400 367 383 376 403 389 382 438 375 356 372 376 355 391 346 374 346 375 368 433 353 406 376 362 416 371 386 347 380 375 357 339 317 382 380 395 380 383 374 339 376 371 395 380 362 357 383 363 368 379 349 382 385 358 394 344 388 389 358 381 387 375 399 332 372 380 352 389 324 353 369 370 374 359 381 370 433 387 372 428 402 408 366 349 354 410 356 395 426 414 401 370 398 408 400 369 395 372 357 364 377 343 414 384 413 389 410 430 410 398 393 421 393 417 414 420 415 406 409 421 405 412 395 406 438 416 442 445 431 421 411 412 452 399 419 406 419 421 421 423 419 437 364 381 387 417 399 379 411 426 418 420 374 370 375 388 386 391 366 382 369 366 388 380 412 403 398 389 397 364 411 394 409 402 423 458 416 407 381 381 408 368 345 367 370 384 347 332 381 414 355 406 388 391 388 361 355 387 404 379 396 395 417 400 396 403 368 432 416 399 379 384 397 419 395 407 370 388 411 353 376 376 411 360 400 367 356 368 428 390 397 374 402 364 397 408 420 389 411 376 421 387 408 387 359 405 382 335 390 420 403 380 364 367 363 401 390 386 419 364 424 442 346 359 421 389 388 423 422 415 403 382 390 382 359 382 361 393 409 399 385 379 381 379 422 406 380 381 400 400 367 427 365 419 395 446 416 418 413 383 385 385 448 391 405 422 412 383 408 446 350 415 435 444 402 456 416 431 405 464 422 448 456 483 441 464 450 487 460 450 478 521 520 466 557 521 505 534 536 525 527 549 553 562 514 551 526 531 506 508 528 494 532 521 477 483 511 508 515 530 475 483 473 502 448 451 473 466 469 479 441 519 417 407 466 466 492 438 446 459 441 456 430 440 489 382 483 417 474 399 523 396 418 412 402 429 398 397 428 431 446 425 439 422 423 432 398 413 370 444 424 373 416 385 426 443 404 398 393 405 368 426 395 389 431 389 412 433 424 408 369 446 347 379 355 354 401 394 390 392 377 381 387 383 398 392 360 405 395 393 444 408 358 401 404 409 417 404 397 396 398 391 401 398 384 408 386 421 441 401 389 344 365 396 402 398 411 372 403 357 412 399 409 429 410 420 388 394 405 419 426 443 452 379 423 404 419 388 408 380 424 397 399 429 416 407 390 460 435 435 456 459 442 463 461 512 457 431 498 473 502 462 494 524 529 507 507 542 523 472 469 475 556 546 488 524 496 541 498 530 525 490 504 489 481 520 449 481 423 484 486 494 446 509 476 489 481 464 465 481 461 456 483 398 459 474 447 464 418 491 449 466 426 451 462 448 438 427 459 413 456 450 428 444 424 426 400 460 468 418 440 451 458 480 428 458 439 432 439 434 399 450 405 408 415 411 416 380 421 403 419 420 410 409 418 389 405 367 394 399 398 404 439 411 435 383 381 391 411 418 388 396 401 412 350 379 386 423 363 426 364 385 415 358 377 387 379 381 353 348 383 388 376 347 353 377 360 361 370 388 367 400 369 384 365 411 345 380 351 358 412 364 369 356 370 390 354 379 363 388 379 372 408 413 394 387 436 351 379 358 382 351 386 339 358 341 367 364 376 323 352 397 376 371 374 390 340 362 370 386 381 353 358 385 372 404 374 344 387 352 351 346 344 354 380 377 370 401 379 350 381 361 369 408 363 371 387 329 386 393 404 383 391 392 368 370 398 377 353 352 375 371 373 372 400 364 366 404 386 375 386 385 414 395 392 410 352 389 388 411 391 348 383 362 365 369 358 357 375 404 370 352 357 392 376 435 377 427 368 354 349 409 402 388 333 361 370 379 362 387 390 406 380 383 425 419 391 356 370 362 420 405 403 412 380 379 370 355 439 385 355 398 371 389 361 396 384 404 362 387 390 426 377 419 403 413 395 391 402 426 418 410 410 412 409 431 451 434 414 448 434 458 466 458 457 419 449 462 459 450 459 455 466 474 495 476 452 436 463 439 476 455 495 462 431 478 512 501 454 499 480 537 470 460 489 453 419 443 422 427 487 475 419 435 404 443 430 439 437 425 412 452 462 455 381 434 403 390 408 402 418 405 408 389 433 404 378 392 419 372 375 383 417 373 357 369 395 369 379 344 374 376 313 366 396 370 364 388 353 335 376 357 355 386 343 356 398 379 384 341 368 357 369 354 401 367 364 378 395 388 340 367 359 374 363 418 371 361 348 390 385 400 391 354 362 348 397 409 380 416 391 370 403 399 391 415 389 384 386 418 369 380 351 375 408 386 396 390 395 387 422 408 389 362 384 341 360 362 392 377 401 412 353 395 358 377 350 330 389 328 371 412 331 378 372 387 398 384 373 330 322 319 356 356 373 376 352 364 343 384 356 352 346 340 375 346 350 382 386 326 349 381 357 344 373 336 374 336 323 332 349 352 376 392 361 362 351 345 386 368 367 326 351 310 329 344 347 379 397 361 386 354 373 353 345 351 339 338 326 320 343 361 376 315 347 332 330 366 326 352 359 376 304 333 342 324 388 348 348 338 349 329 367 369 367 351 377 339 332 374 390 379 360 381 366 329 362 320 382 404 366 320 360 354 365 384 369 315 381 344 372 357 378 377 377 358 428 358 337 359 357 373 329 347 341 343 389 368 390 378 372 348 382 382 367 351 347 366 390 347 349 373 369 337 342 359 322 377 340 331 366 387 360 342 366 354 354 391 357 327 363 317 376 364 364 344 360 347 304 347 387 352 346 375 368 303 399 330 392 371 385 380 359 348 368 364 392 311 372 341 376 309 362 363 340 329 371 347 341 377 353 342 369 365 361 334 312 363 324 361 333 343 359 402 338 377 327 374 378 360 380 358 373 313 360 361 342 334 341 354 341 370 392 345 415 321 354 369 337 373 362 346 344 377 323 361 343 334 401 363 355 349 328 370 339 313 348 342 372 327 373 380 377 353 382 355 379 347 339 352 336 366 369 358 339 357 359 382 352 396 379 357 410 352 405 360 351 361 363 380 389 354 353 379 371 396 404 361 387 378 408 376 426 397 424 362 423 419 416 454 414 450 384 430 418 429 379 462 460 449 435 396 477 481 406 501 433 491 450 504 502 524 484 473 512 493 512 573 546 596 540 600 599 609 572 566 622 583 607 583 634 623 574 588 615 592 612 550 591 591 587 544 555 525 529 555 516 525 508 517 450 523 540 487 486 524 494 518 486 494 440 490 465 400 417 450 425 442 409 416 420 425 392 392 359 404 383 363 397 393 378 374 335 351 367 377 401 376 382 364 362 352 379 372 358 430 323 369 366 346 392 381 366 330 340 379 358 380 367 408 338 377 375 356 376 380 376 322 374 362 357 363 356 375 382 338 367 341 380 379 380 370 390 367 362 393 375 371 381 391 377 366 371 352 374 382 393 405 379 408 364 370 408 370 391 403 376 391 368 403 335 414 385 360 430 377 366 371 354 370 423 400 402 408 373 347 399 377 343 364 364 393 371 371 383 380 361 344 415 391 413 364 358 363 369 355 392 387 351 393 360 375 376 349 385 380 359 324 386 369 384 365 337 370 350 378 367 375 383 367 383 381 383 385 376 360 376 366 376 345 375 379 381 376 362 348 374 367 384 391 359 323 356 333 418 346 363 335 329 337 346 366 373 342 335 341 346 339 356 336 326 341 380 357 326 328 359 360 335 360 365 366 338 351 315 337 346 323 349 327 319 343 352 324 325 354 337 316 384 327 339 354 349 360 348 353 334 328 359 324 335 344 325 374 348 356 333 372 341 318 336 308 336 346 357 319 364 328 351 346 349 395 327 342 348 313 311 362 342 349 354 319 347 343 392 356 374 361 313 352 371 322 349 348 376 378 343 339 348 349 338 356 343 352 338 376 322 347 375 373 364 352 387 388 374 343 355 357 364 369 378 374 335 381 398 363 392 335 375 363 355 374 341 366 374 330 352 361 364 366 382 352 380 375 356 350 364 380 383 346 378 353 323 356 341 329 370 346 367 337 351 368 357 358 368 388 322 399 370 353 355 338 347 357 340 341 354 341 348 340 302 336 360 355 357 354 356 316 351 338 322 343 356 349 302 349 331 350 361 340 355 345 311 334 330 356 317 305 301 322 285 301 347 329 332 339 329 334 355 345 326 310 350 309 308 305 344 294 318 342 331 294 342 361 316 324 296 335 316 345 326 340 322 298 355 322 330 320 333 316 332 296 305 323 322 355 314 333 346 301 321 333 345 335 330 368 325 343 320 328 320 302 336 302 348 346 342 279 362 322 368 291 366 334 312 330 328 332 317 338 345 303 355 336 341 360 326 322 327 327 281 323 328 301 322 321 337 291 367 351 315 310 257 353 324 334 328 318 283 344 341 346 309 324 343 323 290 322 335 334 335 302 319 322 349 339 355 363 336 354 353 319 321 318 348 335 325 319 335 326 325 317 367 328 326 320 346 351 349 319 348 332 284 309 365 319 322 332 309 312 367 337 361 343 324 328 312 376 359 351 357 323 326 338 314 350 341 301 359 330 268 309 319 322 303 318 322 293 303 339 328 309 322 328 357 288 331 329 332 333 316 349 336 332 337 358 339 332 332 328 329 318 363 325 328 333 317 334 308 359 320 333 322 291 344 321 345 319 334 321 305 313 304 337 303 338 345 299 336 344 317 337 310 337 314 323 307 329 338 310 333 322 337 325 359 343 348 342 370 370 359 294 345 304 313 313 359 317 318 375 312 314 333 403 319 315 315 285 350 263 370 303 344 324 311 349 354 345 314 325 311 355 325 348 352 359 349 341 371 290 342 289 284 316 352 339 311 314 356 356 320 333 316 317 320 335 325 343 320 318 326 314 346 314 318 344 324 345 355 321 333 329 341 294 333 340 318 329 338 358 373 342 357 360 379 324 373 358</counts>
			</dataPoints>
		</scan>
	</xrdMeasurement>
</xrdMeasurements>
