<?xml version="1.0"?>
<xrdMeasurements xmlns="http://www.xrdml.com/XRDMeasurement/2.3" xmlns:xsi="http://www.w3.org/2001/XMLSchema-instance" xsi:schemaLocation="http://www.xrdml.com/XRDMeasurement/2.3 http://www.xrdml.com/XRDMeasurement/2.3/XRDMeasurement.xsd" status="Completed" recordIdentifier="{729DA4B9-469A-4576-B6A8-5103F0ECF501}">
	<comment>
		<entry/>
	</comment>
	<sample type="To be analyzed">
		<id>GPSS_Li2MgCl4_111125_691433d647a6a0fd7c657727</id>
		<name></name>
		<preparedBy></preparedBy>
	</sample>
	<xrdMeasurement measurementType="Scan" status="Completed" sampleMode="Reflection">
		<usedWavelength intended="K-Alpha 1">
			<kAlpha1 unit="Angstrom">1.5405980</kAlpha1>
			<kAlpha2 unit="Angstrom">1.5444260</kAlpha2>
			<kBeta unit="Angstrom">1.3922500</kBeta>
			<ratioKAlpha2KAlpha1>0.5000</ratioKAlpha2KAlpha1>
		</usedWavelength>
		<incidentBeamPath>
			<radius unit="mm">145.00</radius>
			<xRayTube id="1010048" name="Empyrean Cu LFF HR (9430 033 7310x)">
				<tension unit="kV">40.0</tension>
				<current unit="mA">15.0</current>
				<anodeMaterial>Cu</anodeMaterial>
				<focus type="Line">
					<length unit="mm">12.0</length>
					<width unit="mm">0.4</width>
					<takeOffAngle unit="deg">6.0</takeOffAngle>
				</focus>
			</xRayTube>
			<sollerSlit id="21010002" name="Soller slits 0.04 rad.">
				<opening unit="rad">0.0400</opening>
			</sollerSlit>
			<mask id="22031000" name="Fixed mask 13 mm">
				<width unit="mm">9.00</width>
			</mask>
			<divergenceSlit id="22120001" name="Divergence slit 1°" xsi:type="fixedDivergenceSlitType">
				<distanceToSample unit="mm">50.00</distanceToSample>
				<height unit="mm">1.52</height>
			</divergenceSlit>
		</incidentBeamPath>
		<sampleMovement xsi:type="spinningSampleMovementType">
			<spinnerRevolutionTime unit="seconds">1.0</spinnerRevolutionTime>
		</sampleMovement>
		<diffractedBeamPath>
			<radius unit="mm">145.00</radius>
			<antiScatterSlit id="22090040" name="AS slit 9 mm (PIXcel)" xsi:type="fixedAntiScatterSlitType">
				<height unit="mm">9.00</height>
			</antiScatterSlit>
			<sollerSlit id="21020003" name="Large Soller slits 0.04 rad.">
				<opening unit="rad">0.0400</opening>
			</sollerSlit>
			<filter id="20030001" name="Large beta-filter Nickel">
				<material>Ni</material>
				<thickness unit="mm">0.020</thickness>
			</filter>
			<detector id="7010019" name="PIXcel1D-Medipix3 detector" xsi:type="rtmsDetectorType">
				<phd unit="keV">
					<lowerLevel>4.02</lowerLevel>
					<upperLevel>11.27</upperLevel>
				</phd>
				<mode>Scanning</mode>
				<activeLength unit="deg">5.542</activeLength>
			</detector>
		</diffractedBeamPath>
		<scan appendNumber="0" mode="Continuous" scanAxis="Gonio" status="Completed">
			<header>
				<startTimeStamp>2025-11-13T16:01:37-08:00</startTimeStamp>
				<endTimeStamp>2025-11-13T16:09:44-08:00</endTimeStamp>
				<author>
					<name>AutomatedUser</name>
				</author>
				<source>
					<applicationSoftware version="1.7b (136)">PANalytical Aeris Instrument Suite</applicationSoftware>
					<instrumentControlSoftware version="3.2.00000000 20240306">AERIS</instrumentControlSoftware>
					<instrumentID>950485</instrumentID>
				</source>
			</header>
			<dataPoints>
				<positions axis="2Theta" unit="deg">
					<startPosition>10.00943322</startPosition>
					<endPosition>99.99442286</endPosition>
				</positions>
				<positions axis="Omega" unit="deg">
					<startPosition>5.00471661</startPosition>
					<endPosition>49.99721143</endPosition>
				</positions>
				<commonCountingTime unit="seconds">12.495</commonCountingTime>
				<counts unit="counts">2596 2628 2504 2591 2546 2651 2644 2498 2591 2608 2524 2538 2609 2548 2522 2622 2611 2512 2556 2548 2578 2668 2635 2710 2656 2636 2608 2595 2576 2540 2580 2549 2520 2566 2580 2652 2670 2662 2511 2473 2708 2607 2640 2709 2495 2596 2722 2602 2597 2728 2611 2650 2527 2648 2703 2700 2553 2513 2777 2596 2660 2609 2655 2605 2693 2701 2682 2750 2631 2655 2708 2508 2724 2638 2640 2703 2740 2667 2628 2671 2657 2675 2604 2769 2666 2600 2704 2681 2598 2707 2627 2728 2655 2640 2717 2587 2686 2649 2713 2677 2661 2756 2608 2638 2673 2704 2702 2677 2691 2816 2672 2694 2713 2689 2624 2747 2770 2760 2788 2677 2755 2690 2807 2773 2720 2589 2687 2669 2761 2640 2788 2793 2751 2661 2728 2705 2697 2738 2808 2737 2859 2815 2726 2700 2699 2844 2753 2645 2757 2811 2772 2830 2731 2677 2741 2690 2702 2794 2694 2684 2712 2746 2800 2709 2711 2814 2691 2702 2767 2707 2737 2792 2698 2740 2781 2686 2713 2716 2608 2815 2780 2814 2641 2774 2716 2800 2800 2726 2731 2681 2659 2626 2738 2779 2781 2654 2657 2643 2742 2727 2664 2777 2649 2607 2621 2702 2704 2615 2703 2714 2622 2699 2653 2719 2808 2589 2536 2564 2715 2648 2637 2549 2728 2669 2606 2666 2605 2577 2561 2658 2684 2663 2602 2604 2523 2481 2584 2532 2552 2585 2513 2582 2607 2663 2534 2547 2497 2551 2616 2587 2476 2554 2572 2500 2500 2577 2550 2460 2522 2608 2414 2554 2527 2594 2499 2555 2531 2532 2514 2451 2512 2497 2531 2460 2498 2598 2521 2584 2575 2459 2483 2485 2575 2440 2554 2513 2529 2567 2452 2509 2423 2560 2522 2396 2437 2452 2465 2508 2494 2496 2521 2526 2539 2399 2474 2508 2475 2541 2469 2463 2491 2472 2473 2435 2537 2568 2509 2580 2519 2479 2473 2533 2568 2607 2461 2502 2546 2575 2597 2556 2535 2632 2504 2582 2440 2550 2667 2534 2652 2522 2592 2552 2534 2531 2666 2510 2598 2476 2571 2584 2543 2556 2491 2523 2499 2608 2622 2591 2618 2573 2585 2597 2702 2686 2596 2670 2581 2692 2610 2621 2543 2704 2639 2551 2677 2575 2691 2801 2708 2641 2654 2811 2666 2790 2704 2698 2747 2712 2722 2612 2714 2691 2762 2741 2633 2697 2652 2822 2695 2754 2755 2872 2781 2766 2796 2809 2745 2856 2800 2844 2733 2776 2806 2861 2729 2818 2755 2788 2787 2870 2875 2689 2796 2835 2894 2867 2867 2887 3013 2823 2872 2880 2856 2876 2872 2997 2829 3022 2989 3034 3003 2967 3011 2949 2984 3136 3092 3091 3066 3103 3105 3162 3054 3169 3163 3161 3229 3263 3260 3424 3451 3366 3321 3469 3610 3659 3578 3643 3640 3763 3710 3734 3801 3745 3663 3703 3733 3710 3638 3699 3616 3799 3754 3653 3724 3775 3668 3694 3680 3661 3750 3643 3722 3692 3612 3617 3534 3581 3462 3549 3363 3421 3267 3267 3164 3113 3086 3112 2970 2925 2996 2990 2973 3052 3003 2878 2993 2924 2876 2932 2920 2936 2870 2919 2845 2892 2879 2840 2831 2797 2741 2823 2776 2735 2804 2757 2682 2738 2737 2765 2775 2721 2723 2705 2719 2677 2766 2601 2768 2746 2763 2811 2608 2756 2706 2605 2604 2596 2526 2601 2648 2651 2719 2637 2593 2612 2633 2590 2569 2587 2633 2549 2601 2572 2543 2579 2503 2612 2614 2519 2592 2552 2645 2473 2419 2580 2480 2506 2591 2574 2532 2542 2532 2513 2435 2538 2578 2553 2385 2559 2399 2410 2461 2501 2504 2503 2469 2373 2448 2470 2461 2461 2483 2414 2438 2536 2436 2455 2455 2469 2441 2510 2418 2345 2404 2446 2339 2466 2477 2405 2528 2431 2490 2539 2389 2350 2352 2343 2376 2381 2370 2421 2437 2419 2392 2317 2434 2398 2413 2275 2397 2490 2410 2379 2373 2365 2375 2362 2275 2352 2433 2352 2344 2421 2361 2330 2414 2390 2502 2371 2368 2358 2404 2353 2313 2308 2392 2276 2347 2255 2288 2331 2354 2317 2288 2290 2356 2323 2284 2338 2331 2353 2349 2200 2281 2336 2310 2311 2379 2386 2283 2242 2338 2297 2363 2290 2148 2304 2347 2244 2257 2249 2306 2236 2326 2206 2194 2226 2239 2291 2319 2227 2285 2266 2222 2184 2267 2342 2232 2263 2245 2203 2344 2268 2374 2255 2209 2302 2189 2303 2283 2328 2321 2240 2303 2221 2155 2155 2190 2294 2250 2240 2277 2358 2186 2208 2230 2253 2250 2243 2212 2141 2248 2199 2240 2310 2230 2200 2209 2223 2151 2207 2180 2277 2285 2283 2300 2234 2240 2158 2168 2212 2274 2221 2209 2244 2308 2228 2238 2156 2328 2235 2262 2111 2203 2232 2280 2243 2165 2276 2163 2092 2203 2110 2240 2094 2184 2284 2164 2192 2251 2203 2160 2227 2191 2099 2161 2190 2136 2170 2183 2117 2189 2245 2116 2187 2152 2145 2231 2149 2150 2145 2107 2118 2176 2157 2147 2144 2152 2181 2166 2149 2188 2209 2149 2208 2133 2198 2101 2214 2138 2163 2098 2044 2071 2092 2113 2149 2145 2143 2090 2283 2160 2176 2113 2099 2224 2101 2199 2123 2125 2157 2117 2229 2137 2075 2219 2124 2115 2175 2128 2110 2079 2072 2105 2107 2086 2086 2143 2048 2134 2196 2180 2102 2115 2147 2053 2132 2097 2031 2106 2097 2098 2217 2078 2135 2085 2064 2083 2066 2053 2101 2067 2075 2105 2059 2134 2027 2127 2027 2016 2095 2090 1984 2057 2113 2019 2082 2069 1981 2022 1993 2071 2063 1941 1994 2052 2133 2066 2032 2031 1954 1966 2035 2048 2057 1969 2052 1985 2076 2060 2013 2031 2126 2021 2051 1986 1971 2025 2009 2019 1967 2030 2011 2017 1929 1967 2012 2060 1982 1962 1947 1989 2006 1978 1937 2046 1947 1991 1986 1991 1993 1927 1970 1947 2013 2041 1859 2054 2011 1953 2046 2044 1949 1963 1998 1905 1926 1995 1959 1924 1982 1999 1941 1966 2027 1933 1986 1966 2034 1993 1984 2071 1909 1953 1922 1974 1965 2005 2012 1897 1933 1957 2003 1948 1933 2024 2048 1881 1981 1945 1909 2014 1957 1955 1957 1898 1973 1922 1833 2006 1958 1949 2013 2007 1877 2008 1973 2016 1981 1899 1940 1973 1903 1870 1986 2008 2000 1914 1980 1983 1927 1960 1938 1901 2022 1926 1970 1994 1983 1928 2005 1921 1931 2000 1926 2027 1916 1974 1976 1862 1970 1900 1951 1960 2012 1928 1948 1993 1915 1939 1927 1893 1983 1950 1933 1907 2031 1979 1927 2001 2026 1929 1993 1865 2053 1923 2012 1935 1928 1955 1907 1915 1951 1929 1982 1933 1915 1893 1936 1962 1981 1976 1930 1927 1871 1971 1954 2013 1990 1983 2056 1957 1909 1924 1933 1921 1932 1921 1967 1971 1910 1983 1989 1964 1917 1932 1950 1953 1835 1889 1947 1967 1920 1886 1850 1827 1981 1870 1869 1902 1896 1814 1902 1907 1925 1880 1806 1842 1910 1956 1821 1882 1873 1877 1826 1854 1783 1848 1827 1826 1886 1894 1848 1824 1853 1817 1848 1721 1883 1779 1757 1753 1804 1836 1752 1867 1767 1785 1788 1740 1740 1682 1752 1726 1821 1806 1763 1795 1698 1707 1691 1818 1772 1846 1744 1762 1734 1731 1731 1738 1708 1742 1755 1771 1659 1705 1633 1616 1709 1732 1711 1614 1740 1681 1646 1697 1646 1579 1739 1617 1648 1612 1638 1689 1630 1632 1610 1707 1678 1583 1616 1624 1612 1628 1607 1655 1623 1637 1591 1585 1615 1556 1633 1670 1571 1586 1534 1537 1599 1606 1587 1608 1507 1523 1474 1611 1585 1595 1556 1553 1515 1510 1496 1465 1526 1519 1564 1555 1465 1512 1439 1467 1484 1516 1507 1564 1496 1544 1556 1453 1503 1466 1526 1517 1434 1508 1463 1469 1510 1467 1448 1502 1445 1460 1451 1435 1436 1457 1489 1507 1432 1464 1495 1400 1482 1412 1429 1465 1548 1431 1428 1427 1478 1466 1509 1411 1409 1490 1362 1494 1444 1452 1436 1417 1413 1474 1386 1386 1409 1363 1415 1449 1407 1472 1474 1425 1446 1438 1394 1425 1348 1412 1382 1414 1375 1375 1409 1347 1390 1438 1410 1382 1312 1354 1424 1391 1402 1378 1339 1402 1374 1383 1371 1379 1352 1341 1362 1391 1412 1352 1378 1369 1372 1385 1294 1327 1358 1354 1355 1372 1413 1345 1355 1417 1389 1409 1413 1385 1328 1297 1433 1376 1374 1401 1343 1353 1366 1387 1409 1351 1362 1375 1348 1333 1402 1451 1358 1398 1400 1386 1370 1436 1321 1379 1404 1368 1316 1360 1423 1357 1377 1365 1390 1422 1434 1344 1301 1389 1385 1357 1358 1362 1312 1394 1413 1350 1325 1345 1311 1351 1379 1354 1395 1358 1376 1372 1330 1388 1360 1337 1386 1385 1351 1413 1385 1404 1364 1356 1286 1424 1322 1403 1302 1286 1336 1368 1314 1349 1407 1351 1360 1264 1398 1366 1460 1415 1341 1383 1374 1375 1436 1355 1443 1331 1323 1406 1348 1428 1341 1325 1407 1375 1323 1424 1289 1375 1373 1321 1382 1368 1374 1370 1307 1338 1398 1384 1427 1359 1368 1350 1347 1345 1347 1379 1291 1355 1420 1393 1378 1321 1329 1358 1384 1359 1319 1318 1300 1345 1289 1394 1311 1306 1323 1360 1284 1286 1358 1266 1338 1347 1337 1356 1330 1368 1336 1351 1303 1363 1358 1293 1333 1337 1243 1381 1335 1249 1359 1328 1291 1263 1334 1311 1307 1292 1278 1231 1252 1324 1319 1261 1341 1296 1244 1278 1264 1339 1247 1281 1263 1249 1210 1194 1286 1202 1245 1274 1257 1208 1261 1246 1236 1195 1219 1136 1213 1155 1182 1176 1214 1158 1169 1114 1181 1224 1159 1230 1150 1160 1195 1186 1189 1200 1171 1185 1117 1125 1163 1186 1129 1171 1138 1189 1137 1134 1130 1154 1142 1128 1103 1167 1142 1184 1139 1140 1135 1126 1143 1126 1045 1035 1071 1061 1112 1179 1137 1101 1044 1091 1122 1047 1151 1125 1142 1078 1110 1086 1080 1025 1100 1128 1057 1029 1103 1060 1137 1062 1088 1043 1040 1140 1078 1136 1090 1093 1025 1078 1048 1100 1048 1117 993 1106 1084 1117 1136 1107 1109 1187 1157 1229 1194 1148 1184 1159 1182 1191 1248 1199 1244 1262 1318 1211 1268 1352 1348 1314 1345 1373 1384 1339 1386 1448 1294 1259 1319 1296 1320 1289 1305 1301 1249 1253 1258 1275 1321 1234 1319 1265 1268 1216 1262 1197 1259 1196 1177 1161 1148 1160 1162 1070 1117 1122 1057 1118 1028 1048 971 1001 1033 1034 1082 1024 1101 1016 1033 1023 1010 1063 1086 1035 1032 1049 1001 1043 1057 1012 1086 1113 1076 1069 1097 1108 1177 1097 1187 1098 1144 1142 1175 1177 1187 1143 1207 1202 1214 1247 1220 1235 1281 1323 1383 1419 1410 1563 1565 1634 1761 1778 1948 2001 2135 2225 2445 2616 2849 2977 3059 3199 3282 3448 3530 3900 4022 4199 4514 4793 5070 5386 5511 5797 6136 6195 6586 6627 6953 6822 6941 6855 6707 6791 6701 6549 6454 6711 6402 6440 6297 6372 6595 6396 6358 6418 6401 6275 6204 6251 6164 6157 6152 6122 5989 5793 5476 5175 4853 4437 4290 3930 3655 3412 3082 2880 2668 2433 2257 2147 2109 1967 1909 1694 1822 1732 1737 1765 1638 1695 1582 1720 1657 1554 1666 1682 1596 1559 1562 1599 1567 1380 1365 1363 1348 1281 1247 1233 1194 1105 1136 1102 1078 992 960 962 1014 902 945 933 880 927 892 878 914 911 868 922 845 861 853 806 817 823 815 821 802 856 906 806 904 846 822 756 892 785 899 856 852 843 856 819 808 850 812 809 798 863 749 793 827 829 792 794 812 793 803 857 804 810 797 768 785 865 751 777 869 756 848 754 816 842 732 826 738 839 727 765 763 741 786 754 724 758 767 806 764 749 724 736 760 737 715 790 758 769 764 750 733 763 780 828 758 750 732 749 739 751 768 731 721 740 737 736 795 732 750 760 681 710 798 753 767 729 781 722 748 769 693 728 741 765 741 742 779 723 765 776 745 722 743 735 778 687 761 780 715 728 750 724 702 710 717 679 678 723 715 713 697 772 658 763 749 708 738 762 693 725 733 664 725 701 695 709 671 678 755 726 736 754 691 698 725 694 731 679 771 689 705 707 736 697 684 721 660 671 740 793 683 703 678 721 740 756 703 712 757 672 746 711 671 699 723 712 751 694 740 689 727 711 705 662 698 699 691 632 695 695 713 665 678 704 709 687 685 668 643 695 659 697 667 719 670 712 683 705 625 720 696 701 681 715 691 704 718 676 654 722 674 766 660 735 718 704 761 737 722 719 690 729 690 697 733 689 747 710 738 738 736 742 765 695 746 754 747 727 735 733 739 666 756 742 757 739 722 762 735 763 759 749 736 826 782 780 785 745 838 761 811 804 816 803 862 878 923 891 917 1023 949 1008 993 1015 1012 1050 1070 1092 1085 1199 1191 1184 1243 1392 1395 1584 1626 1829 1962 2078 2269 2420 2665 2893 3068 3237 3359 3522 3726 3983 4216 4323 4668 4857 5215 5315 5661 5761 6054 6450 6666 7008 7299 7453 7503 7671 7458 7655 7547 7382 7166 7142 6961 6790 6624 6508 6340 6300 6253 6072 6208 5947 6227 6054 6138 5871 6011 5970 5934 5544 5633 5294 5143 4966 4647 4417 4143 3757 3584 3227 3157 2964 2776 2540 2373 2270 2180 2058 1981 1918 1870 1777 1743 1732 1694 1623 1528 1627 1569 1532 1572 1463 1442 1409 1404 1371 1409 1349 1261 1334 1246 1274 1212 1083 1121 1104 1019 1034 1050 965 943 961 929 831 910 856 852 827 754 741 753 738 702 741 761 704 718 697 647 718 668 693 675 667 662 657 646 639 624 673 691 642 582 615 646 637 650 607 620 642 624 675 640 657 608 603 571 638 635 639 616 616 607 733 636 586 598 621 638 643 600 610 663 617 578 648 636 604 608 540 610 555 597 587 621 651 589 641 628 606 614 592 571 567 601 634 571 607 596 589 618 590 614 593 563 596 594 617 586 604 547 630 596 612 569 586 674 587 562 666 616 592 606 590 601 590 580 608 611 650 552 610 575 611 597 616 593 572 610 587 570 537 567 579 578 610 607 582 580 562 615 555 580 534 571 550 574 597 604 608 520 588 531 592 541 539 541 560 589 548 536 536 563 602 604 611 601 613 598 571 516 547 555 566 538 577 538 550 577 548 520 550 536 508 577 542 574 566 550 591 576 582 564 546 582 528 554 553 527 509 566 572 584 559 601 544 565 547 579 586 559 552 533 546 581 567 585 533 565 544 502 519 560 522 595 524 531 546 515 574 581 554 540 557 581 505 553 580 558 492 495 533 511 497 507 559 556 564 520 531 560 521 498 534 544 534 562 529 514 544 546 535 540 452 563 535 512 521 526 525 518 449 508 499 530 544 495 523 521 454 538 509 509 537 545 503 510 583 496 503 501 448 521 506 549 517 504 517 538 512 479 509 479 526 492 499 510 520 489 484 493 498 521 550 546 516 510 541 482 487 471 480 499 497 509 544 456 530 514 489 480 502 478 514 477 491 489 512 499 487 478 504 480 471 504 505 511 482 536 502 507 529 520 490 468 469 512 486 498 518 505 497 525 462 492 469 483 467 452 494 479 506 463 487 472 450 484 488 478 494 449 508 462 477 497 458 494 485 494 482 425 448 467 461 480 445 491 540 464 488 478 478 463 492 482 418 475 464 482 469 471 506 494 465 439 465 466 503 496 456 477 466 483 460 503 483 457 471 515 480 481 484 451 453 432 461 451 507 471 510 476 469 457 479 497 472 471 474 444 500 455 494 444 488 467 458 457 494 468 451 476 437 478 454 460 470 474 454 470 460 502 480 458 486 433 471 470 481 465 460 475 427 475 498 494 404 450 432 467 485 516 481 460 452 451 471 492 462 445 438 447 462 478 440 467 478 464 450 445 467 430 460 449 421 450 492 452 457 461 445 454 442 492 452 488 433 491 500 452 462 462 466 446 457 432 473 459 474 425 501 456 407 462 451 443 442 429 462 435 431 451 408 462 488 462 465 436 451 433 445 439 464 446 459 439 472 485 433 422 445 481 417 434 448 425 415 469 449 435 425 410 497 446 469 442 462 423 503 417 426 450 444 455 455 484 432 479 460 470 426 422 460 417 453 461 413 414 455 419 416 441 491 423 461 459 463 439 431 456 444 429 443 447 460 447 477 446 412 454 435 424 422 446 405 421 400 420 452 428 435 461 385 414 413 440 414 415 442 411 455 402 430 413 438 461 409 448 465 422 435 411 416 469 473 416 440 454 431 441 427 459 435 435 456 416 443 425 429 461 447 414 450 468 490 481 402 450 475 445 444 466 486 495 418 463 446 458 496 444 492 474 448 507 468 494 482 490 447 457 441 467 496 470 466 500 449 494 448 468 447 467 483 433 430 462 409 446 467 460 444 403 438 468 469 473 442 435 420 427 422 433 444 470 484 453 406 434 411 441 453 410 427 427 390 427 419 410 427 393 439 405 441 421 466 423 460 428 395 447 407 427 407 392 402 420 444 435 414 435 397 444 449 415 417 420 389 453 422 436 438 434 418 419 437 448 418 433 435 444 398 430 388 422 441 415 385 435 445 423 413 414 424 400 424 403 389 427 428 440 432 443 425 397 439 406 413 441 459 410 420 447 426 423 423 459 450 400 437 443 422 436 433 402 407 401 421 427 395 420 447 458 421 427 474 418 400 444 427 390 436 420 436 401 399 446 431 425 409 423 412 444 408 417 470 454 456 481 468 501 467 502 463 463 526 512 531 589 525 591 574 623 633 708 687 686 707 761 779 762 806 801 823 839 828 847 869 867 954 922 941 935 962 1012 1025 1042 1063 1032 1038 994 987 1023 992 1006 991 912 941 957 975 918 978 918 921 900 854 812 814 829 802 867 751 771 729 765 726 750 674 684 671 599 548 570 551 519 521 538 540 495 479 462 520 456 486 438 458 432 412 458 434 426 430 438 475 396 404 441 429 443 411 381 422 416 437 445 426 415 444 419 384 400 408 391 397 484 454 434 397 464 428 402 395 409 434 406 377 426 423 437 401 404 412 403 404 403 443 427 407 446 424 423 430 385 411 414 395 378 389 402 360 399 373 394 409 402 405 394 375 398 410 391 410 404 410 385 396 388 378 354 413 413 408 403 377 430 425 413 382 352 415 363 383 367 408 355 396 389 372 360 392 396 392 418 372 415 363 366 384 377 395 404 373 379 401 400 343 400 362 382 374 414 418 368 403 385 365 384 386 405 396 374 377 383 376 411 407 385 411 378 374 390 377 398 433 355 402 382 364 376 379 376 384 371 383 384 370 375 393 400 385 380 358 392 373 413 422 396 440 409 373 398 396 461 403 414 367 375 411 397 426 402 405 430 422 407 422 399 424 421 391 411 385 434 401 411 405 392 417 389 389 400 376 449 415 375 431 438 377 397 451 457 420 427 397 431 375 396 422 416 404 423 391 379 414 384 396 475 451 449 404 432 421 435 406 413 432 443 426 446 408 421 410 423 428 466 439 449 437 446 441 383 396 432 451 423 440 388 441 459 437 442 415 423 413 423 439 414 448 445 431 396 440 427 430 455 444 454 471 469 448 484 436 458 512 496 535 562 528 508 577 527 568 608 594 626 644 642 673 715 724 675 784 760 850 918 919 1040 1103 1191 1285 1367 1421 1656 1807 2024 2127 2228 2342 2473 2618 2607 2726 2958 3096 3118 3435 3494 3596 3720 3818 3918 3931 4086 4340 4305 4414 4589 4662 4653 4685 4504 4433 4446 4351 4254 4149 4165 4177 4055 4009 3915 3804 3728 3760 3653 3687 3606 3480 3398 3269 3110 3017 3042 2917 2761 2577 2506 2435 2362 2100 2065 1796 1832 1747 1623 1553 1437 1376 1348 1287 1224 1201 1096 1044 1034 977 949 1002 977 934 903 973 938 879 977 949 923 904 903 910 925 916 919 872 913 904 959 868 857 853 864 825 832 792 828 779 777 779 754 777 790 738 733 746 664 681 641 668 672 619 616 583 621 565 613 605 593 502 543 511 548 509 502 511 506 454 446 449 500 458 488 454 421 431 413 447 387 425 420 425 413 404 375 409 418 413 381 423 389 408 406 415 416 361 363 371 381 442 424 378 393 412 382 371 367 399 382 386 354 360 355 417 367 373 418 376 346 400 406 354 374 420 416 419 430 381 358 372 372 383 353 422 358 372 364 368 374 349 428 371 375 371 354 382 382 381 389 389 375 437 420 405 403 388 421 443 496 437 486 469 438 457 477 465 548 515 526 531 527 516 525 548 535 543 579 576 534 550 527 611 596 565 590 577 586 524 557 591 569 557 530 572 576 638 587 568 561 569 535 497 489 546 562 502 498 506 517 468 507 473 495 446 463 450 443 444 424 436 401 407 419 435 408 396 400 371 405 390 380 386 364 366 410 380 356 383 340 373 356 380 399 329 349 360 381 387 399 374 367 358 344 389 384 380 351 325 320 360 355 360 340 366 320 341 360 365 348 346 339 379 361 392 386 351 323 343 327 315 336 318 333 354 360 363 347 335 315 337 317 329 314 322 323 303 327 326 334 345 334 356 356 322 366 329 316 306 310 350 322 338 356 312 371 372 333 334 331 308 332 332 348 309 308 312 358 310 301 344 359 347 358 310 323 317 337 326 356 304 340 346 308 359 335 321 343 361 342 324 306 313 329 342 303 361 343 323 309 321 345 362 328 359 331 324 331 299 346 306 364 310 357 323 369 299 329 347 338 312 308 319 338 332 307 324 307 324 344 325 333 337 339 349 354 315 340 305 296 365 340 337 325 314 296 323 312 349 315 289 312 315 312 322 294 306 310 318 299 345 331 337 323 326 309 296 322 312 306 338 291 292 313 297 337 310 327 273 289 296 303 296 314 321 294 312 304 331 307 322 289 334 266 294 296 306 290 276 294 294 320 319 323 325 306 330 341 357 305 292 291 323 314 312 285 326 337 302 333 324 334 321 298 327 304 283 304 316 299 300 337 328 322 298 329 353 317 308 315 331 334 299 284 293 307 297 311 288 270 283 289 309 329 315 288 290 292 305 307 338 295 302 300 329 268 307 301 289 309 293 320 317 278 275 279 312 290 257 308 288 285 284 291 285 277 281 325 307 302 293 306 310 310 317 290 301 276 281 291 309 296 296 291 315 276 321 307 335 311 310 321 298 297 328 316 337 296 270 268 298 274 303 306 276 287 301 325 280 286 302 318 283 317 303 290 277 290 276 291 285 310 300 334 308 290 268 264 291 274 303 283 306 291 288 322 311 309 311 304 330 291 284 303 287 285 278 324 325 311 325 321 333 300 293 339 299 278 321 288 287 284 278 296 276 300 279 319 312 304 347 287 303 270 284 247 259 296 289 297 295 284 304 315 331 309 280 258 342 345 314 321 321 298 306 302 272 289 298 330 308 331 312 310 292 307 309 317 309 339 294 318 309 314 280 330 319 311 323 294 316 296 293 298 299 321 317 318 300 269 275 307 265 309 332 329 332 299 321 309 307 298 289 321 295 299 314 322 345 334 325 368 351 310 336 339 332 329 321 355 341 334 362 351 342 365 352 340 376 344 361 345 379 364 358 373 361 358 415 395 409 355 393 368 371 448 384 406 388 388 399 404 370 393 439 426 444 441 436 450 496 545 534 585 600 637 705 736 811 831 940 898 954 1080 1110 1160 1218 1239 1246 1339 1291 1329 1395 1424 1415 1483 1518 1552 1696 1627 1753 1611 1708 1709 1731 1744 1756 1758 1773 1712 1715 1724 1665 1617 1592 1599 1585 1567 1527 1430 1504 1418 1346 1356 1415 1280 1366 1254 1199 1181 1213 1070 1028 1030 891 917 794 815 846 737 768 727 685 644 598 628 638 592 527 564 541 523 502 496 513 512 509 504 472 525 496 545 540 528 535 562 521 517 509 563 557 557 560 552 599 557 574 523 559 529 520 582 552 536 560 578 532 538 558 536 459 447 450 528 479 506 528 473 488 471 449 419 442 438 450 440 453 439 397 460 396 402 402 419 369 421 403 357 369 343 345 355 355 312 333 341 322 353 335 324 363 361 286 363 311 302 296 302 306 339 308 306 342 296 287 281 313 319 322 290 295 296 318 304 305 299 302 300 271 300 283 296 313 266 298 259 268 287 268 318 289 287 300 292 264 298 295 285 281 292 291 268 334 296 276 270 289 285 288 281 307 270 301 309 309 301 308 274 308 292 321 273 317 318 320 303 310 307 303 335 285 308 313 306 344 313 293 330 337 340 308 301 329 354 349 301 343 323 333 342 365 355 384 399 362 418 451 437 453 512 526 540 602 607 624 705 743 733 764 809 828 890 955 921 1030 1017 1031 1064 1059 1108 1138 1209 1176 1206 1275 1254 1387 1327 1322 1376 1440 1394 1285 1357 1297 1378 1298 1284 1282 1261 1300 1318 1283 1256 1285 1314 1259 1299 1165 1139 1082 1101 1119 1170 1129 1077 939 935 957 881 820 801 778 728 693 690 707 639 661 598 659 558 552 513 453 457 469 450 481 462 424 477 439 408 407 415 394 399 443 458 434 448 427 409 455 383 452 406 410 448 457 454 421 433 436 448 426 469 439 424 432 397 433 363 420 418 416 393 374 407 399 389 377 393 392 433 389 409 423 378 384 383 367 353 382 352 334 336 330 345 342 363 336 342 309 298 346 339 297 335 327 329 302 294 271 300 326 289 268 312 292 273 269 277 300 296 287 250 259 318 279 298 287 240 298 343 284 329 257 290 278 301 311 282 294 266 303 279 292 304 317 279 309 309 298 354 332 358 397 369 373 365 410 382 342 404 408 405 458 430 452 451 427 491 450 427 446 486 513 497 488 477 497 482 485 479 481 468 506 521 528 452 463 471 471 435 462 449 469 425 459 422 452 415 450 462 424 445 353 358 387 392 333 324 333 336 391 331 309 300 290 328 308 323 335 287 295 267 315 308 274 284 260 244 295 272 260 258 263 268 249 288 266 257 292 280 257 272 264 244 268 277 236 258 259 289 290 229 245 236 291 259 262 295 289 239 275 276 232 264 271 286 256 263 269 260 235 238 260 235 278 274 212 236 240 246 264 210 273 256 258 258 262 234 227 208 229 230 262 249 224 263 235 290 277 239 267 246 228 216 216 257 291 225 237 262 237 266 235 263 227 259 237 231 241 228 240 235 238 242 247 233 236 227 237 219 223 246 271 234 239 269 268 228 258 228 226 250 220 214 216 245 247 271 243 218 218 213 227 236 224 208 227 244 228 259 210 259 248 269 243 232 221 211 249 237 247 243 234 231 244 238 215 207 234 258 240 223 233 235 218 218 226 226 234 244 219 226 216 239 217 231 209 243 216 232 258 223 245 206 241 228 230 197 235 207 218 231 209 242 227 227 216 210 226 226 233 198 226 247 223 222 220 237 226 217 219 229 226 243 213 201 212 230 225 233 176 217 217 221 241 206 215 196 219 225 262 233 234 229 218 230 232 204 248 212 204 241 231 202 202 202 193 211 223 221 210 247 208 197 208 201 228 209 225 238 232 237 209 238 230 225 208 240 226 217 244 259 186 266 256 229 213 227 224 231 217 195 212 243 261 256 260 246 261 199 199 229 240 231 208 233 215 240 197 234 227 232 260 211 234 206 229 208 232 243 221 207 213 221 211 221 220 209 190 217 229 276 216 234 230 223 245 212 208 233 202 216 224 225 208 199 205 224 193 180 212 203 213 210 205 195 219 191 202 215 229 210 211 191 228 208 249 221 203 223 208 223 196 224 232 212 213 221 226 215 239 207 216 234 215 194 203 186 230 204 205 224 200 204 229 221 218 223 222 235 218 233 216 219 227 196 223 197 220 200 221 200 235 231 233 207 232 189 232 217 204 207 241 210 214 234 221 214 242 221 221 229 213 242 233 212 240 242 244 274 204 235 213 223 276 263 258 292 288 296 284 302 285 336 314 300 302 309 301 315 316 328 324 363 331 360 380 367 355 356 350 341 350 403 343 346 346 355 382 336 312 373 355 372 323 318 319 306 343 335 358 339 315 306 263 290 323 300 278 292 266 286 283 242 290 240 260 259 262 224 234 211 231 219 225 226 214 264 227 222 212 235 232 190 198 219 200 201 204 212 196 200 231 224 225 196 215 200 193 208 227 187 239 225 216 222 199 212 213 210 202 215 221 230 217 223 201 226 213 205 215 205 210 210 212 210 210 203 188 226 191 200 223 191 215 219 223 202 215 209 198 208 216 211 199 207 207 204 228 198 204 210 198 205 194 202 216 222 189 209 201 200 210 213 202 214 219 204 208 205 184 194 203 179 206 209 212 172 178 202 185 197 201 198 225 196 205 215 181 215 197 197 214 211 171 196 200 211 228 173 218 191 229 213 239 221 214 228 216 195 198 206 187 198 199 194 193 210 226 203 223 201 196 179 196 217 202 195 201 203 209 210 202 188 185 202 169 239 207 217 220 209 223 195 223 209 205 209 212 200 167 238 192 206 195 190 201 258 222 210 197 198 212 203 184 217 247 192 224 183 216 187 236 232 233 241 223 196 219 236 216 230 261 215 249 214 221 220 201 240 229 236 281 259 260 230 257 258 272 298 272 295 264 299 322 355 318 344 375 377 394 424 423 488 500 528 477 527 541 547 550 559 582 574 550 632 590 640 609 608 599 692 664 663 634 700 690 683 651 685 686 671 631 639 661 670 619 599 582 630 622 588 593 584 562 532 531 567 511 542 481 473 509 415 462 420 399 410 378 376 379 367 380 358 328 317 310 307 312 330 306 279 273 273 266 232 265 274 238 264 221 223 260 226 264 229 246 244 241 261 238 230 268 230 293 232 233 228 219 259 239 263 242 238 258 248 236 248 232 273 221 247 276 231 282 267 260 277 280 272 289 288 285 244 271 244 242 259 286 258 248 257 256 269 266 248 232 250 235 227 241 247 221 230 256 275 232 261 244 230 217 259 224 223 269 205 205 217 237 213 223 204 220 224 206 232 213 229 215 215 245 220 215 219 230 213 234 204 226 195 212 223 226 231 224 208 212 227 231 218 217 211 226 236 259 227 234 248 241 245 207 240 276 227 207 273 241 244 232 209 226 220 221 241 225 250 273 241 259 208 218 196 216 235 234 203 217 247 184 220 209 227 221 257 205 217 230 216 197 228 229 239 205 206 204 216 191 209 212 215 200 202 191 197 211 191 203 205 170 222 191 198 172 222 165 201 198 165 195 189 190 181 184 200 186 192 191 183 209 197 190 200 172 176 190 203 178 208 182 185 211 209 211 186 196 184 186 193 185 233 206 180 189 171 190 190 170 187 182 197 192 170 174 212 190 204 185 213 198 197 200 214 188 210 190 173 195 198 195 195 196 202 194 180 216 209 190 196 181 181 180 211 180 228 219 189 199 202 185 214 216 198 174 217 169 211 200 190 197 205 183 216 179 199 188 184 171 191 210 188 202 173 180 185 163 210 175 193 168 184 185 218 194 210 185 172 184 197 212 196 191 211 198 174 197 179 199 204 215 169 196 180 196 206 188 184 184 201 206 181 192 181 204 198 209 188 184 188 187 184 210 227 197 200 178 169 199 193 169 177 184 209 201 190 182 171 213 183 185 195 209 198 193 171 178 175 174 201 196 173 164 196 180 196 160 170 195 207 194 184 191 190 196 187 184 199 192 195 181 204 209 213 184 183 188 185 188 184 199 212 180 211 235 203 193 222 195 200 181 200 207 210 190 200 183 197 194 182 192 215 190 207 196 210 198 213 190 207 229 223 215 203 214 213 217 214 191 183 175 215 180 208 206 171 173 178 194 203 199 203 189 210 143 203 224 195 220 206 204 229 213 205 209 203 205 214 184 184 193 203 195 206 190 230 217 208 216 174 201 186 200 183 202 185 200 173 173 210 203 200 187 189 207 182 208 226 193 200 207 178 217 206 198 204 203 196 208 232 202 220 200 197 199 242 196 188 204 194 202 201 211 209 231 190 207 231 185 220 211 234 195 215 190 207 217 224 233 217 208 172 194 209 209 221 232 198 236 216 220 203 211 197 226 186 221 210 196 219 231 198 208 211 220 239 214 264 201 219 220 221 231 222 283 235 230 274 263 282 268 286 269 265 278 284 325 261 263 289 277 294 281 300 289 316 301 269 296 298 337 299 305 291 302 283 314 318 325 329 344 274 317 331 331 352 307 300 344 329 358 325 340 356 341 322 366 323 367 426 380 377 415 426 468 512 478 507 511 513 511 541 577 598 587 586 588 627 578 585 589 613 622 640 628 647 644 664 706 606 680 641 698 662 614 653 626 648 667 700 666 582 653 609 633 570 641 566 562 558 495 546 507 460 466 460 433 445 388 427 409 434 392 405 365 380 371 377 355 321 302 294 307 306 282 277 281 278 268 241 267 256 262 225 243 248 236 250 226 230 221 230 225 246 258 272 225 245 229 227 229 257 243 270 226 242 219 249 251 272 249 265 259 275 290 232 283 302 266 295 272 286 297 284 270 260 241 293 293 294 307 324 304 296 259 303 311 326 284 336 276 321 275 308 347 310 322 313 322 320 274 293 288 328 314 275 320 309 280 282 264 316 307 289 266 271 329 247 289 293 281 266 266 263 280 251 232 232 246 260 222 238 248 236 237 261 279 215 269 243 235 267 257 275 243 259 247 280 249 271 267 248 292 239 294 248 279 277 295 315 313 267 277 292 317 310 295 277 304 343 372 323 335 389 392 412 414 491 467 528 515 539 636 714 721 735 821 768 883 825 856 854 915 905 944 981 990 1027 1076 1101 1085 1153 1152 1109 1145 1170 1207 1218 1172 1228 1186 1203 1204 1261 1135 1181 1227 1180 1136 1214 1154 1098 1131 1161 1051 1083 1034 1036 1036 987 953 970 881 863 827 799 731 771 730 653 701 607 596 630 574 599 527 513 517 497 490 518 471 455 393 403 433 386 392 344 347 352 316 337 328 304 330 321 292 280 298 285 282 293 309 288 279 268 282 310 280 286 284 256 266 266 283 280 295 248 256 287 249 262 293 311 280 324 277 317 270 321 293 311 327 319 321 283 330 311 322 315 331 347 336 311 325 348 341 339 346 343 356 319 323 342 367 356 321 367 334 301 341 343 360 335 356 329 353 345 355 315 318 324 357 370 342 336 311 334 331 292 340 306 363 329 341 326 312 311 315 316 298 309 335 337 314 332 352 324 340 316 310 327 334 316 302 306 301 340 321 316 311 332 342 301 325 282 301 310 323 295 295 319 328 328 300 291 256 283 249 271 273 279 272 268 271 278 243 304 258 271 236 230 240 279 226 242 239 229 245 249 221 266 248 216 240 217 226 237 259 208 206 206 208 192 227 214 218 225 216 208 206 182 210 215 196 207 230 199 203 196 229 225 212 220 185 199 221 213 191 198 214 219 176 211 188 197 178 200 208 243 192 193 185 194 209 203 211 218 217 197 202 186 228 200 193 199 207 182 206 193 221 214 188 220 228 232 210 215 190 207 178 219 180 192 220 206 184 186 214 197 198 197 192 210 193 189 201 176 178 195 204 191 195 196 176 176 190 199 206 206 203 202 197 198 209 217 224 203 203 208 211 217 188 205 177 196 204 227 202 243 203 201 204 233 194 196 202 197 199 216 203 197 225 193 203 175 174 179 175 176 220 203 202 197 196 200 186 201 180 225 208 179 238 189 180 194 193 233 215 157 176 178 193 177 222 194 202 212 208 206 196 201 205 199 192 191 188 189 194 192 221 197 198 197 164 185 222 212 208 179 199 199 220 210 189 193 205 176 192 183 204 187 191 174 209 208 210 205 207 177 169 203 197 196 208 205 178 217 189 198 207 190 198 186 211 180 190 194 190 180 177 181 197 188 188 196 163 248 189 193 204 223 198 210 215 191 188 221 195 178 194 200 172 206 188 183 178 190 207 189 207 188 201 200 187 203 182 190 196 197 169 168 199 160 205 205 186 201 202 184 218 198 190 196 222 172 194 208 168 207 226 203 199 189 221 178 190 228 188 192 201 198 181 170 219 170 183 219 188 193 193 188 204 211 196 217 214 202 217 188 181 162 189 198 188 169 197 198 192 196 192 200 202 202 194 161 211 169 227 196 214 185 188 193 179 236 221 214 202 201 185 215 196 208 226 191 171 200 197 227 194 203 222 201 209 207 217 193 206 192 187 197 217 187 217 206 201 210 219 202 240 216 230 215 222 267 251 228 250 260 269 270 248 290 240 235 246 248 301 280 299 249 291 287 272 273 283 316 288 313 323 271 273 280 269 280 274 299 283 314 286 294 287 315 292 263 261 257 298 277 270 292 273 258 232 235 247 256 239 261 246 222 277 232 259 240 212 217 250 227 223 246 220 223 247 228 244 221 209 232 228 198 212 229 258 214 231 203 192 178 202 215 202 205 196 208 193 202 190 195 222 211 220 204 207 218 204 193 184 195 199 224 179 205 211 205 213 216 191 218 210 210 183 199 184 221 210 195 211 182 197 193 203 172 206 193 203 198 196 212 207 203 204 201 197 226 192 210 181 181 178 186 185 224 220 211 192 186 169 199 209 202 214 177 206 184 217 237 200 195 206 211 228 194 195 207 184 202 214 208 209 204 216 182 195 212 217 190 196 200 219 190 193 197 193 186 206 178 207 209 218 180 204 201 203 197 179 209 213 199 204 214 217 197 193 204 229 200 238 228 195 217 206 195 191 233 177 216 218 221 202 206 212 235 198 225 205 221 213 219 207 198 239 222 200 217 216 243 212 214 216 215 221 244 227 235 197 243 205 223 236 220 280 227 289 246 235 281 222 236 240 218 259 243 277 273 290 292 290 241 309 311 332 296 342 306 355 384 376 386 427 442 488 505 552 574 587 614 659 671 727 680 717 703 776 811 795 775 863 823 855 815 908 921 969 948 936 937 984 907 983 998 1016 926 1000 964 928 909 911 928 947 899 903 947 896 858 868 815 829 799 786 770 784 764 696 690 706 669 646 662 675 567 540 569 547 512 507 497 469 493 482 475 480 445 450 398 366 382 368 345 358 362 333 319 335 323 295 302 270 301 266 291 283 276 265 250 232 278 244 268 277 242 243 256 241 246 238 229 238 256 248 234 281 257 268 198 233 240 266 232 224 236 216 237 246 235 245 256 285 270 217 234 246 241 237 225 247 288 280 264 236 239 228 257 237 233 296 279 300 300 290 312 243 329 288 304 313 335 313 312 289 328 282 326 290 315 313 343 295 315 324 318 300 349 308 317 323 310 318 339 322 361 332 341 339 311 331 290 337 366 331 333 334 322 360 328 340 312 315 342 310 315 297 311 276 316 303 280 312 301 275 273 288 277 290 265 240 300 309 262 242 269 279 289 256 271 288 237 248 234 258 247 272 243 244 240 217 217 229 256 230 224 210 220 231 196 229 241 198 245 211 236 199 235 231 210 214 183 207 215 210 206 220 207 188 214 178 185 207 208 186 205 175 198 207 194 216 197 189 195 194 220 205 210 182 195 216 213 208 192 187 191 182 195 191 197 184 195 190 199 191 204 179 201 172 178 212 212 189 180 188 190 223 194 181 207 186 210 192 214 212 182 185 195 211 173 212 198 231 172 182 182 190 178 176 168 213 167 202 186 195 188 175 208 189 199 182 193 178 218 176 201 193 215 196 190 179 203 178 191 200 199 190 171 200 193 205 197 185 168 179 176 202 192 205 181 181 204 182 192 190 191 203 186 170 190 195 198 191 194 198 211 185 175 215 184 163 200 195 188 205 180 188 201 199 203 197 187 179 177 197 177 191 179 205 193 188 193 190 179 189 175 181 221 193 193 178 202 191 196 191 189 228 199 163 205 198 179 198 200 185 188 204 177 235 188 189 205 209 188 219 194 190 207 184 199 173 195 196 190 186 197 196 183 167 184 192 200 197 192 197 207 189 179 186 191 220 195 197 187 215 183 193 216 180 191 187 199 185 194 196 201 210 193 185 171 225 193 203 195 169 203 206 179 196 206 201 205 180 198 230 210 200 196 182 177 209 172 195 190 216 195 187 206 206 192 206 193 199 185 182 222 188 180 187 194 205 205 213 190 186 202 199 190 187 183 186 196 209 195 210 189 192 188 169 193 179 187 177 205 195 166 176 203 196 195 178 183 216 211 196 198 209 199 193 195 206 188 198 193 207 193 222 177 209 202 182 217 209 191 215 194 205 216 203 221 199 201 192 185 207 190 213 203 213 231 198 202 225 189 244 208 207 219 217 218 210 210 223 227 217 242 204 214 232 224 199 200 219 231 229 222 220 242 246 285 229 272 270 271 284 295 312 323 326 324 345 350 327 397 374 359 385 385 388 417 399 393 405 377 418 371 401 440 383 421</counts>
			</dataPoints>
		</scan>
	</xrdMeasurement>
</xrdMeasurements>
