<?xml version="1.0"?>
<xrdMeasurements xmlns="http://www.xrdml.com/XRDMeasurement/2.3" xmlns:xsi="http://www.w3.org/2001/XMLSchema-instance" xsi:schemaLocation="http://www.xrdml.com/XRDMeasurement/2.3 http://www.xrdml.com/XRDMeasurement/2.3/XRDMeasurement.xsd" status="Completed" recordIdentifier="{D7DE671C-2F10-4DFE-BEC0-D77999E3CFA6}">
	<comment>
		<entry/>
	</comment>
	<sample type="To be analyzed">
		<id>GPSS_Li1p4Mg0p8Ta0p2Cl4_101325_68ed636b07cf888582f978e1</id>
		<name></name>
		<preparedBy></preparedBy>
	</sample>
	<xrdMeasurement measurementType="Scan" status="Completed" sampleMode="Reflection">
		<usedWavelength intended="K-Alpha 1">
			<kAlpha1 unit="Angstrom">1.5405980</kAlpha1>
			<kAlpha2 unit="Angstrom">1.5444260</kAlpha2>
			<kBeta unit="Angstrom">1.3922500</kBeta>
			<ratioKAlpha2KAlpha1>0.5000</ratioKAlpha2KAlpha1>
		</usedWavelength>
		<incidentBeamPath>
			<radius unit="mm">145.00</radius>
			<xRayTube id="1010048" name="Empyrean Cu LFF HR (9430 033 7310x)">
				<tension unit="kV">40.0</tension>
				<current unit="mA">15.0</current>
				<anodeMaterial>Cu</anodeMaterial>
				<focus type="Line">
					<length unit="mm">12.0</length>
					<width unit="mm">0.4</width>
					<takeOffAngle unit="deg">6.0</takeOffAngle>
				</focus>
			</xRayTube>
			<sollerSlit id="21010002" name="Soller slits 0.04 rad.">
				<opening unit="rad">0.0400</opening>
			</sollerSlit>
			<mask id="22031000" name="Fixed mask 13 mm">
				<width unit="mm">9.00</width>
			</mask>
			<divergenceSlit id="22120001" name="Divergence slit 1°" xsi:type="fixedDivergenceSlitType">
				<distanceToSample unit="mm">50.00</distanceToSample>
				<height unit="mm">1.52</height>
			</divergenceSlit>
		</incidentBeamPath>
		<sampleMovement xsi:type="spinningSampleMovementType">
			<spinnerRevolutionTime unit="seconds">1.0</spinnerRevolutionTime>
		</sampleMovement>
		<diffractedBeamPath>
			<radius unit="mm">145.00</radius>
			<antiScatterSlit id="22090040" name="AS slit 9 mm (PIXcel)" xsi:type="fixedAntiScatterSlitType">
				<height unit="mm">9.00</height>
			</antiScatterSlit>
			<sollerSlit id="21020003" name="Large Soller slits 0.04 rad.">
				<opening unit="rad">0.0400</opening>
			</sollerSlit>
			<filter id="20030001" name="Large beta-filter Nickel">
				<material>Ni</material>
				<thickness unit="mm">0.020</thickness>
			</filter>
			<detector id="7010019" name="PIXcel1D-Medipix3 detector" xsi:type="rtmsDetectorType">
				<phd unit="keV">
					<lowerLevel>4.02</lowerLevel>
					<upperLevel>11.27</upperLevel>
				</phd>
				<mode>Scanning</mode>
				<activeLength unit="deg">5.542</activeLength>
			</detector>
		</diffractedBeamPath>
		<scan appendNumber="0" mode="Continuous" scanAxis="Gonio" status="Completed">
			<header>
				<startTimeStamp>2025-10-21T10:35:22-07:00</startTimeStamp>
				<endTimeStamp>2025-10-21T10:43:29-07:00</endTimeStamp>
				<author>
					<name>AutomatedUser</name>
				</author>
				<source>
					<applicationSoftware version="1.7b (136)">PANalytical Aeris Instrument Suite</applicationSoftware>
					<instrumentControlSoftware version="3.2.00000000 20240306">AERIS</instrumentControlSoftware>
					<instrumentID>950485</instrumentID>
				</source>
			</header>
			<dataPoints>
				<positions axis="2Theta" unit="deg">
					<startPosition>10.00943322</startPosition>
					<endPosition>99.99442286</endPosition>
				</positions>
				<positions axis="Omega" unit="deg">
					<startPosition>5.00471661</startPosition>
					<endPosition>49.99721143</endPosition>
				</positions>
				<commonCountingTime unit="seconds">12.495</commonCountingTime>
				<counts unit="counts">2847 2706 2689 2710 2675 2667 2722 2622 2745 2710 2857 2716 2789 2743 2773 2696 2733 2745 2778 2750 2668 2743 2695 2754 2817 2798 2781 2853 2771 2819 2862 2826 2685 2800 2868 2762 2793 2793 2747 2732 2921 2832 2783 2871 2697 2814 2846 2805 2788 2777 2856 2872 2767 2756 2887 2914 2884 2720 2921 2871 2786 2848 2791 2955 2892 2956 2788 2988 2793 2794 2951 2940 2947 2926 2917 2923 2884 2883 2908 2907 2883 2941 3028 3042 2930 2930 2988 2890 2924 2958 3012 2927 2944 2921 2972 3005 2942 3023 2939 3067 2960 3063 2988 2928 2937 2926 2959 3004 3066 3048 2980 3088 2942 2998 2974 2787 3023 3016 3010 2987 3113 2972 3128 2976 3167 3016 3067 3013 2995 3039 3022 3207 3091 3014 3046 3157 3057 3142 3011 3019 3071 3114 3156 3046 3125 3178 3079 3103 3146 3025 3050 3068 3119 3060 3093 3098 3068 3090 3068 3005 3088 3197 2940 3022 3242 3173 3021 3185 3076 3167 3123 3010 3088 3184 3039 3103 3158 3034 3089 3034 3006 3071 3086 3111 3197 3001 3143 3058 3068 3001 3160 3049 3160 3083 3140 3113 2985 2969 3101 3007 3090 3087 3091 3013 2945 3137 2966 3085 3059 3098 3056 3027 3074 3105 3045 3034 3025 3049 3025 3092 2935 3126 2989 2994 2979 2977 2970 2994 2880 3072 2968 2966 3058 3015 2981 3073 3044 3001 2981 2964 2988 2917 3048 2982 2994 2967 2910 3053 2922 2931 2987 2952 3001 2957 2979 2866 3005 2939 2883 2891 2858 2968 2906 2891 2991 2933 2934 3034 2933 2902 2833 2971 2899 2931 2793 2877 2991 2830 2942 2837 2937 2836 2908 2961 2829 2903 2956 2986 2886 2918 2919 3029 2901 2914 2827 2984 2837 2837 2847 2825 2776 2835 2896 2922 2893 2874 2956 2791 2848 2917 2887 2915 2791 2909 2745 2907 2866 2703 2884 2865 2869 2853 2925 2728 2920 2828 2852 2890 2807 2979 2925 2928 2873 2856 2846 2892 2954 2837 2878 2921 2845 2830 2843 2871 2937 2872 2915 2898 2998 2821 2961 3000 2965 2888 2947 2880 2787 3047 2876 2995 2958 2897 2903 2824 2861 2921 2991 2817 2977 2975 2958 2866 2881 2811 2931 2941 2977 2996 2983 2897 2917 2926 2933 2927 3023 2911 2973 2931 3010 2964 2956 2976 2884 2913 2999 3038 3023 3051 3093 2984 3037 3081 3051 3099 3075 3080 3092 3079 3277 3168 3259 3173 3237 3284 3326 3239 3392 3304 3375 3454 3589 3499 3590 3667 3746 3730 3844 3724 3851 3862 3969 3998 4082 4200 4148 4147 4130 4123 4066 4122 4065 4052 4152 4096 4212 4161 4157 4226 4257 4290 4191 4266 4314 4242 4302 4290 4420 4170 4280 4313 4314 4305 4304 4207 4291 4207 4156 4236 4031 4223 4047 3945 3969 3933 3749 3820 3725 3655 3629 3669 3535 3718 3621 3550 3666 3585 3462 3575 3407 3416 3493 3358 3302 3299 3187 3127 3183 3150 3228 3190 3127 3053 3100 3182 3048 3125 3034 3051 3039 3065 2972 2930 2915 3012 2883 3059 2912 2960 2947 2859 2889 2959 2920 2965 2867 2986 2777 2921 2811 2845 2742 2750 2892 2816 2819 2850 2818 2778 2836 2795 2778 2805 2700 2846 2724 2827 2713 2757 2682 2804 2721 2723 2692 2813 2693 2619 2749 2722 2686 2627 2706 2697 2700 2728 2747 2703 2629 2700 2764 2737 2595 2708 2643 2610 2625 2688 2580 2677 2565 2596 2690 2668 2564 2701 2674 2590 2549 2558 2624 2666 2598 2602 2539 2654 2656 2612 2589 2585 2554 2474 2540 2547 2514 2551 2560 2557 2483 2506 2503 2542 2501 2563 2611 2452 2497 2463 2593 2531 2547 2535 2534 2580 2466 2587 2631 2613 2475 2525 2545 2552 2544 2582 2525 2515 2539 2398 2478 2427 2589 2465 2530 2456 2480 2573 2485 2444 2433 2480 2465 2529 2479 2424 2435 2408 2493 2408 2493 2452 2534 2449 2411 2478 2463 2439 2462 2502 2398 2401 2469 2382 2333 2430 2423 2383 2395 2385 2411 2429 2409 2533 2494 2431 2368 2423 2415 2282 2419 2445 2318 2409 2406 2282 2321 2367 2465 2361 2422 2382 2413 2403 2362 2331 2357 2377 2453 2423 2444 2359 2327 2393 2367 2365 2444 2295 2354 2363 2318 2339 2377 2360 2393 2325 2424 2290 2315 2345 2398 2453 2389 2253 2410 2329 2471 2350 2352 2400 2353 2351 2374 2340 2459 2339 2219 2418 2319 2318 2388 2269 2343 2320 2277 2288 2383 2396 2325 2267 2407 2281 2320 2251 2293 2323 2455 2325 2320 2287 2343 2276 2336 2271 2245 2336 2236 2327 2216 2285 2202 2396 2312 2318 2312 2271 2225 2255 2212 2234 2229 2312 2275 2260 2263 2234 2241 2286 2236 2223 2198 2211 2267 2228 2281 2264 2261 2287 2213 2208 2262 2284 2240 2294 2146 2238 2214 2262 2228 2205 2340 2258 2347 2233 2193 2266 2239 2212 2249 2351 2180 2280 2249 2269 2260 2205 2269 2253 2198 2201 2161 2195 2190 2314 2243 2218 2268 2251 2190 2166 2172 2118 2228 2201 2245 2188 2167 2219 2177 2162 2219 2209 2170 2171 2166 2255 2164 2191 2157 2148 2174 2241 2154 2192 2171 2216 2280 2162 2218 2214 2174 2171 2248 2222 2012 2215 2114 2185 2134 2165 2069 2177 2195 2173 2114 2193 2129 2133 2068 2145 2074 2185 2139 2159 2136 2214 2074 2188 2045 2203 2139 2075 2140 2103 2063 2042 2087 2089 2140 2048 1980 2060 2091 2155 2084 2135 2186 2140 2201 2117 2081 2058 2120 2165 2063 2036 2078 2178 2045 2103 2108 2070 2011 2061 2025 2190 1994 2045 2040 2095 2109 2118 2123 2041 2091 2220 2052 2094 2096 2110 2083 2114 2050 2160 2037 2036 2039 2138 2014 2042 2013 1985 1960 2148 2001 1939 2085 2106 2064 2088 2149 2079 2029 1997 2018 2125 2086 2036 2036 2029 2029 1998 2059 1921 1943 2099 2075 2061 2029 2038 1997 2028 2061 2024 2087 2078 2019 2037 2043 2073 2043 2059 2085 2038 2063 2083 2023 2021 2056 2116 2049 1988 2148 1983 1995 2021 1969 2003 2030 1992 2011 2030 1973 2018 2005 1949 1950 2029 1969 2051 2051 2066 2086 2008 2021 2064 2142 2021 2069 2079 2024 2119 1971 2051 1991 2149 1991 1981 2082 1983 2082 2076 2016 2024 2004 2012 2081 1991 2029 2035 2067 2022 2029 2081 2052 2128 2078 2064 2091 2008 2034 2049 1967 1971 2017 2027 2061 2029 2079 1975 2022 1977 2007 2048 2090 2009 2053 1999 2012 2009 2098 2153 2040 2044 2055 2104 2062 2059 2015 2024 2066 2028 2195 2049 2024 1996 1961 2039 2049 2010 2193 2027 2035 1967 2075 2095 2040 2055 2089 2013 2060 1982 2091 2042 1985 2023 2054 2056 2054 2088 2027 2097 1999 2118 2086 2037 2083 2081 2103 2112 2092 2148 2193 2028 2042 2128 1995 2099 2114 2127 2057 2173 2093 2069 2111 2019 2094 2199 2146 2108 2155 2178 2145 2139 2233 2162 2301 2205 2147 2289 2318 2240 2257 2189 2296 2284 2196 2347 2307 2280 2336 2244 2366 2288 2241 2331 2368 2378 2321 2317 2186 2297 2273 2271 2215 2335 2243 2258 2354 2326 2242 2170 2200 2185 2246 2137 2104 2117 2206 2183 2111 2108 2056 2143 2033 2003 1960 2071 2058 2053 2052 2103 2018 2041 1967 1981 2059 1961 1959 1927 1954 1901 1934 1929 1816 1878 1871 1872 1836 1859 1812 1845 1863 1813 1888 1846 1871 1834 1805 1845 1905 1764 1795 1759 1763 1730 1762 1788 1666 1784 1756 1768 1746 1776 1765 1752 1818 1672 1719 1792 1768 1725 1733 1775 1697 1718 1646 1719 1709 1706 1681 1685 1725 1746 1690 1709 1683 1621 1694 1732 1713 1669 1766 1658 1704 1646 1684 1674 1650 1574 1658 1630 1725 1719 1702 1672 1583 1587 1638 1657 1653 1647 1687 1620 1546 1602 1681 1610 1564 1605 1511 1585 1615 1560 1626 1630 1565 1582 1530 1579 1610 1567 1548 1521 1561 1599 1561 1507 1593 1523 1481 1516 1524 1617 1566 1625 1613 1538 1508 1535 1620 1574 1510 1562 1543 1585 1570 1556 1606 1597 1533 1556 1600 1549 1546 1511 1536 1558 1595 1532 1516 1529 1573 1492 1479 1477 1488 1501 1557 1483 1528 1550 1498 1539 1576 1487 1539 1584 1498 1480 1542 1560 1525 1500 1489 1463 1495 1492 1505 1546 1539 1519 1589 1507 1550 1478 1590 1518 1529 1546 1479 1486 1549 1544 1543 1595 1545 1534 1561 1504 1512 1557 1548 1507 1476 1510 1581 1564 1526 1509 1564 1520 1465 1575 1488 1540 1509 1497 1560 1547 1522 1554 1524 1497 1470 1556 1572 1548 1556 1474 1536 1513 1541 1553 1572 1538 1473 1559 1584 1550 1483 1585 1539 1577 1529 1512 1515 1471 1494 1508 1575 1538 1555 1573 1554 1552 1471 1479 1566 1575 1546 1550 1517 1542 1570 1513 1529 1540 1463 1484 1569 1588 1548 1511 1518 1495 1548 1513 1588 1532 1613 1450 1484 1557 1531 1504 1506 1534 1536 1461 1541 1528 1511 1492 1519 1574 1475 1581 1502 1490 1483 1500 1446 1483 1543 1529 1565 1535 1520 1538 1554 1520 1495 1510 1505 1520 1524 1495 1584 1492 1500 1422 1471 1495 1429 1548 1420 1508 1479 1481 1469 1529 1482 1464 1508 1479 1481 1391 1513 1431 1417 1527 1436 1500 1497 1538 1483 1498 1459 1426 1505 1448 1441 1438 1402 1469 1465 1407 1319 1384 1375 1448 1359 1359 1373 1453 1378 1411 1398 1480 1422 1431 1402 1455 1454 1408 1378 1328 1351 1417 1425 1404 1334 1337 1373 1383 1438 1375 1359 1360 1345 1401 1339 1334 1364 1388 1356 1385 1373 1302 1382 1360 1394 1430 1335 1364 1319 1338 1351 1312 1314 1359 1352 1319 1303 1331 1410 1344 1467 1317 1404 1420 1384 1377 1274 1383 1366 1367 1397 1319 1319 1375 1374 1405 1337 1367 1384 1365 1385 1350 1390 1397 1410 1450 1374 1458 1486 1443 1578 1468 1651 1687 1630 1731 1736 1790 1837 1860 1901 1995 2090 2045 2022 2111 2189 2190 2378 2359 2327 2369 2470 2394 2458 2420 2422 2592 2452 2469 2429 2595 2462 2491 2439 2460 2424 2467 2416 2393 2292 2463 2309 2278 2307 2269 2312 2173 2188 2111 2127 2127 2142 2079 1961 2001 1995 1915 1960 1885 1873 1790 1812 1840 1690 1788 1650 1732 1664 1746 1655 1616 1650 1589 1629 1566 1628 1517 1608 1577 1509 1511 1547 1560 1582 1526 1447 1557 1471 1573 1529 1535 1476 1463 1413 1528 1508 1539 1508 1464 1502 1538 1534 1577 1595 1599 1568 1684 1649 1684 1784 1761 1898 1894 2040 2129 2170 2325 2562 2742 3032 3219 3499 3803 4226 4626 5072 5438 5776 6155 6628 6909 7552 7709 8025 8344 8209 8484 8639 8646 8518 8722 8569 8319 8371 8084 7825 7564 7206 7050 6655 6460 6030 5750 5452 5289 5196 4888 4754 4709 4557 4376 4447 4288 4340 4215 4081 4175 4058 3950 4008 3918 3760 3737 3709 3642 3670 3476 3522 3329 3369 3134 3161 3134 3095 3069 2971 2900 2710 2840 2790 2671 2710 2540 2571 2509 2541 2402 2343 2238 2293 2232 2188 2141 2120 2101 2017 1981 1962 1930 1890 1819 1764 1711 1683 1655 1573 1581 1607 1573 1498 1454 1492 1468 1393 1381 1425 1361 1365 1283 1267 1232 1309 1217 1263 1192 1197 1212 1165 1203 1142 1128 1089 1186 1173 1170 1131 1076 1077 1125 1052 1123 1118 1167 1138 1117 1096 1082 1072 1110 998 1144 1082 1067 1120 1119 1045 1048 1100 1025 1052 1048 962 1099 1000 1077 984 999 989 1030 1054 995 1035 1017 937 992 1019 1000 985 993 1005 944 1006 1003 1015 1021 928 992 926 1046 982 975 954 920 945 927 973 1012 945 962 987 960 962 971 943 953 942 967 924 935 928 903 992 905 961 931 1048 949 962 1034 996 1034 968 954 898 953 998 993 946 956 949 899 864 929 940 952 949 889 970 958 941 894 902 936 956 969 947 917 944 912 854 898 921 884 865 890 907 946 958 908 890 903 923 919 867 1001 892 903 932 936 936 927 912 843 886 886 891 916 925 897 867 881 894 913 892 961 892 911 850 899 908 819 927 893 922 862 892 915 902 880 941 871 921 909 848 888 861 875 872 877 808 893 835 842 865 938 894 921 893 874 829 909 905 895 889 846 848 831 914 881 843 870 855 891 831 848 894 888 835 908 861 864 869 865 889 870 843 869 830 887 869 895 854 877 895 880 883 895 898 898 872 912 876 934 886 942 886 917 860 935 845 978 926 925 906 885 920 871 865 907 836 891 950 939 932 930 913 895 913 844 910 873 932 893 930 908 945 980 948 931 894 932 906 940 929 867 945 967 968 966 912 1011 1054 1078 975 987 1055 1006 1078 1072 1088 1105 1122 1090 1090 1088 1185 1172 1178 1237 1212 1269 1345 1329 1362 1464 1546 1501 1721 1821 1901 2095 2206 2367 2637 2793 3223 3454 3871 4263 4865 5225 6007 6316 6811 7251 7681 7677 8088 8116 8517 8663 8780 8741 8675 8670 8648 8490 8280 7971 8038 7562 7377 6968 6636 6270 6011 5677 5458 5049 4811 4717 4420 4243 4056 3983 3757 3626 3631 3532 3524 3512 3416 3461 3524 3484 3580 3639 3647 3685 3724 3785 3778 3644 3715 3690 3778 3637 3772 3655 3590 3453 3493 3200 3290 3209 2926 2859 2779 2632 2582 2498 2376 2286 2143 2053 2096 1965 1929 1861 1795 1728 1635 1631 1683 1580 1610 1455 1457 1501 1432 1342 1310 1295 1253 1247 1234 1222 1112 1199 1165 1126 1050 1098 1065 1095 1052 1058 1014 1067 1029 966 957 1011 995 1028 964 1032 1033 954 933 945 910 1003 960 986 920 976 939 927 913 952 887 928 901 885 868 873 868 866 864 858 903 884 981 901 848 821 931 865 876 850 833 930 803 846 893 894 866 874 825 867 874 888 820 866 912 826 866 886 824 814 822 838 839 801 884 846 858 864 885 899 889 902 842 888 850 860 874 865 876 804 848 903 945 950 925 887 837 934 904 914 947 964 949 914 891 988 907 978 975 968 894 964 938 972 974 1020 970 913 971 992 1012 937 1046 963 1018 987 997 1051 995 1026 995 1034 987 1049 993 1050 1069 1025 1058 1014 1030 1017 1092 992 1019 967 1009 1037 982 981 1049 1021 1060 1020 970 996 1005 1011 1027 1008 984 981 1019 996 983 1051 938 1052 963 929 1016 997 981 976 939 933 988 997 962 913 956 862 936 913 882 925 919 923 878 925 904 900 878 918 981 890 847 928 902 870 877 927 924 892 886 884 855 900 886 848 846 865 892 854 875 824 847 841 791 786 830 872 790 822 869 816 870 824 861 878 814 840 840 866 825 818 858 810 859 846 785 844 791 773 845 821 836 793 854 747 778 815 739 784 822 833 788 795 789 775 809 814 769 756 736 740 763 804 769 805 766 844 756 737 784 762 755 738 775 764 723 731 792 784 741 717 711 718 689 707 735 706 694 717 735 681 695 670 691 726 683 665 663 734 674 744 692 649 731 687 727 686 682 710 708 730 679 656 641 712 674 674 719 664 667 658 646 684 661 708 711 697 665 652 677 682 701 665 693 661 623 647 629 676 669 634 647 657 657 659 644 691 621 632 643 635 668 705 643 647 618 621 662 610 642 611 625 647 670 616 619 650 677 659 643 653 585 641 660 652 607 679 607 633 669 615 611 627 606 610 636 609 666 673 609 587 578 616 613 615 639 650 637 598 603 622 597 694 598 625 663 648 617 599 674 630 596 631 630 624 581 606 632 609 616 603 635 608 609 610 632 601 630 633 596 592 605 657 622 597 601 599 678 606 640 623 592 595 621 560 601 603 646 615 617 627 664 600 625 574 601 583 622 607 575 605 596 565 563 599 615 562 619 587 550 581 612 591 622 570 610 575 599 570 615 614 589 568 564 589 584 631 568 600 579 614 594 594 591 643 598 606 560 617 586 581 570 614 608 590 579 587 603 596 628 623 591 597 586 603 573 613 549 602 572 598 583 588 550 622 601 573 580 592 602 597 570 574 626 605 617 544 595 583 619 592 572 591 557 610 562 558 585 598 552 612 539 556 566 572 562 566 597 545 603 580 619 591 603 536 537 595 605 587 597 597 633 590 555 601 575 554 583 580 562 561 618 610 547 567 544 557 569 587 579 558 612 604 560 519 551 525 563 570 576 545 563 594 594 589 558 570 498 556 544 592 568 576 500 550 590 623 606 577 601 600 582 591 549 549 567 585 574 611 550 570 513 591 579 563 562 547 581 594 579 599 594 572 563 609 564 598 569 582 555 607 603 525 607 597 576 591 570 606 577 532 550 556 572 555 539 532 546 554 580 608 593 579 587 580 592 561 557 573 550 586 545 527 521 572 632 552 538 558 582 591 592 565 577 568 547 573 522 567 595 549 559 559 494 518 518 535 537 541 560 575 509 560 536 531 554 562 595 557 575 592 547 560 550 560 569 540 546 566 526 523 569 567 608 555 515 546 541 542 546 554 513 521 544 573 524 539 538 512 482 593 545 544 572 565 527 547 554 540 585 539 582 545 564 591 530 571 565 563 502 600 552 560 547 570 548 568 588 578 590 537 591 534 598 540 555 489 517 562 519 551 569 532 537 572 556 540 490 513 547 542 540 540 550 567 559 512 594 513 541 545 564 567 557 570 636 557 515 571 551 579 528 566 562 545 599 556 563 531 539 536 593 533 593 569 545 572 598 544 522 601 563 538 601 521 530 558 594 556 565 571 567 574 564 546 608 550 540 560 540 578 593 576 624 582 595 620 605 601 616 632 634 665 645 686 670 668 645 665 720 726 789 757 858 809 927 906 985 965 1013 1052 1111 1204 1125 1212 1178 1216 1245 1215 1242 1303 1268 1268 1208 1255 1201 1154 1167 1097 1092 1121 1104 1087 1016 933 950 857 882 883 819 787 768 737 731 792 704 761 734 685 684 679 652 645 605 584 657 623 657 695 607 629 615 661 654 636 647 684 624 614 652 658 634 687 616 618 647 666 650 656 670 662 663 686 686 719 709 650 651 671 731 707 759 704 620 635 722 684 693 691 685 669 723 638 656 655 622 612 628 642 650 670 622 584 596 605 634 578 543 613 583 559 589 629 617 605 580 594 545 570 605 585 571 569 586 623 603 589 599 625 615 672 562 601 594 606 626 675 580 624 604 618 620 628 570 610 650 653 598 618 596 616 683 628 627 636 588 584 595 588 612 603 641 627 644 621 622 637 616 657 596 583 620 595 593 632 626 580 594 545 584 544 558 608 561 607 560 610 560 563 585 574 564 540 569 564 519 548 537 577 546 541 584 559 566 569 543 585 539 588 524 557 593 548 530 574 549 529 545 533 534 572 554 570 550 542 566 578 500 559 567 526 605 570 611 565 608 571 577 558 563 536 567 523 559 577 587 552 585 543 592 597 576 531 538 533 557 535 560 582 552 558 571 547 504 579 527 588 573 546 550 550 550 541 573 566 597 560 554 556 517 595 610 546 565 520 560 546 520 555 527 545 563 525 524 586 547 565 540 598 547 551 590 619 571 600 559 533 586 575 548 556 552 583 569 585 545 569 511 578 582 552 546 618 578 608 547 601 594 613 607 589 612 640 597 583 547 565 570 611 586 615 649 596 616 626 590 614 616 623 683 665 691 616 677 638 647 646 714 663 677 687 738 726 706 763 698 773 781 779 797 824 925 889 959 965 995 1021 1062 1108 1155 1290 1423 1506 1642 1856 2048 2207 2446 2592 2944 3046 3364 3622 3833 4110 4348 4398 4610 4941 4931 4977 5002 5108 5059 5156 5018 4923 4866 4669 4639 4405 4270 4120 3962 3765 3524 3310 3078 2969 2701 2764 2555 2367 2378 2124 2042 1892 1810 1707 1688 1514 1549 1490 1538 1525 1414 1393 1326 1316 1393 1385 1375 1412 1421 1504 1542 1565 1610 1671 1666 1748 1788 1798 1862 1911 1899 1987 1893 1981 1930 2061 1955 2022 1981 1991 1982 1873 1909 1974 1854 1917 1821 1807 1817 1797 1741 1706 1673 1655 1642 1604 1594 1526 1517 1430 1422 1395 1399 1366 1335 1352 1271 1241 1254 1259 1186 1173 1211 1172 1109 1134 981 1094 1038 954 1023 994 977 935 955 904 871 912 869 807 877 886 863 872 893 878 860 806 796 797 819 700 809 741 783 789 735 676 643 737 710 696 686 738 683 704 708 744 658 722 698 703 675 632 635 659 646 589 643 618 634 619 659 595 605 550 649 586 580 598 628 596 554 585 605 633 596 592 587 595 618 583 574 553 579 578 532 542 586 600 553 571 537 538 518 602 593 577 549 579 576 591 565 543 570 572 573 551 584 616 531 540 634 638 593 593 680 638 679 676 656 760 727 740 786 733 706 806 755 700 791 738 830 812 733 784 771 749 709 774 745 746 694 695 661 636 725 651 687 613 653 616 545 599 584 605 566 561 600 571 524 538 554 534 567 553 543 533 549 559 572 543 527 576 547 585 548 561 579 545 601 576 581 553 544 564 557 548 627 557 600 616 572 577 576 584 546 549 568 550 569 587 612 592 571 601 524 570 527 525 546 529 536 556 534 462 571 513 496 530 473 542 482 474 511 491 505 502 510 519 521 514 479 507 457 518 497 448 466 515 493 495 479 473 495 493 503 483 491 496 472 482 480 474 482 479 513 490 493 455 472 498 522 484 517 474 478 521 493 479 518 506 446 476 501 500 486 512 487 505 492 500 428 472 452 529 485 496 499 464 478 511 495 493 458 517 520 464 495 450 490 448 481 478 501 481 498 468 522 457 485 467 480 489 492 482 472 512 493 505 517 434 464 481 490 482 486 450 466 452 499 515 470 449 450 444 501 497 423 451 528 510 490 508 495 488 479 452 511 497 493 488 518 464 476 500 506 468 465 524 510 538 519 510 477 484 528 503 465 531 467 476 457 509 473 492 497 445 500 473 482 494 516 512 473 482 514 528 485 480 477 515 492 512 519 487 501 522 494 533 502 477 492 521 501 561 525 488 509 520 518 475 517 545 557 555 493 517 501 444 528 509 535 524 527 545 481 521 523 492 519 479 474 515 528 540 552 526 560 511 512 530 547 507 538 544 537 495 588 528 544 565 520 526 542 557 562 525 594 578 606 549 566 594 580 594 587 518 607 583 595 597 574 554 551 546 567 609 590 629 573 642 631 585 612 596 628 586 632 646 599 617 637 581 592 604 631 664 616 631 634 647 597 664 603 654 641 619 630 645 626 625 618 675 677 643 663 658 640 635 596 651 645 637 589 611 626 591 688 613 646 687 652 669 603 635 641 653 648 658 657 614 581 647 651 591 580 600 607 633 597 588 623 553 583 574 632 592 565 594 580 561 577 530 559 556 552 538 534 579 554 552 525 503 580 578 531 547 529 510 534 479 529 545 525 496 529 547 514 537 558 494 501 485 543 490 455 564 524 497 545 523 477 518 492 485 490 498 526 525 559 465 530 492 516 496 501 480 504 497 480 546 440 538 528 490 513 505 499 493 523 507 496 480 482 500 509 494 466 519 520 477 485 458 489 489 489 452 494 478 464 470 500 502 481 475 472 476 478 500 498 497 458 450 467 505 486 492 468 477 482 537 537 520 553 475 483 480 510 490 485 483 519 503 530 518 502 470 541 538 547 525 562 517 559 551 479 544 523 534 497 522 522 560 492 516 532 541 496 530 517 562 541 547 489 561 539 520 547 573 540 559 529 548 540 492 523 558 600 615 604 628 635 624 595 678 666 689 728 733 763 808 812 902 930 1033 1024 1166 1235 1320 1384 1488 1605 1596 1729 1868 1929 2040 2050 2010 1989 2044 2027 1992 1993 1998 1943 1836 1931 1875 1870 1841 1791 1694 1659 1614 1518 1470 1349 1372 1264 1248 1261 1156 1089 1027 1046 952 909 889 882 846 818 776 824 768 793 718 725 762 698 744 724 697 707 671 644 670 640 661 660 693 672 729 699 709 723 758 756 706 737 766 790 837 864 862 862 845 858 827 903 900 881 934 857 939 881 960 958 901 925 894 867 865 851 852 866 821 789 791 767 742 763 779 769 706 718 666 675 687 692 665 667 601 616 599 613 575 562 549 545 564 598 572 587 530 521 523 524 519 529 492 490 504 460 487 497 516 453 500 492 519 488 492 442 500 474 431 446 478 477 467 399 451 464 466 464 476 462 419 438 429 485 479 438 442 440 469 449 422 451 426 465 507 436 479 436 452 479 443 399 426 427 443 392 451 435 456 433 451 426 420 425 433 397 441 427 434 447 407 395 420 423 486 412 455 442 432 410 427 408 458 475 433 413 420 412 450 452 416 381 472 442 384 433 439 478 437 454 442 498 468 456 435 489 444 500 462 473 481 469 466 459 458 553 468 534 498 524 503 516 518 524 526 567 576 615 648 634 638 705 795 886 976 1011 1014 1140 1255 1262 1310 1395 1486 1469 1599 1545 1620 1634 1670 1629 1679 1641 1652 1629 1476 1493 1475 1482 1408 1426 1364 1297 1275 1277 1234 1251 1133 1122 1122 1046 971 846 913 906 829 811 719 741 749 702 647 656 605 611 634 571 631 513 631 615 617 589 542 581 537 608 521 571 559 556 527 537 541 569 621 568 584 560 578 597 650 688 643 683 669 649 630 672 708 680 703 700 722 725 714 712 753 745 729 727 701 748 677 702 700 706 707 651 664 656 600 584 613 634 601 561 577 618 569 555 560 535 535 585 524 548 528 501 555 536 524 530 565 529 536 527 551 519 569 541 587 567 598 535 604 593 559 567 544 543 518 574 509 563 484 567 533 527 527 467 553 516 500 486 519 478 488 479 487 471 458 455 450 473 428 452 431 478 472 477 485 456 465 480 465 387 483 473 438 504 472 446 491 439 493 502 486 506 508 534 495 583 613 626 596 660 597 622 623 605 626 670 678 702 648 698 648 635 616 608 624 683 613 647 615 653 603 589 585 626 587 574 513 575 526 572 508 502 528 485 529 512 513 501 469 480 431 469 450 421 473 453 469 446 443 491 459 476 463 439 436 446 473 428 436 470 439 432 429 460 447 439 433 420 407 440 421 428 434 410 439 405 414 421 436 424 447 446 421 438 450 441 426 439 426 435 450 449 410 425 440 420 429 431 426 430 415 418 421 429 434 450 433 430 446 451 424 497 399 446 450 417 460 445 416 480 484 423 450 457 456 494 440 450 447 447 471 425 449 482 446 433 460 437 412 458 420 448 431 431 416 375 479 449 415 429 425 397 408 383 380 406 393 391 386 435 422 392 375 418 390 430 399 394 388 389 403 366 421 396 404 374 362 380 394 366 369 381 391 354 365 344 388 351 359 346 384 353 373 367 370 401 401 391 391 366 383 401 398 360 374 411 351 388 392 377 338 389 382 373 388 380 391 368 363 403 385 376 371 314 351 368 351 333 361 342 353 346 385 356 369 360 373 362 360 364 367 316 359 366 367 358 372 371 349 389 378 361 345 380 327 338 368 359 369 396 360 370 382 381 352 385 426 372 391 369 358 349 380 361 354 340 341 384 358 376 345 345 394 354 359 350 345 365 361 373 357 348 348 378 347 371 402 344 361 343 381 343 356 356 344 355 357 391 366 381 339 359 341 333 359 336 364 405 382 351 363 338 353 363 388 373 346 357 384 350 384 376 382 370 350 345 353 367 303 340 347 366 368 354 342 372 344 351 352 348 352 378 354 365 379 384 380 333 377 361 349 322 358 337 358 342 326 351 380 418 331 361 351 335 319 352 352 338 340 330 326 347 336 350 372 365 326 365 345 344 362 329 352 357 338 371 332 355 345 369 378 345 374 352 307 367 371 363 335 345 352 384 365 360 332 352 333 354 391 336 337 344 325 360 352 315 366 355 330 347 353 347 336 313 321 335 341 320 355 355 348 320 365 347 361 358 346 352 362 376 332 361 354 316 343 338 321 368 361 307 349 389 376 339 370 363 355 353 379 408 362 339 343 340 385 363 338 328 344 325 359 331 361 355 362 338 362 366 359 364 357 381 374 358 387 418 383 384 428 393 450 478 466 451 452 450 496 465 516 472 465 503 515 493 485 450 445 475 455 483 457 432 476 406 403 450 474 486 450 440 382 400 379 440 398 379 348 415 427 406 384 400 385 358 354 356 355 390 349 384 351 370 364 397 368 368 396 368 366 376 334 332 352 373 365 404 341 357 332 377 380 352 389 349 392 366 358 313 329 344 378 337 354 333 362 377 359 343 390 361 314 354 355 345 373 365 359 356 345 349 342 350 327 331 341 335 423 370 335 359 364 354 337 397 329 355 332 349 336 378 333 401 324 345 361 365 346 336 385 377 355 330 322 332 395 339 371 346 353 346 364 359 373 353 372 336 391 338 392 366 349 391 353 319 380 354 400 376 346 377 365 358 359 308 397 375 376 369 407 374 430 371 355 378 364 379 360 366 379 382 387 355 410 384 372 390 365 371 370 386 378 366 389 383 372 366 405 389 415 377 412 434 390 401 360 401 396 349 369 377 394 383 362 407 351 377 386 346 421 384 409 386 397 397 374 380 387 387 350 351 394 395 360 389 376 421 363 372 389 404 371 391 381 382 349 388 353 349 354 347 401 378 357 347 396 391 370 347 380 392 377 390 406 370 363 386 389 338 367 393 412 361 393 381 414 373 399 369 388 393 399 345 394 424 396 400 425 403 428 405 435 418 375 463 472 496 460 476 514 549 584 562 642 643 692 687 752 775 699 753 786 714 744 790 774 751 749 724 733 785 731 771 755 678 708 808 750 700 655 682 679 646 624 693 641 625 627 612 544 567 559 516 545 484 496 516 454 499 474 494 473 425 470 424 436 408 434 432 421 378 403 393 401 386 411 375 380 362 415 390 344 355 393 345 408 405 417 409 398 419 381 403 375 381 398 421 372 390 402 371 388 359 396 396 364 441 425 449 407 398 430 420 427 421 421 418 386 465 428 413 421 422 456 439 447 475 441 440 427 428 473 475 460 462 442 473 430 433 423 468 452 432 483 437 436 412 425 434 389 375 428 400 382 414 409 405 377 377 404 350 362 334 357 383 341 332 371 340 357 381 359 354 361 329 372 331 332 327 333 303 339 355 333 320 355 348 391 321 341 340 384 358 349 359 356 340 358 352 357 351 382 358 387 383 366 370 367 379 372 355 358 377 375 348 349 335 375 361 363 341 354 334 355 359 336 335 313 333 354 359 374 326 333 310 321 339 362 343 337 314 350 338 348 345 358 304 334 307 318 319 332 308 329 325 315 333 357 326 293 351 370 357 298 333 322 392 339 354 289 269 306 301 336 319 323 335 312 301 322 320 297 317 318 297 356 313 323 311 291 319 320 307 334 328 315 330 361 306 318 323 310 326 354 290 342 347 280 340 286 344 323 316 324 315 298 304 309 293 312 287 320 312 292 343 295 336 311 322 308 313 316 308 336 321 343 314 301 349 309 309 300 317 291 328 328 326 327 326 315 320 324 294 292 300 312 319 325 343 342 315 334 318 282 326 327 326 352 343 328 298 317 308 256 319 310 339 329 297 338 321 310 346 339 300 309 341 304 300 329 300 321 309 320 293 351 334 321 351 331 338 309 332 327 318 319 313 328 327 333 310 309 336 337 335 300 313 334 333 316 337 322 291 324 305 290 309 293 362 305 349 332 325 357 311 349 299 323 323 327 334 334 332 330 305 367 314 329 310 323 328 302 310 292 316 282 300 295 307 352 349 298 309 325 315 343 353 346 342 366 313 326 307 327 303 290 303 323 353 315 308 315 322 328 331 315 294 338 333 332 333 350 324 332 359 318 297 361 351 354 338 351 322 346 327 337 331 327 343 359 341 320 300 299 326 338 338 325 339 332 327 355 339 338 324 313 332 321 341 302 346 343 366 320 343 343 306 354 321 358 341 372 350 332 381 334 363 367 330 331 332 346 339 351 310 366 310 364 316 350 339 365 367 322 335 346 336 335 320 332 338 326 378 360 338 374 302 315 327 352 335 317 357 362 343 358 303 359 313 331 349 331 351 364 364 353 380 356 351 357 367 361 337 413 353 374 328 350 328 335 340 331 327 350 376 347 353 340 338 375 342 357 358 306 363 339 315 346 361 364 346 350 337 353 325 375 338 362 369 328 324 385 333 399 334 409 356 356 319 367 376 309 371 351 382 346 364 400 383 366 385 369 404 391 392 354 380 403 391 435 381 406 409 437 420 431 429 439 437 441 444 414 427 462 431 433 438 475 423 433 406 434 440 460 421 463 450 448 433 424 403 429 488 392 454 455 486 431 465 456 435 377 476 428 443 451 470 486 473 480 526 531 532 555 608 581 606 659 692 674 702 689 746 783 738 785 725 787 770 708 696 696 701 766 721 745 668 649 657 636 703 701 665 692 672 651 634 602 649 607 642 673 584 623 587 588 602 550 544 547 521 517 456 482 471 474 456 471 473 513 454 457 451 443 398 413 452 433 381 445 451 409 446 423 424 448 384 393 418 386 420 379 350 410 398 402 393 421 429 433 404 399 407 379 367 387 453 363 395 431 427 427 420 431 411 422 412 435 439 470 403 427 443 440 469 464 462 443 483 445 441 449 481 513 488 474 511 556 491 492 502 514 494 532 470 501 484 524 510 501 493 476 477 473 488 513 461 484 458 471 448 466 434 493 430 472 444 467 481 467 440 461 452 452 434 453 402 454 394 397 427 417 439 405 414 412 408 414 423 409 425 407 418 435 394 408 383 416 406 399 409 408 375 395 412 448 418 408 378 402 413 411 425 436 425 497 402 476 409 433 484 455 430 394 479 415 451 487 498 493 494 481 466 534 536 528 508 578 542 620 590 619 630 677 713 756 767 859 863 971 968 997 1079 1058 1168 1244 1146 1174 1228 1200 1216 1185 1192 1232 1210 1128 1214 1210 1151 1102 1090 1130 1175 1098 1125 1016 1084 1050 1032 1007 978 954 936 968 947 900 876 895 878 858 818 800 781 687 771 668 685 679 590 643 558 610 542 516 567 544 517 493 464 465 496 483 481 500 471 431 467 425 445 438 427 454 459 437 455 421 436 401 440 402 425 392 414 433 409 439 413 417 412 424 409 406 411 428 418 434 414 416 443 402 412 455 398 464 420 471 450 460 466 482 522 487 520 553 502 524 577 505 568 521 553 570 559 560 611 593 592 550 594 579 584 572 612 557 590 562 535 554 551 591 547 561 572 561 584 520 522 547 503 520 510 488 516 551 575 497 510 492 537 533 526 484 512 506 484 479 511 522 488 515 467 460 523 474 460 460 526 487 479 501 496 467 512 496 464 509 483 477 458 493 435 435 417 468 434 439 462 462 407 393 405 421 423 460 443 418 416 410 450 407 447 374 356 425 367 363 429 374 380 419 366 386 356 349 343 360 377 392 346 357 359 358 373 347 337 353 362 361 347 359 372 365 423 342 384 353 333 349 339 346 362 368 341 321 343 357 335 339 314 340 354 359 362 344 340 330 354 365 305 353 344 323 331 356 323 310 345 350 328 322 359 305 352 328 307 308 319 329 302 346 336 363 306 353 350 357 334 345 350 350 347 343 350 302 354 338 329 349 351 352 325 385 360 379 331 374 353 369 335 335 305 351 367 351 361 357 357 352 345 347 392 354 343 348 362 301 321 387 340 345 354 292 349 325 335 350 377 352 350 346 341 373 349 332 321 354 315 306 357 287 304 340 297 369 347 329 317 340 353 300 344 356 319 321 334 309 357 336 304 347 299 304 343 325 318 302 302 323 308 312 316 324 323 320 324 309 299 327 291 325 343 319 319 310 324 339 305 308 314 352 318 309 301 319 283 334 318 307 328 315 324 334 330 323 314 350 323 353 310 320 291 307 311 309 300 339 323 336 315 315 294 304 290 331 299 307 307 311 322 333 319 326 321 309 321 348 297 313 330 301 296 303 330 281 325 280 290 333 322 308 292 298 306 312 323 315 318 316 305 324 320 313 277 305 331 299 290 302 300 309 297 328 348 342 331 318 307 304 316 283 347 326 331 328 285 320 322 315 305 327 319 326 290 310 316 323 335 304 316 305 313 307 306 307 295 274 283 312 297 332 306 283 294 322 343 335 317 341 296 307 297 342 298 302 290 331 285 307 325 307 317 314 319 314 301 301 283 332 297 315 323 302 319 329 331 305 319 316 293 306 325 304 319 297 278 293 283 321 366 271 321 310 302 303 317 321 288 296 319 300 305 298 289 314 326 308 296 315 335 336 294 312 304 270 296 356 340 325 309 300 333 329 323 320 325 320 299 307 325 307 366 276 332 335 348 297 303 340 314 365 349 372 363 348 362 347 355 397 353 366 363 362 383 365 383 356 379 383 365 356 436 386 396 397 391 377 370 357 377 309 351 340 351 339 342 374 364 341 376 360 388 356 357 336 342 368 333 331 362 330 383 330 333 350 376 328 333 334 289 347 350 336 340 367 312 299 342 336 317 305 298 312 312 327 350 342 331 309 313 307 331 304 340 328 347 298 316 295 303 344 335 313 323 309 308 290 361 314 312 308 302 309 322 320 313 335 317 302 305 299 337 356 336 301 315 322 291 277 313 351 309 344 307 320 299 307 329 325 343 287 311 303 365 330 327 340 350 333 356 322 320 324 317 288 330 319 319 320 291 323 293 328 302 323 295 311 322 343 320 352 330 330 329 335 322 358 348 301 335 280 311 327 327 306 324 317 301 325 284 302 328 309 339 301 312 334 316 351 336 318 298 315 334 345 297 340 320 289 290 314 321 315 315 317 315 319 304 336 319 361 302 317 298 304 327 340 299 324 325 327 321 314 322 325 315 299 346 289 325 274 353 334 309 352 332 329 348 341 364 315 346 369 354 342 349 311 339 349 334 323 345 328 392 335 308 352 361 354 354 361 373 347 349 352 378 376 384 375 377 373 419 339 376 405 404 416 435 412 452 459 438 463 442 507 520 538 545 542 599 617 608 656 652 742 710 778 817 833 839 878 843 868 942 906 861 840 858 908 854 899 933 883 904 853 829 791 858 793 783 818 795 802 774 717 769 802 770 744 792 741 760 728 700 735 676 686 679 701 698 642 631 629 560 567 563 567 560 488 505 487 522 513 493 465 465 458 446 428 405 423 445 386 412 421 414 391 396 395 420 398 384 370 366 366 348 405 362 372 334 359 353 380 377 353 370 380 411 379 388 362 381 372 366 345 364 319 378 370 354 359 370 397 339 355 343 360 383 375 386 381 410 394 372 364 379 363 337 412 413 406 354 428 370 432 385 434 444 418 449 467 481 464 471 473 464 451 448 460 516 502 493 495 473 442 499 467 508 484 499 492 470 491 495 469 476 476 501 457 469 484 480 474 506 460 452 439 482 499 455 506 517 466 499 447 473 493 483 472 464 454 430 476 460 410 373 439 472 453 408 438 440 433 386 403 422 407 413 374 425 372 407 418 384 407 415 418 391 377 398 433 384 396 409 385 398 383 397 358 408 345 387 385 407 419 367 403 363 376 357 373 379 334 377 358 352 369 338 362 337 359 386 373 328 363 376 333 361 332 337 339 338 341 354 349 336 315 303 341 340 330 320 348 338 328 342 305 341 339 354 328 318 338 308 286 309 314 327 325 330 332 319 306 316 303 370 318 354 329 344 334 348 320 347 336 330 308 297 331 344 322 322 366 315 338 342 320 353 323 309 320 337 318 326 335 310 344 322 304 338 327 309 325 314 345 322 343 320 330 331 318 348 314 345 344 327 316 321 340 299 283 317 313 315 291 308 303 324 281 295 309 335 305 354 317 302 327 285 345 328 332 323 339 298 323 294 333 308 346 319 306 311 321 317 300 288 306 287 318 324 308 315 301 291 306 296 286 356 297 308 319 310 296 289 325 296 293 297 319 326 333 364 307 306 297 292 330 302 331 343 318 311 323 314 331 324 365 320 343 325 331 294 292 328 342 265 305 307 290 309 335 353 310 308 301 331 307 302 295 330 323 305 295 299 306 296 321 310 335 312 320 324 296 307 320 289 328 291 293 310 347 317 322 319 299 329 330 316 341 309 303 314 288 271 315 311 315 307 325 339 333 329 321 292 314 322 298 310 277 333 307 340 265 323 331 340 306 342 324 337 301 353 331 325 295 348 356 307 317 311 322 326 351 322 336 307 290 313 342 314 356 326 320 328 317 340 315 325 304 349 321 312 290 343 330 364 323 370 314 284 322 282 348 331 339 274 322 324 306 289 318 302 292 343 328 305 339 335 329 322 313 316 315 317 301 340 322 324 324 316 332 332 342 340 351 360 328 327 305 337 323 305 328 315 313 330 353 344 331 316 324 319 334 337 337 357 351 317 333 358 344 372 378 357 327 363 352 348 322 346 326 346 352 372 382 362 366 359 389 353 355 367 385 393 375 454 363 427 428 399 429 472 463 430 513 503 480 474 503 475 506 508 498 507 458 472 494 484 502 494 491 488 494 491 503 458 469 494 486 459 482 452 479</counts>
			</dataPoints>
		</scan>
	</xrdMeasurement>
</xrdMeasurements>
