<?xml version="1.0"?>
<xrdMeasurements xmlns="http://www.xrdml.com/XRDMeasurement/2.3" xmlns:xsi="http://www.w3.org/2001/XMLSchema-instance" xsi:schemaLocation="http://www.xrdml.com/XRDMeasurement/2.3 http://www.xrdml.com/XRDMeasurement/2.3/XRDMeasurement.xsd" status="Completed" recordIdentifier="{2085B4B4-83B6-4A9B-BD2B-BD6359F3784C}">
	<comment>
		<entry/>
	</comment>
	<sample type="To be analyzed">
		<id>GPSS_Li1p7Mn0p8Nb0p05V0p15Cl4_111225_691549b847a6a0fd7c6580ca</id>
		<name></name>
		<preparedBy></preparedBy>
	</sample>
	<xrdMeasurement measurementType="Scan" status="Completed" sampleMode="Reflection">
		<usedWavelength intended="K-Alpha 1">
			<kAlpha1 unit="Angstrom">1.5405980</kAlpha1>
			<kAlpha2 unit="Angstrom">1.5444260</kAlpha2>
			<kBeta unit="Angstrom">1.3922500</kBeta>
			<ratioKAlpha2KAlpha1>0.5000</ratioKAlpha2KAlpha1>
		</usedWavelength>
		<incidentBeamPath>
			<radius unit="mm">145.00</radius>
			<xRayTube id="1010048" name="Empyrean Cu LFF HR (9430 033 7310x)">
				<tension unit="kV">40.0</tension>
				<current unit="mA">15.0</current>
				<anodeMaterial>Cu</anodeMaterial>
				<focus type="Line">
					<length unit="mm">12.0</length>
					<width unit="mm">0.4</width>
					<takeOffAngle unit="deg">6.0</takeOffAngle>
				</focus>
			</xRayTube>
			<sollerSlit id="21010002" name="Soller slits 0.04 rad.">
				<opening unit="rad">0.0400</opening>
			</sollerSlit>
			<mask id="22031000" name="Fixed mask 13 mm">
				<width unit="mm">9.00</width>
			</mask>
			<divergenceSlit id="22120001" name="Divergence slit 1°" xsi:type="fixedDivergenceSlitType">
				<distanceToSample unit="mm">50.00</distanceToSample>
				<height unit="mm">1.52</height>
			</divergenceSlit>
		</incidentBeamPath>
		<sampleMovement xsi:type="spinningSampleMovementType">
			<spinnerRevolutionTime unit="seconds">1.0</spinnerRevolutionTime>
		</sampleMovement>
		<diffractedBeamPath>
			<radius unit="mm">145.00</radius>
			<antiScatterSlit id="22090040" name="AS slit 9 mm (PIXcel)" xsi:type="fixedAntiScatterSlitType">
				<height unit="mm">9.00</height>
			</antiScatterSlit>
			<sollerSlit id="21020003" name="Large Soller slits 0.04 rad.">
				<opening unit="rad">0.0400</opening>
			</sollerSlit>
			<filter id="20030001" name="Large beta-filter Nickel">
				<material>Ni</material>
				<thickness unit="mm">0.020</thickness>
			</filter>
			<detector id="7010019" name="PIXcel1D-Medipix3 detector" xsi:type="rtmsDetectorType">
				<phd unit="keV">
					<lowerLevel>4.02</lowerLevel>
					<upperLevel>11.27</upperLevel>
				</phd>
				<mode>Scanning</mode>
				<activeLength unit="deg">5.542</activeLength>
			</detector>
		</diffractedBeamPath>
		<scan appendNumber="0" mode="Continuous" scanAxis="Gonio" status="Completed">
			<header>
				<startTimeStamp>2025-11-16T15:53:16-08:00</startTimeStamp>
				<endTimeStamp>2025-11-16T16:01:23-08:00</endTimeStamp>
				<author>
					<name>AutomatedUser</name>
				</author>
				<source>
					<applicationSoftware version="1.7b (136)">PANalytical Aeris Instrument Suite</applicationSoftware>
					<instrumentControlSoftware version="3.2.00000000 20240306">AERIS</instrumentControlSoftware>
					<instrumentID>950485</instrumentID>
				</source>
			</header>
			<dataPoints>
				<positions axis="2Theta" unit="deg">
					<startPosition>10.00943322</startPosition>
					<endPosition>99.99442286</endPosition>
				</positions>
				<positions axis="Omega" unit="deg">
					<startPosition>5.00471661</startPosition>
					<endPosition>49.99721143</endPosition>
				</positions>
				<commonCountingTime unit="seconds">12.495</commonCountingTime>
				<counts unit="counts">2881 2848 2859 2932 2857 2822 2841 2913 2846 2904 2799 2940 2937 2922 2916 2900 2898 2914 2952 2815 2911 2911 2868 2954 2989 3005 2872 2967 2969 2879 2895 2878 2891 2943 2948 2972 2887 2861 2993 2973 2929 2885 2881 2877 2964 2980 2924 2941 2965 2852 2944 2821 2908 2922 2963 2972 3021 2911 3029 2952 2939 3053 2900 2943 2865 2967 3000 2997 2937 2995 2996 3082 2949 2931 3118 3058 3118 3096 3037 3022 3012 3103 3072 3124 3116 3134 3064 3109 3009 3074 3031 3114 3081 3147 3169 3122 3140 3139 3129 3099 3063 3138 3101 3145 3138 3205 3115 3143 3212 3203 3120 3124 3261 3224 3160 3146 3274 3104 3144 3085 3178 3151 3143 3238 3180 3245 3287 3179 3234 3121 3238 3144 3241 3338 3148 3229 3191 3269 3282 3204 3108 3184 3310 3233 3207 3230 3165 3236 3155 3253 3203 3143 3245 3262 3223 3204 3089 3125 3251 3209 3105 3135 3128 3102 3194 3231 3218 3107 3141 3348 3173 3236 3148 3160 3237 3277 3260 3164 3295 3361 3150 3136 3237 3182 3211 3183 3290 3180 3243 3214 3309 3201 3158 3109 3218 3219 3233 3208 3250 3201 3215 3315 3137 3203 3211 3175 3200 3181 3317 3370 3320 3100 3144 3134 3121 3254 3105 3187 3197 3172 3132 3121 3121 3217 3078 3218 3222 3197 3237 3269 3107 3067 3142 3224 3236 3189 3221 3149 3115 3187 3163 3086 3096 3181 3108 3117 3273 3097 3162 3186 3175 3144 3104 3059 3188 3119 3132 3181 3182 3299 3160 3116 3255 3093 3128 3232 3145 3168 3088 3126 3128 3202 3149 3120 3052 3023 3093 3103 3100 3153 3071 3124 3138 3193 3181 3080 3150 3142 3142 3120 3138 3059 3061 3073 3049 3097 3089 3112 3142 3142 3135 3017 3166 3046 3172 3111 3094 3116 3161 3197 3133 3222 3044 3155 3031 3156 3139 3109 3203 3224 3090 3213 3310 3214 3165 3135 3245 3108 3253 3278 3257 3197 3178 3218 3170 3135 3228 3186 3232 3221 3253 3077 3192 3275 3215 3252 3242 3250 3243 3235 3222 3216 3319 3199 3328 3280 3404 3361 3263 3373 3356 3364 3428 3305 3348 3202 3275 3277 3394 3329 3273 3270 3386 3334 3437 3277 3420 3259 3353 3285 3330 3319 3276 3507 3331 3439 3394 3472 3379 3421 3419 3516 3483 3520 3392 3500 3558 3499 3614 3466 3486 3445 3584 3680 3602 3595 3637 3682 3734 3657 3717 3785 3821 3809 3969 4062 4033 3976 4123 4196 4205 4097 4219 4215 4136 4157 4115 4176 4271 4221 4275 4216 4267 4325 4250 4338 4327 4343 4384 4250 4228 4217 4260 4220 4208 4046 4179 4076 4142 4176 4073 4082 4098 4140 4053 3900 3986 3925 3994 3977 3967 3822 3878 3848 3729 3751 3810 3622 3633 3510 3717 3478 3527 3608 3572 3468 3570 3604 3548 3583 3585 3411 3370 3401 3479 3482 3420 3422 3316 3312 3384 3496 3331 3402 3434 3408 3343 3388 3412 3514 3367 3353 3285 3339 3417 3412 3361 3302 3318 3159 3286 3265 3320 3255 3329 3379 3268 3303 3330 3310 3337 3287 3288 3274 3226 3248 3084 3300 3125 3220 3256 3173 3141 3259 3172 3353 3249 3183 3075 3278 3157 3166 3182 3112 3142 3081 3203 3094 3277 3141 3162 3065 3101 3060 3233 3086 3256 3134 3184 3056 3088 3067 2989 3068 3055 3092 3153 3104 3127 3043 3113 3076 3031 3183 3035 2976 3075 3116 2957 3133 2967 3033 2938 3061 3067 2942 2971 3065 2970 3037 2926 3043 3047 3061 2998 2923 2937 2930 3026 2917 2979 2940 2946 2976 2974 2928 3006 2900 2971 3030 2906 2961 2880 2971 2949 2923 2989 2919 3006 2960 2986 2998 2975 2884 2945 2960 3014 2958 2956 2936 3005 3042 2919 2936 2952 2900 2918 3009 2953 2950 2906 2905 2971 2907 2844 2985 2821 2880 2910 3017 2999 2770 2826 2910 2891 2942 2950 2921 2869 2892 2906 2910 2738 2824 3047 2922 2816 2812 2988 2901 2891 2904 2876 2861 2838 2923 2807 2868 2927 2810 2947 2909 2935 2888 2875 2856 2912 2883 2853 2989 2841 2841 2862 2983 2896 2852 2831 2813 2885 2849 2859 2763 2796 2783 2835 2884 2869 2894 2930 2916 2813 2829 2748 2845 2797 2885 2757 2857 2804 2818 2906 2800 2817 2879 2730 2894 2823 2821 2780 2833 2867 2810 2890 2810 2817 2838 2724 2821 2877 2891 2878 2740 2868 2796 2747 2724 2821 2713 2775 2780 2735 2775 2888 2775 2739 2848 2888 2724 2775 2794 2839 2847 2733 2843 2782 2764 2834 2811 2707 2730 2793 2858 2718 2795 2845 2802 2810 2773 2712 2831 2722 2757 2855 2761 2649 2695 2700 2724 2717 2708 2787 2773 2783 2795 2665 2789 2679 2749 2746 2759 2759 2793 2815 2684 2758 2783 2768 2797 2853 2672 2751 2699 2681 2806 2771 2774 2775 2732 2782 2702 2694 2696 2780 2737 2590 2700 2834 2758 2721 2642 2804 2665 2671 2720 2716 2647 2633 2728 2720 2822 2753 2743 2721 2673 2637 2623 2746 2675 2645 2658 2676 2779 2578 2667 2621 2649 2687 2750 2613 2598 2620 2633 2753 2596 2644 2633 2758 2593 2610 2675 2588 2613 2649 2790 2709 2683 2779 2670 2596 2736 2646 2616 2558 2616 2634 2660 2734 2696 2553 2688 2713 2589 2591 2694 2573 2628 2656 2715 2574 2644 2653 2662 2638 2602 2553 2603 2550 2640 2706 2553 2629 2576 2688 2508 2603 2721 2649 2615 2550 2607 2591 2686 2474 2555 2583 2447 2684 2609 2576 2553 2629 2496 2615 2584 2595 2462 2559 2565 2534 2540 2518 2559 2458 2619 2593 2541 2583 2539 2574 2571 2536 2707 2567 2527 2517 2445 2475 2567 2515 2535 2554 2557 2503 2537 2589 2560 2547 2624 2667 2620 2603 2523 2527 2615 2521 2585 2583 2452 2492 2577 2558 2522 2519 2551 2574 2605 2545 2479 2468 2528 2615 2414 2529 2387 2589 2557 2627 2533 2558 2456 2566 2551 2528 2476 2612 2529 2574 2521 2494 2607 2539 2582 2584 2514 2545 2450 2446 2509 2468 2489 2432 2526 2564 2562 2576 2616 2569 2546 2518 2531 2505 2445 2527 2508 2503 2581 2578 2549 2478 2552 2397 2528 2518 2436 2567 2643 2513 2500 2550 2569 2475 2527 2560 2570 2593 2597 2669 2568 2548 2536 2476 2707 2511 2534 2574 2505 2567 2496 2503 2533 2528 2609 2613 2566 2562 2552 2584 2600 2497 2590 2455 2595 2593 2530 2562 2577 2541 2568 2577 2670 2606 2485 2667 2550 2469 2554 2528 2444 2566 2552 2582 2567 2475 2532 2624 2488 2509 2482 2487 2570 2519 2522 2478 2527 2505 2586 2517 2563 2541 2508 2566 2509 2629 2533 2439 2479 2536 2517 2542 2503 2499 2474 2569 2454 2508 2411 2593 2455 2523 2405 2500 2491 2392 2428 2395 2398 2384 2499 2476 2491 2297 2344 2375 2385 2437 2465 2491 2427 2373 2368 2398 2361 2352 2457 2465 2367 2406 2353 2406 2367 2359 2383 2316 2377 2303 2278 2306 2367 2310 2344 2312 2334 2319 2322 2362 2276 2353 2294 2327 2320 2379 2285 2342 2278 2321 2327 2255 2209 2337 2266 2330 2212 2221 2303 2413 2390 2251 2313 2222 2295 2213 2274 2173 2209 2231 2218 2274 2164 2192 2217 2182 2265 2233 2225 2268 2192 2274 2224 2155 2174 2115 2148 2221 2170 2165 2226 2111 2168 2161 2040 2141 2231 2158 2144 2059 2081 2102 2156 2059 2150 2132 2217 2072 2166 2120 2043 2125 2131 2082 2050 2130 2127 2040 2038 2063 2066 2140 2047 2046 2018 2064 2075 1976 2048 2138 2066 2034 2012 2062 2093 2042 2005 2015 1953 2029 1998 2038 2039 2064 1991 2038 1952 1938 2057 2024 2046 2030 1954 1963 2052 2085 1991 2020 2002 1987 1939 1931 2085 1962 1882 1950 1952 1945 2008 1953 2007 1981 1928 1988 1820 1897 1929 1926 1897 1939 1926 1998 1962 1997 1891 1937 1949 1934 1889 1874 1900 1902 1840 1921 1935 1937 1935 1971 1872 1884 1865 2047 1834 1948 1928 1869 1977 1931 1885 1905 1909 1974 1975 1968 1896 1998 1853 1966 1918 1807 1882 1817 1948 1885 1946 1838 1893 1825 1907 1830 1841 1901 1894 1963 1879 1931 1959 1903 1880 1902 1966 1885 1848 1923 1892 1972 1955 1870 1929 1913 1778 1905 1886 1871 1867 1818 1884 1935 1948 1927 1915 1914 1845 1877 1921 1888 1817 1865 1868 1812 1930 1848 1887 1889 1943 1869 1911 1876 1882 1938 1921 1904 1826 1921 1879 1866 1895 1877 1911 1892 1928 1885 1908 1898 1853 1861 1902 1974 1941 1938 1941 1968 1910 1934 1977 1795 1931 1872 1869 1960 1825 2004 1932 1864 1834 1909 1890 1954 1973 1891 1993 1971 1948 1822 1922 1859 1907 1830 1949 1893 1902 1942 1899 1833 1883 1928 1986 1934 1938 1854 1881 1958 1917 1947 1969 1916 1922 1869 1945 1970 1844 1852 1986 1998 1851 1885 1901 1842 1919 1888 1896 1926 1914 1880 1900 1872 1851 1859 1871 1877 1880 1928 1934 1899 1909 1841 1864 1907 1965 1826 1841 1853 1933 1887 1820 1865 1876 1893 1918 1888 1890 1850 1877 1794 1880 1792 1872 1818 1906 1810 1821 1914 1835 1904 1888 1853 1744 1871 1818 1861 1720 1778 1871 1747 1803 1811 1841 1824 1760 1779 1782 1761 1747 1799 1815 1810 1801 1765 1721 1722 1838 1811 1808 1745 1775 1708 1781 1697 1774 1839 1766 1787 1720 1648 1757 1721 1725 1850 1715 1679 1664 1734 1682 1763 1705 1639 1686 1758 1722 1817 1662 1632 1666 1668 1578 1661 1694 1689 1726 1607 1687 1773 1720 1617 1709 1665 1678 1615 1685 1580 1655 1696 1631 1649 1636 1634 1633 1660 1546 1666 1635 1725 1587 1603 1682 1671 1626 1648 1637 1664 1657 1569 1633 1743 1665 1700 1667 1708 1716 1726 1717 1751 1769 1819 1837 1873 1922 1905 1967 1999 2017 2085 2041 2138 2197 2153 2229 2331 2391 2304 2340 2262 2305 2332 2323 2271 2382 2266 2340 2356 2250 2237 2221 2192 2202 2107 2227 2041 2069 2074 2047 2109 1941 2024 2077 1950 1961 1947 1956 1805 1868 1845 1853 1829 1845 1849 1798 1773 1738 1641 1779 1726 1663 1643 1682 1682 1586 1585 1620 1636 1545 1524 1624 1559 1627 1561 1569 1563 1514 1509 1528 1559 1588 1555 1539 1473 1565 1514 1422 1527 1502 1563 1506 1495 1478 1452 1434 1489 1527 1514 1496 1552 1504 1493 1505 1539 1553 1508 1628 1669 1575 1603 1560 1662 1607 1605 1655 1649 1632 1840 1856 1953 2030 2009 2116 2178 2235 2403 2408 2644 2703 2763 2808 2976 3102 3087 3232 3266 3284 3392 3412 3492 3487 3392 3398 3422 3455 3290 3390 3162 3239 3205 3170 3145 2842 2969 3002 2801 2722 2700 2689 2610 2537 2534 2568 2382 2462 2426 2400 2325 2323 2129 2287 2166 2148 2062 2112 2089 2033 1986 1943 1956 1750 1816 1779 1760 1727 1647 1627 1628 1571 1615 1625 1586 1597 1553 1492 1532 1486 1495 1513 1439 1454 1404 1421 1445 1470 1372 1373 1370 1363 1416 1408 1381 1336 1360 1356 1393 1370 1373 1359 1369 1274 1315 1347 1242 1358 1281 1307 1351 1312 1373 1390 1322 1320 1363 1352 1303 1362 1313 1399 1287 1337 1331 1316 1251 1302 1324 1353 1350 1318 1368 1344 1320 1271 1321 1314 1316 1344 1305 1303 1312 1292 1242 1331 1253 1328 1286 1279 1271 1301 1282 1269 1291 1295 1319 1253 1301 1265 1370 1319 1326 1238 1302 1295 1231 1277 1245 1282 1231 1204 1233 1259 1238 1230 1278 1300 1296 1239 1237 1284 1288 1257 1295 1257 1247 1256 1248 1232 1218 1205 1275 1239 1251 1208 1227 1250 1249 1223 1304 1315 1316 1226 1212 1262 1245 1249 1230 1221 1200 1239 1204 1217 1256 1208 1230 1225 1262 1270 1250 1196 1197 1188 1217 1263 1310 1243 1206 1195 1229 1205 1276 1226 1211 1273 1200 1292 1272 1240 1273 1259 1217 1297 1292 1157 1181 1239 1260 1224 1190 1272 1228 1210 1167 1278 1226 1265 1258 1286 1226 1198 1166 1213 1217 1176 1218 1221 1228 1183 1232 1234 1240 1270 1234 1211 1233 1245 1294 1253 1192 1214 1228 1289 1215 1232 1226 1203 1195 1288 1251 1295 1264 1218 1199 1274 1243 1311 1257 1297 1236 1308 1204 1264 1270 1281 1237 1250 1280 1276 1278 1227 1231 1288 1296 1282 1285 1296 1205 1236 1149 1236 1217 1269 1259 1249 1245 1266 1260 1232 1242 1292 1270 1214 1193 1218 1254 1272 1298 1195 1266 1229 1309 1244 1242 1248 1308 1244 1283 1264 1314 1263 1247 1307 1240 1207 1233 1265 1242 1273 1279 1287 1218 1246 1290 1239 1292 1321 1324 1330 1218 1275 1275 1271 1253 1225 1229 1303 1240 1311 1217 1311 1377 1277 1261 1324 1249 1323 1281 1323 1365 1286 1300 1351 1263 1298 1302 1281 1333 1293 1298 1241 1334 1312 1282 1352 1305 1387 1346 1314 1386 1332 1347 1465 1348 1472 1469 1438 1377 1484 1405 1522 1532 1537 1648 1683 1736 1841 1855 1960 2129 2239 2333 2538 2629 2832 3020 3178 3381 3664 3843 4105 4382 4462 4915 5031 5285 5556 5685 5961 6074 6227 6543 6479 6644 6591 6720 6744 6688 6567 6526 6450 6368 6411 6097 6063 5853 5860 5682 5501 5148 4933 4902 4792 4674 4418 4400 4204 4111 4010 3909 3702 3722 3473 3570 3298 3120 3147 2968 2925 2827 2701 2591 2501 2380 2329 2206 2129 2101 2027 1956 1855 1797 1787 1720 1659 1651 1617 1590 1602 1528 1548 1473 1553 1427 1500 1500 1371 1308 1393 1378 1240 1349 1314 1299 1300 1293 1272 1277 1254 1241 1299 1202 1254 1183 1212 1238 1211 1227 1283 1195 1198 1216 1182 1213 1232 1250 1135 1158 1228 1125 1107 1131 1125 1131 1152 1165 1142 1165 1120 1131 1135 1175 1104 1087 1206 1160 1148 1126 1180 1117 1155 1107 1130 1114 1139 1163 1168 1130 1099 1174 1137 1140 1169 1111 1066 1065 1138 1105 1118 1137 1134 1168 1164 1149 1047 1168 1157 1150 1182 1167 1085 1125 1179 1097 1152 1127 1119 1130 1138 1161 1118 1136 1160 1096 1115 1125 1092 1077 1121 1100 1154 1174 1121 1124 1123 1145 1128 1108 1124 1091 1167 1129 1138 1109 1167 1112 1134 1124 1102 1106 1182 1135 1106 1112 1092 1077 1137 1144 1091 1078 1089 1130 1117 1155 1097 1075 1029 1103 1200 1117 1082 1111 1103 1176 1122 1030 1079 1113 1055 1071 1089 1043 1075 1136 1035 1098 1065 1099 1136 1108 1095 1088 1161 1141 1012 1069 1081 1115 1065 1059 1104 1061 1098 1083 1079 1066 1061 1067 1039 1116 1095 1044 1051 1139 1071 1037 1003 1049 1070 1057 1095 1024 1069 1122 1070 1139 1094 1034 1139 1080 1104 1026 1033 1143 1125 1091 1088 1065 1126 1135 1075 1077 1026 1098 1157 1111 1124 1135 1142 1173 1117 1126 1157 1107 1146 1095 1153 1123 1135 1141 1184 1098 1128 1115 1135 1139 1119 1087 1135 1045 1100 1075 1079 1090 1115 1122 1075 1050 1101 1043 1068 1128 1050 1060 1080 1080 1025 1087 1067 1082 1072 1094 1101 1035 1131 1057 1083 998 1088 1031 1090 1046 1086 1029 1052 1005 1025 1071 1088 1065 1055 1031 1078 981 1023 995 1016 1051 1048 1092 1054 1013 1069 1060 1051 1017 1012 1014 1002 1026 981 1028 1024 1017 1004 960 1008 1054 1051 1029 1037 1024 1000 990 998 985 1003 1036 1001 1004 1067 1065 1037 1056 983 984 971 994 1028 1024 989 1045 1014 992 1006 1043 1012 1010 931 1046 974 1005 965 953 1009 976 1089 977 992 1026 1007 987 1063 979 1010 1033 988 1025 966 966 1041 1013 976 1040 1036 975 1019 968 1047 974 1023 989 982 978 1030 996 1000 1104 1005 1018 1010 1031 977 1007 1041 996 998 1009 1044 969 1001 1023 974 986 1037 985 1014 967 984 1073 993 1003 1031 1041 993 1032 996 958 1044 935 985 987 1006 964 949 989 996 952 1025 919 1048 979 1033 1011 976 980 997 1018 992 975 990 992 974 1005 973 981 975 1021 1006 1024 990 1080 992 1012 971 1015 1083 887 1013 973 988 975 987 983 926 979 1001 887 978 1013 975 994 957 974 975 1023 1015 964 956 960 1049 961 982 1004 991 1042 945 1024 989 996 969 909 948 1017 1000 980 975 979 968 1020 1025 1074 998 988 945 922 974 971 994 976 989 1050 1050 955 963 995 1020 1007 992 967 961 980 1002 962 974 966 1021 1006 965 1002 1001 940 995 998 997 911 1021 934 978 981 932 985 936 992 954 1007 1003 954 944 920 980 984 922 1047 924 963 1025 954 1006 960 948 1032 1033 995 1008 980 989 967 997 939 970 1008 960 1012 988 995 922 965 974 971 1020 987 989 1029 998 1036 983 980 957 947 925 977 993 1023 994 968 936 954 989 981 1018 905 942 947 961 1043 957 921 1014 970 954 894 975 929 971 963 908 953 948 977 994 905 972 944 987 1044 969 1001 926 922 991 1020 958 932 1046 992 963 930 985 983 969 894 961 995 955 902 966 952 895 962 955 943 926 980 998 935 957 904 916 900 1009 971 991 921 939 991 1011 958 1005 974 998 912 919 964 1009 994 979 1046 984 977 970 962 993 972 910 964 985 954 986 941 954 955 953 1012 1025 983 952 913 1031 971 982 1015 994 976 991 1005 1021 949 940 944 903 984 928 923 993 945 961 928 902 964 948 972 969 957 969 1001 982 928 965 1005 908 1021 1033 992 1005 951 1010 1007 973 974 983 973 918 934 868 1022 968 942 903 988 975 996 1008 966 944 969 1011 983 990 906 931 993 1005 954 1004 1016 983 987 925 999 1029 970 971 955 1018 947 982 989 938 970 986 1007 953 956 975 955 954 918 1004 968 999 986 956 953 991 974 950 972 937 942 942 950 910 972 967 1061 905 963 973 983 949 955 964 1020 938 952 945 997 996 902 945 945 921 902 1013 937 941 941 965 986 923 960 968 1006 968 935 1001 966 926 961 996 992 1005 953 974 979 987 1002 939 1020 941 979 959 1001 934 961 954 942 1021 1036 958 982 937 981 971 994 922 906 1026 1025 975 946 960 932 974 986 1019 948 1011 941 979 1029 997 964 990 1023 954 982 1007 872 969 984 980 972 1029 954 1000 934 1011 1030 1114 1006 1027 1041 1005 1019 1044 1068 1089 1125 1106 1109 1165 1209 1199 1201 1242 1204 1281 1248 1340 1425 1392 1390 1464 1454 1445 1447 1520 1545 1465 1563 1606 1599 1567 1574 1562 1634 1525 1588 1622 1463 1448 1581 1483 1469 1453 1372 1335 1392 1338 1398 1394 1266 1267 1296 1285 1232 1224 1232 1198 1149 1157 1119 1167 1109 1073 1092 1072 1053 1106 1071 1112 1001 987 1041 1004 1037 945 1022 980 982 951 989 1008 962 966 1013 980 939 938 954 1005 913 960 945 959 934 967 908 972 923 926 944 981 970 989 860 898 921 924 925 957 979 959 939 918 987 920 947 961 891 958 963 911 990 930 947 926 881 987 968 953 921 901 981 986 915 920 926 992 934 952 979 928 920 946 942 975 967 914 934 929 951 930 976 909 972 917 953 909 919 921 934 923 959 916 872 935 914 902 913 888 997 933 943 932 968 954 949 940 914 885 950 883 944 912 963 887 975 891 884 941 952 936 939 977 907 943 875 949 913 917 843 903 944 961 914 886 925 936 900 934 979 917 929 952 907 880 928 956 992 945 922 866 899 933 837 964 901 923 935 969 945 935 940 882 963 901 916 901 916 909 930 936 913 946 972 969 924 978 943 984 919 974 904 913 940 906 956 922 969 990 964 960 1077 1007 921 915 960 959 933 904 962 907 952 940 965 910 915 955 929 930 991 914 916 904 966 995 881 956 975 963 931 1000 934 967 935 999 963 952 985 903 926 931 986 923 953 948 922 985 921 937 1005 979 922 892 903 966 976 921 1009 897 923 956 924 919 984 944 910 945 1051 964 909 954 998 996 981 923 943 954 968 949 979 1031 963 969 967 923 950 935 908 956 985 941 1020 1017 995 1012 969 996 960 1024 1026 1062 1004 1019 960 1072 1024 1007 980 1018 1034 1047 1062 1055 1021 1041 1108 1088 1137 1070 1053 1171 1100 1167 1182 1129 1244 1252 1270 1295 1373 1437 1480 1543 1635 1613 1813 1910 1920 1963 2099 2263 2239 2373 2496 2595 2726 2981 3051 3275 3367 3441 3570 3753 3802 3916 4042 4075 4121 4171 4177 4230 4272 4379 4311 4209 4272 4188 4257 4114 4012 4094 3886 3762 3507 3445 3276 3246 3181 3001 3053 2850 2724 2680 2674 2527 2341 2303 2170 2080 2077 1889 1918 1793 1817 1806 1560 1569 1550 1413 1461 1428 1415 1298 1277 1306 1248 1241 1262 1207 1190 1154 1177 1116 1095 1128 1079 1102 1117 1072 1106 1088 1095 1074 1131 1084 1099 1089 1068 1062 1139 1002 1064 1088 1030 1050 1025 1034 969 1017 970 1013 971 1006 1021 990 1029 964 996 1017 982 956 997 973 936 1005 961 1006 969 982 1017 903 922 916 966 929 969 962 872 925 901 958 924 900 950 906 921 871 968 881 930 970 944 904 955 921 868 876 1007 929 1000 989 944 913 998 940 907 944 927 887 882 961 904 929 883 900 944 869 984 889 907 943 909 941 913 929 922 896 888 938 897 937 953 882 881 913 943 971 932 913 899 880 872 899 918 948 902 891 915 944 949 946 927 969 960 959 926 931 922 942 1001 911 968 976 987 982 995 985 993 1009 966 1013 1014 1005 1000 998 1028 1046 1029 1078 1154 1166 1153 1159 1162 1151 1181 1220 1172 1198 1223 1262 1245 1252 1228 1172 1221 1280 1233 1196 1226 1193 1166 1240 1213 1174 1123 1147 1162 1170 1155 1131 1127 1068 1068 1040 1113 1037 1033 1012 1041 1003 912 983 1010 954 999 989 966 975 986 935 937 916 930 948 891 895 897 960 912 941 911 947 947 938 953 931 926 914 937 939 923 960 904 942 911 883 880 905 865 928 895 924 948 935 895 900 926 922 857 842 913 841 863 938 879 883 941 864 939 848 923 915 889 892 855 850 870 848 906 907 911 937 872 875 878 828 845 888 864 900 880 867 883 866 909 886 856 881 863 842 893 883 811 880 871 863 903 870 869 884 874 850 836 884 848 849 878 855 846 851 848 892 900 907 912 846 879 848 866 843 823 808 878 842 882 889 910 818 842 856 851 864 828 805 828 857 831 839 835 839 871 807 874 850 863 828 820 843 817 856 829 818 836 871 859 891 875 926 836 841 909 881 847 905 912 850 857 882 858 842 792 862 875 819 835 825 867 840 825 926 833 890 839 781 848 834 874 871 855 850 812 865 820 860 882 828 877 789 817 884 869 821 822 804 814 848 827 816 875 828 879 834 833 787 840 840 818 794 857 844 820 823 887 893 848 817 850 866 866 806 827 836 830 843 864 851 839 891 784 844 865 856 857 846 838 894 812 909 835 846 859 880 836 849 847 804 903 826 854 827 892 831 758 876 851 815 791 836 828 818 880 782 849 845 863 819 783 864 856 840 858 847 796 832 834 795 869 805 848 895 821 824 834 830 842 790 885 887 796 785 813 819 850 845 828 799 811 846 836 835 842 814 859 831 842 872 819 840 826 835 809 808 816 898 813 817 831 827 814 855 799 814 831 874 830 901 802 803 843 862 833 850 840 845 863 874 802 909 855 826 834 834 806 779 821 855 830 837 857 803 805 850 814 788 901 859 812 863 816 831 800 807 841 796 850 791 821 752 885 812 803 838 933 823 799 803 830 815 805 803 851 886 798 815 819 836 826 814 848 877 856 843 821 820 779 842 812 769 834 796 817 759 872 785 848 800 883 820 808 837 838 857 800 793 820 825 828 829 790 852 776 829 830 860 892 767 840 794 762 833 877 765 793 813 841 811 825 842 839 831 812 798 828 855 839 803 819 809 800 793 861 797 822 814 818 826 805 920 808 782 812 790 818 840 836 795 776 815 878 816 774 791 805 810 862 902 881 846 815 840 807 817 860 814 838 862 814 840 797 859 806 892 891 828 837 856 823 869 801 900 871 825 904 849 865 881 860 879 911 889 838 913 855 850 949 890 857 890 858 885 902 928 909 860 899 941 911 845 906 951 942 931 931 908 880 884 918 927 916 912 854 836 914 860 939 842 845 841 903 825 886 875 886 883 869 878 918 953 896 916 870 961 949 960 996 989 1016 1005 981 1011 1088 1039 1137 1092 1032 1042 1140 1101 1190 1120 1178 1124 1159 1244 1241 1137 1253 1223 1258 1281 1281 1272 1269 1277 1256 1225 1264 1205 1206 1192 1196 1167 1158 1129 1201 1176 1147 1195 1119 1084 1103 1051 1083 1095 1079 1008 1014 960 1051 1000 984 935 948 898 964 975 858 918 882 882 863 855 888 832 879 861 893 870 851 838 847 867 834 861 839 861 885 791 835 828 855 825 859 824 878 809 855 829 788 854 871 792 840 788 842 788 844 860 839 852 870 823 820 834 876 825 852 866 899 872 835 805 837 846 828 770 830 781 800 820 829 878 887 850 867 848 833 859 807 867 822 857 870 846 812 875 861 806 781 773 829 797 801 826 839 794 785 793 825 835 833 774 800 711 817 821 810 844 820 783 831 809 846 818 840 815 803 844 792 838 822 829 826 844 828 811 790 870 732 816 807 795 812 830 812 820 814 823 833 774 813 824 795 768 802 788 859 807 832 840 806 793 756 816 801 811 831 788 837 819 861 848 843 827 818 783 846 812 802 828 871 829 821 830 831 856 776 804 826 784 818 803 869 783 833 880 848 851 871 860 851 855 831 900 873 902 840 903 861 902 967 1016 958 987 1005 1019 1024 1062 1026 1082 1106 1126 1098 1157 1063 1119 1195 1161 1183 1268 1312 1285 1419 1354 1399 1419 1419 1446 1483 1507 1592 1515 1599 1526 1603 1519 1577 1576 1626 1539 1574 1573 1525 1564 1525 1494 1556 1518 1456 1394 1413 1400 1394 1442 1334 1341 1324 1229 1156 1248 1162 1192 1108 1094 1061 1069 1053 1053 1010 939 1048 1009 947 942 984 961 906 924 910 911 912 883 899 902 843 813 862 818 877 842 798 840 834 891 830 822 832 848 833 783 862 810 820 840 913 827 829 883 793 889 811 820 868 805 860 805 823 826 773 809 814 841 805 836 815 824 897 825 863 806 802 904 818 846 772 829 802 841 811 849 830 884 841 789 805 786 783 836 762 825 831 843 794 856 836 801 767 780 782 750 801 795 800 839 803 798 782 812 787 795 770 811 844 854 790 815 813 794 815 828 820 828 782 825 800 820 850 790 802 796 793 819 816 859 869 802 841 842 901 804 844 864 863 851 824 833 854 874 896 924 845 888 896 961 872 910 910 919 887 905 962 970 906 928 906 955 1033 963 974 1009 1042 980 906 965 1003 986 982 992 998 1024 978 971 989 974 976 948 901 914 981 910 924 886 870 931 811 915 842 855 844 855 865 852 814 851 806 816 825 808 836 866 844 853 758 781 773 805 815 856 736 795 792 755 800 797 775 810 848 761 785 775 773 814 756 789 772 796 803 826 758 807 799 817 825 821 834 781 814 783 825 795 778 798 787 798 775 782 833 837 815 782 794 788 795 756 802 809 785 804 696 766 783 747 780 765 795 816 814 758 725 729 774 794 822 779 824 718 831 804 831 796 802 790 763 799 820 851 825 793 767 831 777 803 796 793 749 737 778 810 766 757 770 805 793 755 799 749 820 793 742 787 833 763 812 815 798 800 780 767 792 757 723 782 758 750 764 762 799 786 768 797 841 789 733 767 769 796 786 745 801 760 747 757 739 795 784 770 738 777 797 739 819 714 774 768 781 751 777 785 787 758 763 762 767 774 805 735 788 764 778 785 767 737 776 767 776 713 765 736 777 824 793 776 777 797 763 762 743 793 732 773 789 741 783 805 763 769 736 806 815 791 749 813 767 819 749 749 727 790 785 801 844 776 818 719 821 791 758 816 759 752 773 762 780 793 756 788 735 777 736 781 759 764 775 773 784 787 767 747 752 781 689 748 751 775 813 761 770 713 770 797 775 752 747 775 751 813 772 725 753 720 817 791 778 764 774 748 729 778 738 819 772 803 722 779 742 741 754 736 768 791 772 772 775 773 804 778 691 761 790 801 779 772 825 753 759 781 765 797 739 781 805 768 788 735 789 758 741 752 759 796 736 769 731 773 744 805 748 753 769 802 828 707 800 792 756 750 780 745 764 776 737 802 766 797 773 806 795 786 789 768 791 741 752 750 786 744 763 787 816 828 785 785 810 754 723 777 754 788 760 772 770 777 762 797 746 770 746 766 778 756 771 720 743 759 787 731 824 805 799 769 769 764 746 755 686 813 743 782 760 779 780 741 822 733 748 760 748 783 742 731 735 764 735 806 776 768 786 759 752 812 791 774 737 798 727 771 731 799 751 762 766 783 738 778 797 790 798 761 802 812 796 788 809 735 807 767 832 857 860 806 761 850 839 804 823 796 836 806 858 881 871 859 840 817 843 813 931 855 915 888 885 855 880 887 808 841 848 909 834 891 877 849 841 864 823 807 843 829 831 830 833 785 842 805 854 812 814 799 825 774 777 779 777 794 794 846 811 785 806 757 770 755 725 820 733 755 740 770 787 775 822 770 774 786 791 759 713 779 809 776 747 767 751 744 736 763 756 772 765 790 806 758 779 810 734 756 772 708 730 772 717 790 742 762 781 812 800 769 770 787 813 737 776 728 742 733 747 803 754 814 786 769 791 784 738 711 775 742 796 704 716 754 752 728 761 729 765 738 704 763 766 783 716 773 748 825 710 749 744 739 762 752 760 741 758 708 725 775 742 739 800 774 802 719 744 761 784 766 752 743 724 693 703 728 751 774 758 785 749 748 769 785 679 769 700 756 677 739 743 774 720 772 826 730 731 695 741 775 802 769 753 770 753 749 783 701 740 761 788 732 719 775 710 756 732 736 742 766 696 796 759 745 705 800 761 742 758 764 806 796 726 761 768 753 700 753 760 766 755 739 724 753 793 748 772 786 715 758 751 778 830 754 723 739 769 790 760 772 812 758 774 748 781 823 743 761 755 777 759 743 751 778 747 774 741 755 750 785 809 755 769 758 787 853 818 860 819 870 800 897 881 907 856 915 864 906 918 916 894 908 889 912 913 932 987 947 924 899 920 933 968 977 957 924 1014 1017 1013 1054 1049 1046 1040 1039 1027 1056 1061 1013 1088 1058 1064 1048 1049 1014 1046 1009 964 1026 977 1014 990 957 978 905 928 918 957 966 888 899 906 906 948 861 939 863 894 808 807 840 840 816 837 850 785 804 767 820 789 872 774 822 820 772 786 811 810 823 754 790 803 720 748 752 793 748 790 762 740 730 746 831 739 779 733 740 769 764 794 764 710 746 725 766 761 802 753 710 779 749 809 754 764 839 818 723 801 801 746 803 769 746 760 731 731 764 776 843 782 735 749 742 759 771 739 772 708 714 724 741 782 774 784 743 756 791 734 716 734 765 741 769 750 725 772 713 777 757 739 783 756 778 779 759 787 795 759 781 775 730 757 752 747 720 736 713 713 770 744 794 747 751 755 742 749 783 651 781 783 744 708 739 724 708 744 777 778 780 760 760 719 772 725 752 766 773 741 762 813 725 726 750 772 731 727 757 773 776 794 770 753 793 736 752 765 750 727 764 750 717 754 754 701 754 725 728 775 712 747 721 726 818 726 732 766 715 789 753 747 738 770 745 758 744 759 721 772 779 739 759 749 765 732 771 753 732 787 775 755 697 775 658 706 773 785 752 725 759 719 800 730 767 730 722 778 735 768 795 727 750 715 744 766 737 731 704 745 705 740 688 764 709 765 721 760 720 754 709 752 774 743 746 793 748 704 766 768 775 776 741 768 756 709 745 713 783 756 813 713 768 787 738 731 727 775 719 774 805 801 710 752 743 694 729 727 773 723 709 750 748 689 719 742 746 698 698 711 694 728 710 717 716 732 775 733 743 762 704 695 744 746 760 719 769 787 696 770 742 706 699 772 776 729 734 781 771 740 742 756 714 758 745 770 742 757 746 778 719 769 749 755 678 706 729 735 725 785 707 721 744 734 735 743 776 774 734 763 796 753 756 747 743 738 714 727 801 733 692 838 762 734 724 730 722 809 770 742 690 804 773 709 792 777 795 777 707 755 733 744 714 735 707 777 714 793 756 780 728 705 743 703 790 751 699 728 686 740 747 747 736 756 726 741 769 682 698 784 706 781 809 770 720 772 796 706 744 729 717 762 693 758 777 751 744 752 702 734 734 753 723 724 737 762 760 715 731 763 736 768 760 762 781 732 722 711 747 695 719 712 751 779 772 776 760 761 703 714 783 731 755 710 721 753 761 767 753 747 763 739 747 766 764 756 726 788 664 765 790 761 710 760 689 750 756 761 714 726 770 734 705 802 749 698 718 705 735 745 794 706 776 728 687 748 723 761 714 688 769 752 744 738 761 801 745 742 794 742 728 792 757 761 761 754 745 758 720 765 753 759 755 739 712 719 722 774 794 748 739 741 779 712 721 751 776 793 742 763 767 723 795 744 746 719 735 741 767 754 771 772 718 783 782 731 769 775 780 772 849 776 809 787 845 804 805 793 769 790 803 785 788 798 823 778 793 722 818 804 795 778 763 763 811 818 809 784 831 815 865 789 872 833 831 859 832 860 803 821 849 822 842 888 813 845 817 793 853 766 809 835 829 836 844 811 874 866 777 826 825 857 830 800 832 785 844 838 821 901 814 857 846 803 852 835 824 755 819 843 862 829 904 818 803 828 864 883 872 854 874 906 824 896 913 862 887 869 843 886 868 878 860 789 879 858 840 819 883 873 810 821 851 886 895 788 847 846 853 819 878 883 826 841 793 844 817 781 739 805 760 742 729 801 805 784 750 776 825 768 773 787 770 769 762 759 802 780 740 757 737 762 803 749 738 776 803 804 791 776 751 775 810 795 710 778 783 764 780 827 781 727 777 773 777 730 697 750 706 792 773 756 775 755 754 742 727 739 781 781 774 806 773 792 820 790 745 777 761 767 821 788 751 722 766 803 757 737 803 793 783 768 735 704 762 760 775 761 778 787 728 749 698 739 787 813 768 759 785 748 753 745 788 807 789 787 758 730 794 745 771 790 775 841 698 789 778 794 812 769 825 803 763 790 780 728 819 779 768 776 818 781 780 847 789 833 805 818 791 840 792 812 862 774 805 853 868 857 818 838 834 812 915 911 905 940 978 894 953 944 897 982 985 1020 1067 1022 964 1034 1040 1039 1007 1065 1062 1037 1100 1136 1047 1095 1138 1126 1156 1202 1155 1199 1184 1185 1196 1253 1240 1264 1305 1340 1270 1327 1372 1351 1404 1357 1447 1364 1339 1398 1401 1350 1346 1295 1305 1328 1280 1253 1234 1200 1261 1324 1202 1201 1187 1218 1164 1090 1212 1159 1140 1131 1077 1124 1120 1059 1076 1008 1007 1036 972 891 972 926 951 972 865 830 923 857 814 844 793 901 797 849 826 851 859 818 839 817 762 850 825 859 834 845 813 823 762 741 833 753 744 797 792 789 811 828 761 774 764 763 781 784 726 777 797 793 761 812 798 802 793 802 791 811 764 771 807 795 783 778 781 781 749 740 744 807 776 735 747 755 790 772 788 785 793 760 791 772 781 779 775 777 758 750 765 774 770 799 802 808 825 772 788 822 802 813 737 790 780 806 785 804 782 779 819 824 768 810 801 809 774 748 783 783 765 751 781 809 832 809 797 832 843 779 764 812 791 850 825 848 824 741 785 790 796 836 867 788 784 819 741 776 758 813 751 833 839 781 796 833 812 807 764 842 736 826 841 833 801 763 749 765 784 783 741 797 767 781 788 816 794 798 797 778 725 726 756 749 761 792 730 800 772 724 783 727 782 838 682 727 786 742 764 759 789 786 781 764 740 715 772 784 754 750 788 739 747 775 831 794 780 708 790 734 735 716 727 743 772 780 736 759 819 741 750 744 721 789 805 752 819 718 767 809 785 754 778 727 757 727 755 785 740 747 732 728 785 754 740 735 759 740 771 729 780 773 749 768 749 722 776 736 771 738 813 723 746 805 728 733 783 679 750 746 740 713 767 750 740 711 775 714 780 838 720 742 729 754 740 748 752 715 836 668 744 783 783 779 764 784 756 682 803 717 762 736 745 787 745 736 729 727 692 748 750 776 704 720 732 711 742 671 750 727 696 692 778 752 748 774 826 762 797 728 728 765 801 731 749 746 740 794 775 780 730 667 732 759 783 700 730 739 752 811 739 812 735 759 732 783 793 762 758 731 766 763 751 744 700 713 804 717 745 713 732 771 742 717 686 805 758 721 796 769 747 802 757 778 736 740 709 762 758 801 781 784 732 725 749 761 813 753 736 767 734 712 772 713 760 778 735 758 697 687 742 762 739 721 747 746 783 712 752 728 769 754 784 733 732 803 728 724 758 766 727 764 680 770 734 723 769 747 797 719 735 705 757 759 754 746 746 738 737 734 810 763 731 723 751 697 755 784 797 780 761 716 718 731 724 728 746 784 805 753 721 750 778 724 715 708 746 759 726 742 703 743 751 775 783 718 752 705 689 727 761 722 708 742 758 810 739 720 766 773 723 737 786 686 729 725 767 737 789 770 769 716 778 718 735 748 726 759 699 763 732 778 750 778 776 742 723 734 730 761 750 753 742 781 746 786 747 757 741 810 770 771 798 755 772 830 795 812 736 729 769 804 800 779 779 742 774 780 788 761 788 777 754 747 825 766 753 772 800 780 752 803 758 759 766 838 777 782 816 853 768 807 765 795 725 789 820 827 841 830 787 814 819 757 821 847 804 792 775 828 769 783 783 829 821 780 789 757 742 811 743 789 795 752 812 738 811 766 815 726 808 747 778 767 758 768 748 767 796 767 753 740 834 762 778 734 737 787 797 761 765 750 703 759 768 751 727 762 707 724 750 765 763 740 705 732 741 747 756 790 745 728 729 707 683 718 743 761 719 805 744 731 705 733 779 756 753 723 769 792 726 753 705 712 739 698 722 766 775 730 788 722 720 793 726 756 736 781 751 745 743 763 728 722 730 737 754 700 754 720 745 767 723 763 807 790 782 726 740 819 745 799 714 778 805 765 727 738 767 742 727 717 759 798 712 782 724 741 739 786 717 737 794 778 772 780 726 772 830 768 811 706 743 770 780 749 749 713 749 731 776 765 784 754 748 749 710 733 805 736 793 686 727 726 736 756 769 799 790 780 746 763 743 793 804 747 756 756 706 755 734 753 704 695 762 730 772 744 737 739 798 766 751 805 801 734 808 789 794 825 780 711 784 792 811 798 831 767 812 792 783 791 849 807 790 837 898 913 877 850 839 839 948 916 916 953 916 930 961 963 928 971 912 984 878 935 916 968 912 954 983 945 990 929 994 984 1022 972 1011 981 996 1029 1079 1046 1082 1128 1146 1157 1181 1187 1170 1125 1118 1167 1203 1158 1150 1156 1215 1143 1169 1149 1098 1172 1127 1085 1112 1045 1083 1134 987 1056 972 1007 1014 977 1026 1035 1004 974 1005 959 1036 997 996 929 1003 946 927 926 971 931 950 868 969 896 837 824 907 891 831 858 804 901 785 823 787 775 827 780 752 766 814 830 745 806 810 787 802 799 734 827 753 738 718 738 808 744 826 864 797 788 780 758 769 746 756 779 763 787 803 728 727 749 743 759 726 784 738 759 743 801 721 753 725 748 779 766 747 711 772 764 733 757 762 744 727 764 727 757 762 772 721 730 723 754 802 724 720 740 722 712 736 785 771 800 718 800 811 715 811 745 819 709 765 786 775 808 757 790 787 737 781 807 686 753 767 778 764 818 761 790 754 823 800 800 777 759 735 777 735 776 779 807 769 719 794 775 817 770 742 754 825 826 812 825 796 775 758 718 814 790 751 744 764 764 796 759 777 786 782 821 757 796 785 744 815 799 721 720 758 752 747 820 717 728 756 734 745 803 667 711 775 725 793 756 699 722 743 758 772 759 715 783 742 782 726 780 713 755 693 716 711 704 727 764 714 741 722 745 742 699 786 742 734 744 753 745 711 766 739 730 735 763 739 745 736 719 746 754 695 705 758 726 792 757 721 718 743 759 741 699 675 752 714 737 712 734 697 763 751 671 793 708 776 730 793 717 761 666 714 704 763 722 722 755 668 711 800 735 731 701 679 729 726 772 750 701 729 701 774 718 691 699 784 758 723 740 666 749 750 753 774 735 712 715 712 756 705 771 761 730 722 721 780 746 754 751 717 691 731 740 738 730 719 689 696 753 727 729 761 719 710 770 726 732 809 741 746 718 719 756 762 669 746 744 709 710 751 809 754 714 732 791 796 761 754 706 749 723 712 736 745 713 760 662 729 663 716 783 708 723 734 778 757 731 714 727 693 755 726 693 695 702 758 699 726 709 733 786 731 719 706 770 780 763 714 771 690 729 749 722 773 723 751 718 788 709 718 730 800 710 705 740 749 746 725 732 704 801 744 746 764 784 782 756 763 755 783 750 671 803 752 716 746 747 716 721 716 747 757 753 744 717 699 730 763 734 678 741 745 677 710 720 737 727 685 717 692 659 735 754 696 739 780 759 724 743 748 764 716 726 743 707 774 718 677 744 693 763 762 726 720 744 722 752 730 687 722 704 709 709 753 750 735 703 768 719 749 721 723 793 738 729 695 759 764 751 743 760 716 731 718 706 761 685 742 715 689 671 683 715 703 710 714 725 727 779 733 740 700 761 693 760 775 735 805 734 741 766 759 832 684 729 710 754 754 767 700 779 742 795 736 771 722 784 815 780 781 771 765 770 781 743 789 725 778 732 799 803 737 728 745 739 760 805 750 846 792 757 762 748 819 675 801 811 807 794 811 772 788 808 816 778 880 801 826 813 829 842 837 773 809 800 864 810 874 821 808 865 845 842 804 804 843 758 837 879 886 846 839 858 870 850 792 837 845 796 795 862 794 824 818 767 813 800 815 787 792 884 789 846 804 835 793 786 798 805 868 781 836 843 780 791 788 778 785 782 823 827 801 726 810 830 770 771 831 821 792 832 800 825 781 791 828 818 771</counts>
			</dataPoints>
		</scan>
	</xrdMeasurement>
</xrdMeasurements>
