<?xml version="1.0"?>
<xrdMeasurements xmlns="http://www.xrdml.com/XRDMeasurement/2.3" xmlns:xsi="http://www.w3.org/2001/XMLSchema-instance" xsi:schemaLocation="http://www.xrdml.com/XRDMeasurement/2.3 http://www.xrdml.com/XRDMeasurement/2.3/XRDMeasurement.xsd" status="Completed" recordIdentifier="{7DDCF5E5-6BF1-4678-9407-EF7E01D523F0}">
	<comment>
		<entry/>
	</comment>
	<sample type="To be analyzed">
		<id>GPSS_Li1p5Mn0p7Y0p2Ta0p1Cl4_121225_693c5ab8f4d05ae3d6974f17</id>
		<name></name>
		<preparedBy></preparedBy>
	</sample>
	<xrdMeasurement measurementType="Scan" status="Completed" sampleMode="Reflection">
		<usedWavelength intended="K-Alpha 1">
			<kAlpha1 unit="Angstrom">1.5405980</kAlpha1>
			<kAlpha2 unit="Angstrom">1.5444260</kAlpha2>
			<kBeta unit="Angstrom">1.3922500</kBeta>
			<ratioKAlpha2KAlpha1>0.5000</ratioKAlpha2KAlpha1>
		</usedWavelength>
		<incidentBeamPath>
			<radius unit="mm">145.00</radius>
			<xRayTube id="1010048" name="Empyrean Cu LFF HR (9430 033 7310x)">
				<tension unit="kV">40.0</tension>
				<current unit="mA">15.0</current>
				<anodeMaterial>Cu</anodeMaterial>
				<focus type="Line">
					<length unit="mm">12.0</length>
					<width unit="mm">0.4</width>
					<takeOffAngle unit="deg">6.0</takeOffAngle>
				</focus>
			</xRayTube>
			<sollerSlit id="21010002" name="Soller slits 0.04 rad.">
				<opening unit="rad">0.0400</opening>
			</sollerSlit>
			<mask id="22031000" name="Fixed mask 13 mm">
				<width unit="mm">9.00</width>
			</mask>
			<divergenceSlit id="22120001" name="Divergence slit 1°" xsi:type="fixedDivergenceSlitType">
				<distanceToSample unit="mm">50.00</distanceToSample>
				<height unit="mm">1.52</height>
			</divergenceSlit>
		</incidentBeamPath>
		<sampleMovement xsi:type="spinningSampleMovementType">
			<spinnerRevolutionTime unit="seconds">1.0</spinnerRevolutionTime>
		</sampleMovement>
		<diffractedBeamPath>
			<radius unit="mm">145.00</radius>
			<antiScatterSlit id="22090040" name="AS slit 9 mm (PIXcel)" xsi:type="fixedAntiScatterSlitType">
				<height unit="mm">9.00</height>
			</antiScatterSlit>
			<sollerSlit id="21020003" name="Large Soller slits 0.04 rad.">
				<opening unit="rad">0.0400</opening>
			</sollerSlit>
			<filter id="20030001" name="Large beta-filter Nickel">
				<material>Ni</material>
				<thickness unit="mm">0.020</thickness>
			</filter>
			<detector id="7010019" name="PIXcel1D-Medipix3 detector" xsi:type="rtmsDetectorType">
				<phd unit="keV">
					<lowerLevel>4.02</lowerLevel>
					<upperLevel>11.27</upperLevel>
				</phd>
				<mode>Scanning</mode>
				<activeLength unit="deg">5.542</activeLength>
			</detector>
		</diffractedBeamPath>
		<scan appendNumber="0" mode="Continuous" scanAxis="Gonio" status="Completed">
			<header>
				<startTimeStamp>2025-12-16T10:47:29-08:00</startTimeStamp>
				<endTimeStamp>2025-12-16T10:55:36-08:00</endTimeStamp>
				<author>
					<name>AutomatedUser</name>
				</author>
				<source>
					<applicationSoftware version="1.7b (136)">PANalytical Aeris Instrument Suite</applicationSoftware>
					<instrumentControlSoftware version="3.2.00000000 20240306">AERIS</instrumentControlSoftware>
					<instrumentID>950485</instrumentID>
				</source>
			</header>
			<dataPoints>
				<positions axis="2Theta" unit="deg">
					<startPosition>10.00943322</startPosition>
					<endPosition>99.99442286</endPosition>
				</positions>
				<positions axis="Omega" unit="deg">
					<startPosition>5.00471661</startPosition>
					<endPosition>49.99721143</endPosition>
				</positions>
				<commonCountingTime unit="seconds">12.495</commonCountingTime>
				<counts unit="counts">2477 2477 2531 2481 2501 2432 2526 2538 2539 2450 2473 2523 2554 2500 2492 2622 2612 2453 2493 2515 2499 2616 2461 2531 2509 2474 2416 2550 2449 2569 2641 2525 2456 2571 2529 2522 2535 2473 2434 2500 2605 2528 2584 2451 2569 2607 2591 2542 2590 2565 2640 2579 2563 2592 2517 2549 2541 2557 2577 2499 2656 2505 2553 2621 2446 2622 2518 2575 2600 2628 2588 2485 2578 2583 2582 2509 2671 2573 2568 2564 2545 2563 2559 2566 2602 2690 2479 2570 2635 2602 2589 2674 2623 2495 2634 2655 2677 2611 2650 2644 2561 2644 2674 2699 2580 2695 2638 2574 2711 2624 2559 2576 2597 2613 2747 2552 2641 2665 2695 2702 2616 2651 2662 2595 2639 2774 2571 2603 2565 2629 2735 2630 2668 2621 2738 2642 2637 2687 2789 2630 2680 2721 2697 2724 2745 2681 2688 2663 2814 2660 2700 2736 2758 2814 2679 2787 2780 2742 2753 2766 2743 2647 2754 2634 2756 2750 2738 2834 2754 2608 2731 2799 2767 2638 2725 2746 2651 2675 2705 2628 2755 2653 2728 2769 2717 2652 2679 2704 2662 2729 2735 2735 2747 2706 2658 2761 2733 2760 2658 2776 2751 2648 2677 2645 2725 2807 2737 2823 2735 2715 2798 2775 2715 2725 2723 2733 2674 2757 2733 2746 2681 2718 2757 2757 2824 2709 2729 2787 2799 2697 2734 2779 2698 2773 2729 2777 2711 2695 2686 2733 2729 2790 2829 2731 2676 2687 2784 2776 2752 2730 2703 2631 2675 2826 2735 2763 2795 2733 2752 2810 2760 2720 2656 2637 2681 2667 2653 2693 2720 2744 2697 2621 2710 2633 2770 2674 2723 2687 2713 2736 2698 2674 2736 2639 2694 2744 2784 2735 2758 2664 2667 2698 2660 2768 2724 2705 2740 2724 2777 2778 2760 2667 2673 2743 2805 2778 2785 2699 2752 2735 2818 2692 2704 2748 2740 2827 2861 2675 2859 2727 2777 2837 2710 2712 2755 2746 2772 2748 2811 2717 2908 2734 2759 2781 2796 2783 2738 2824 2849 2782 2850 2910 2849 2972 2896 2897 2895 2902 2817 2931 2856 2912 2848 2854 2929 3028 2929 2862 2893 2941 2998 3002 2971 2998 3021 2968 2953 3013 2970 2978 3040 3068 3024 3076 2954 2904 2981 3093 3004 3094 3072 2967 3136 2983 3083 3049 3058 3250 3180 3158 3281 3271 3085 3175 3117 3242 3218 3329 3222 3384 3267 3266 3306 3267 3447 3413 3454 3448 3443 3508 3543 3629 3381 3677 3623 3691 3538 3649 3589 3758 3670 3750 3681 3604 3773 3561 3707 3721 3693 3700 3817 3709 3682 3716 3720 3804 3658 3835 3780 3785 3669 3867 3837 3777 3728 3752 3683 3790 3711 3759 3826 3682 3837 3654 3711 3727 3764 3605 3686 3748 3695 3703 3605 3708 3558 3840 3606 3543 3667 3554 3580 3616 3626 3606 3521 3486 3573 3509 3462 3562 3483 3341 3447 3400 3436 3374 3384 3483 3473 3376 3445 3463 3442 3345 3380 3340 3341 3434 3458 3288 3317 3424 3331 3213 3392 3306 3396 3257 3413 3168 3261 3297 3248 3289 3298 3265 3362 3327 3328 3323 3290 3263 3187 3354 3366 3366 3268 3315 3231 3240 3234 3220 3341 3252 3242 3380 3270 3271 3244 3369 3232 3354 3279 3221 3307 3229 3273 3303 3203 3313 3243 3297 3236 3165 3160 3201 3255 3216 3193 3265 3171 3240 3256 3200 3161 3183 3206 3189 3194 3204 3207 3229 3137 3162 3181 3114 3217 3062 3027 3150 3036 3039 3129 3129 2993 3176 2901 3183 3118 3016 2932 3000 3089 3030 2988 2991 3026 2950 2932 3009 2987 2966 3000 2966 3093 2970 3000 3065 2980 2954 2962 2883 2861 2916 3030 2937 3061 2919 2952 2994 2973 2807 2831 2970 2894 2938 3038 2925 2929 2938 2919 2935 2805 2990 2916 2865 2879 2965 2841 2900 2866 2939 2893 2918 2787 2902 2857 2880 2934 2845 3020 2941 2841 2913 2971 2837 2800 2906 2913 2912 2819 2909 3042 2833 2929 2912 2802 2970 2815 2800 2810 2740 2781 2910 2868 2905 2918 2885 3015 2787 2822 2883 2892 2902 2832 2793 2781 2951 2846 2740 2902 2867 2925 2721 2930 2899 2971 2828 3013 3026 2766 2837 2836 2804 2779 2903 2793 2932 2826 2844 2946 2845 2933 2909 2878 2841 2837 2884 2872 2884 2845 2892 2810 2938 2892 2845 2905 2902 2844 2883 2875 2823 2895 2887 2819 2933 2863 2929 2913 2821 2853 3028 2982 2858 2916 2815 2844 2843 2898 2822 2902 2805 2799 2895 2708 2972 2845 2961 2833 2876 2888 2865 2841 2918 2822 2908 2952 2782 2903 2925 2816 2875 2930 2764 2884 2817 2942 2819 2857 2822 2934 2790 2872 2799 2791 2845 2896 2809 2883 2720 2804 2804 2748 2783 2873 2792 2803 2826 2819 2785 2655 2763 2842 2722 2753 2724 2854 2741 2705 2707 2793 2810 2795 2792 2703 2712 2705 2734 2796 2679 2742 2638 2708 2669 2662 2776 2689 2733 2717 2723 2754 2669 2702 2675 2846 2565 2649 2831 2732 2698 2643 2729 2655 2769 2598 2706 2616 2706 2622 2730 2651 2684 2711 2705 2562 2646 2732 2657 2624 2664 2629 2624 2632 2726 2621 2628 2679 2678 2679 2725 2706 2670 2619 2631 2631 2630 2651 2693 2635 2646 2738 2650 2506 2639 2552 2620 2628 2659 2639 2675 2736 2588 2691 2598 2703 2614 2615 2508 2585 2472 2561 2575 2615 2539 2622 2612 2481 2577 2500 2588 2674 2545 2599 2511 2604 2564 2625 2642 2664 2641 2562 2577 2535 2563 2506 2549 2544 2585 2565 2674 2595 2493 2561 2572 2530 2507 2574 2534 2540 2516 2527 2591 2558 2586 2538 2591 2575 2517 2499 2623 2507 2630 2649 2527 2644 2580 2504 2565 2473 2497 2538 2446 2577 2580 2546 2568 2523 2417 2585 2633 2510 2548 2628 2478 2551 2443 2504 2583 2532 2539 2522 2478 2583 2487 2518 2527 2461 2550 2470 2483 2563 2578 2597 2510 2501 2512 2562 2706 2487 2530 2581 2469 2551 2515 2485 2561 2528 2533 2543 2522 2410 2476 2489 2495 2504 2571 2512 2554 2480 2520 2525 2501 2596 2573 2506 2555 2531 2487 2504 2410 2482 2432 2646 2519 2503 2571 2433 2532 2492 2488 2442 2606 2525 2473 2442 2572 2482 2444 2514 2568 2404 2589 2525 2562 2582 2557 2443 2615 2510 2582 2617 2533 2543 2503 2511 2597 2571 2534 2582 2611 2543 2550 2515 2549 2546 2563 2534 2600 2634 2569 2601 2649 2553 2532 2539 2523 2534 2544 2488 2555 2530 2510 2534 2538 2584 2435 2600 2532 2507 2522 2596 2559 2492 2542 2527 2500 2590 2476 2532 2594 2532 2466 2512 2491 2623 2470 2652 2633 2571 2492 2501 2600 2492 2464 2508 2606 2454 2598 2527 2563 2494 2510 2545 2442 2589 2538 2535 2507 2497 2479 2503 2541 2477 2600 2541 2509 2478 2564 2541 2469 2605 2537 2456 2511 2497 2569 2476 2512 2537 2446 2464 2483 2501 2567 2374 2550 2622 2618 2487 2466 2548 2468 2513 2450 2429 2472 2461 2469 2582 2485 2438 2416 2512 2490 2416 2425 2373 2449 2488 2401 2581 2369 2490 2365 2467 2474 2389 2518 2386 2490 2453 2374 2375 2365 2367 2480 2442 2392 2347 2266 2378 2495 2420 2378 2438 2339 2303 2260 2307 2318 2267 2372 2302 2357 2225 2285 2315 2289 2298 2294 2236 2279 2292 2281 2278 2344 2193 2268 2196 2269 2338 2239 2221 2317 2258 2137 2218 2156 2205 2202 2240 2201 2171 2206 2205 2231 2162 2230 2234 2138 2153 2087 2157 2114 2171 2146 2169 2165 2102 2182 2208 2124 2118 2071 1987 2110 2110 2156 2101 2129 2059 2140 2054 2188 2094 2105 2134 2090 2112 1962 2082 2076 1999 2075 2097 1992 2018 2057 2045 2018 2132 1983 1980 2080 2072 2035 2061 2015 2075 2022 2041 2018 2008 2006 1962 1991 2034 1964 1968 2078 2003 2068 2013 1978 2043 2006 2014 1943 1970 2038 1907 1970 1969 2038 1955 1952 2027 1943 1982 1973 1945 1939 1875 2012 2007 1965 1918 1865 1910 1992 2017 1928 1962 1935 1947 1959 1895 1891 1972 2017 1869 1964 1994 1910 1917 1953 1847 1989 1998 1964 1974 1929 2021 2010 1991 1930 1913 1926 1983 1981 1961 1973 1950 2046 1911 1899 1909 1919 1969 1942 1930 2028 1967 1896 1937 1932 1885 1990 1967 1955 1909 1902 2014 2010 1936 1958 1895 1972 1932 1944 1937 1914 1813 2020 1977 1968 1965 1943 1924 1991 1925 1951 2004 1975 2033 1914 1961 1980 2004 1994 2022 1955 1951 1877 1940 1928 1940 1925 1923 1895 1914 1904 1980 1925 1983 1986 1941 1961 1907 1925 1914 1982 1981 1903 1988 1987 1950 2004 1970 1909 2015 1950 1891 2015 1960 2033 1948 2049 1973 1927 2020 1999 2005 1981 1903 1896 1905 1955 1963 2023 1937 2071 1919 2046 2005 1976 2011 1942 1927 1975 1956 1933 2000 1857 1937 1999 1898 1968 1954 1924 1956 1905 1953 1889 2021 2041 1980 1994 1999 1947 1926 1979 2020 1936 1993 2011 1877 1925 1901 1951 2000 1872 2080 1948 1995 2002 1914 2012 1878 1943 1882 1951 1886 1969 1961 1914 1915 1904 1894 1932 1884 1925 1938 1954 1959 1945 1902 1904 1888 1884 1873 1846 1889 1934 1963 1846 1834 1873 1871 1889 1911 1949 1859 1847 1919 1896 1884 1876 1938 1810 1881 1894 1819 1800 1853 1872 1873 1868 1911 1872 1806 1860 1889 1840 1899 1741 1796 1818 1896 1785 1808 1758 1845 1825 1794 1810 1916 1913 1822 1822 1763 1818 1701 1775 1688 1682 1790 1789 1697 1726 1702 1752 1741 1764 1709 1774 1776 1787 1834 1717 1746 1750 1743 1809 1743 1790 1701 1781 1750 1768 1766 1722 1788 1737 1757 1776 1760 1809 1748 1708 1797 1766 1726 1823 1750 1744 1799 1806 1822 1889 1868 1874 1966 1881 1920 1970 1935 1902 2017 1976 2062 1971 2043 2018 2099 1947 2096 2099 1987 2087 2101 2140 2094 2081 1994 2028 2028 2173 2092 2154 2022 2041 2086 1990 2026 1995 2140 2045 2005 1950 1962 2013 1973 1975 1983 1968 1910 1881 1844 1929 1907 1849 1852 1878 1896 1778 1788 1806 1815 1814 1864 1778 1745 1767 1714 1727 1702 1728 1718 1701 1642 1647 1700 1695 1661 1703 1657 1672 1660 1666 1550 1660 1661 1614 1672 1579 1623 1614 1673 1621 1667 1623 1603 1652 1639 1631 1560 1592 1606 1542 1593 1588 1647 1528 1583 1638 1664 1741 1695 1587 1661 1713 1691 1754 1779 1782 1850 1865 1865 1951 1927 1977 2038 2114 2058 2222 2191 2245 2257 2300 2317 2285 2412 2323 2361 2282 2372 2333 2296 2383 2417 2421 2391 2439 2424 2387 2360 2342 2424 2342 2425 2440 2323 2397 2232 2224 2285 2305 2236 2284 2230 2291 2167 2149 2186 2091 2154 2224 2151 2139 2115 1986 2033 1964 2016 1912 2008 1868 1899 1877 1804 1808 1821 1784 1731 1730 1813 1629 1741 1705 1760 1675 1693 1697 1697 1679 1606 1590 1584 1610 1547 1536 1562 1538 1620 1535 1573 1626 1546 1527 1457 1444 1476 1415 1492 1489 1441 1486 1368 1496 1610 1473 1547 1425 1470 1500 1444 1537 1470 1473 1463 1513 1437 1486 1436 1379 1376 1498 1450 1424 1382 1397 1445 1396 1410 1381 1465 1361 1410 1363 1361 1405 1334 1481 1356 1425 1392 1459 1408 1420 1376 1364 1433 1303 1385 1344 1380 1377 1394 1366 1376 1400 1400 1350 1371 1373 1351 1333 1398 1416 1396 1470 1389 1367 1334 1387 1390 1315 1342 1359 1408 1359 1351 1313 1328 1298 1371 1388 1438 1391 1399 1389 1466 1450 1569 1536 1481 1529 1561 1527 1621 1610 1641 1561 1731 1709 1685 1725 1828 1844 1827 1930 1861 1943 1985 2013 2038 2053 2025 2000 2084 2084 2065 2125 2095 2067 2062 2075 2035 1980 2049 1968 1911 2068 2034 2026 1943 1942 1945 1959 1920 1910 1887 1858 1791 1838 1794 1790 1707 1728 1694 1625 1623 1629 1608 1566 1616 1569 1458 1518 1469 1466 1499 1497 1430 1476 1480 1514 1461 1484 1524 1400 1463 1408 1427 1455 1461 1457 1412 1381 1411 1363 1399 1359 1376 1341 1395 1328 1317 1379 1375 1327 1388 1324 1307 1390 1330 1386 1329 1270 1342 1346 1328 1350 1310 1270 1300 1298 1265 1321 1269 1292 1286 1315 1266 1259 1269 1231 1253 1325 1203 1281 1273 1261 1220 1273 1260 1286 1292 1301 1289 1190 1228 1294 1256 1256 1321 1277 1212 1304 1241 1245 1245 1276 1196 1290 1252 1188 1324 1194 1302 1209 1266 1270 1238 1297 1256 1311 1252 1247 1272 1298 1230 1227 1291 1239 1338 1280 1282 1201 1238 1255 1259 1265 1303 1267 1302 1236 1290 1237 1255 1264 1306 1256 1254 1277 1341 1267 1238 1262 1318 1239 1299 1341 1269 1326 1299 1331 1332 1271 1271 1347 1272 1334 1353 1329 1385 1322 1376 1290 1408 1373 1377 1429 1385 1351 1446 1366 1448 1434 1503 1510 1551 1558 1642 1538 1570 1611 1610 1684 1688 1826 1828 1853 1934 2009 2174 2264 2303 2368 2517 2586 2672 2873 2878 3122 3083 3291 3309 3438 3522 3731 3639 3701 3715 3896 3887 3893 4016 4129 4042 4260 4016 4040 4085 4201 4199 4065 4159 4014 4140 3995 3881 3869 3918 3855 3828 3884 3693 3654 3577 3544 3626 3581 3502 3450 3358 3274 3262 3202 3158 3119 3055 2821 2851 2730 2685 2542 2545 2398 2360 2316 2234 2229 2086 2047 2018 1915 2022 1917 1957 1807 1853 1828 1742 1745 1697 1679 1719 1673 1613 1581 1626 1538 1546 1507 1567 1470 1500 1445 1420 1461 1393 1464 1428 1395 1375 1357 1335 1359 1370 1294 1431 1301 1358 1326 1311 1365 1324 1258 1280 1309 1322 1267 1319 1302 1311 1275 1241 1263 1308 1288 1270 1256 1240 1246 1284 1242 1338 1199 1151 1159 1222 1151 1260 1239 1211 1226 1214 1223 1239 1192 1228 1291 1201 1197 1258 1155 1270 1174 1180 1161 1169 1162 1170 1215 1214 1168 1232 1221 1197 1230 1169 1218 1113 1190 1152 1204 1185 1185 1208 1175 1209 1168 1253 1185 1191 1190 1193 1208 1199 1220 1207 1190 1135 1202 1232 1205 1171 1235 1270 1127 1220 1121 1204 1202 1238 1245 1207 1189 1197 1225 1221 1187 1182 1109 1163 1188 1209 1174 1145 1249 1191 1172 1247 1195 1191 1189 1150 1193 1201 1199 1201 1102 1185 1184 1210 1101 1109 1156 1158 1194 1213 1192 1163 1143 1222 1162 1218 1169 1226 1195 1150 1132 1164 1147 1210 1148 1124 1186 1177 1108 1114 1181 1203 1252 1168 1155 1197 1163 1250 1141 1189 1139 1216 1243 1196 1143 1159 1248 1121 1127 1132 1175 1183 1126 1175 1127 1179 1138 1137 1183 1137 1119 1158 1157 1218 1142 1183 1124 1183 1120 1207 1154 1144 1141 1199 1161 1217 1172 1180 1185 1144 1152 1132 1164 1161 1233 1113 1147 1179 1179 1204 1207 1143 1246 1216 1145 1110 1182 1182 1189 1203 1169 1161 1175 1181 1236 1195 1203 1201 1146 1088 1105 1106 1203 1156 1161 1149 1142 1155 1168 1159 1122 1162 1082 1178 1076 1092 1138 1115 1151 1142 1106 1151 1182 1135 1190 1141 1200 1102 1118 1123 1141 1192 1184 1103 1168 1152 1129 1143 1083 1078 1152 1170 1122 1135 1181 1154 1181 1073 1177 1180 1200 1132 1097 1098 1127 1159 1083 1175 1186 1133 1112 1105 1114 1065 1124 1095 1050 1111 1097 1118 1150 1091 1075 1122 1125 1166 1065 1141 1023 1139 1110 1076 1150 1058 1137 1085 1131 1066 1103 1005 1113 1075 1120 1079 1055 1090 1075 1101 1142 1077 1061 1076 1057 1077 1032 1109 1090 1084 1001 1091 1024 1100 1061 1060 1030 1089 1060 1054 1101 1082 1067 1085 1025 1083 1040 1068 984 1057 1084 1039 1068 1124 1155 1116 1099 1131 1142 1056 1086 1118 1060 1079 1142 1051 1001 1077 1088 1049 961 1103 1043 1153 1065 1071 1085 1088 1104 1096 1076 1076 1078 1025 1105 1036 1089 1062 1016 1062 1079 1066 1068 1079 1068 1051 1014 1093 1062 1069 1069 1046 1067 1039 1077 1047 1081 1117 1048 1045 1039 1092 1014 1106 1029 1014 1065 1064 1110 1090 976 1013 1083 1063 1061 1054 1070 988 1049 1099 1069 1041 1048 1050 1069 1040 1133 1048 1063 1007 1102 1054 1084 1053 1048 1083 1035 1014 1077 1091 1050 1058 1043 1045 1049 1050 1027 1057 1046 1100 1042 1039 1073 1089 1053 1022 1087 1026 1024 1063 1079 981 960 1031 1020 1067 1036 1086 1064 1131 1042 1014 1084 1112 1047 1023 1077 1065 1072 1091 1060 1047 1088 1139 986 1032 1073 1094 1039 1072 1096 1083 1033 1058 1083 1092 1106 1079 1075 1078 1075 1120 1085 1083 1035 1116 1067 1085 1191 1127 1075 1145 1145 1136 1120 1151 1148 1209 1172 1193 1277 1258 1254 1322 1256 1336 1340 1327 1429 1348 1393 1391 1425 1477 1449 1408 1439 1494 1446 1541 1513 1493 1566 1562 1545 1530 1567 1509 1529 1532 1582 1489 1450 1527 1549 1516 1680 1438 1480 1466 1459 1347 1499 1441 1470 1424 1340 1406 1345 1371 1307 1363 1298 1264 1256 1266 1287 1266 1240 1287 1228 1175 1219 1121 1133 1112 1163 1090 1123 1134 1131 1097 1148 1108 1108 1097 1060 1153 1075 1071 1099 1074 1037 1051 1095 1066 1070 1001 1039 1064 1075 1061 1094 1110 1101 992 1108 1018 1118 1059 1067 1047 1064 1095 1041 1034 1003 1059 1035 1085 1023 1083 1040 1038 1004 1055 1034 1035 1038 1017 1036 1029 954 1030 971 1039 1062 1003 1050 1011 1071 1034 1003 1015 1043 1040 998 1045 1063 1032 1069 1008 1020 1067 1047 1020 1038 1039 1080 1029 1017 1121 1067 1054 1047 1011 1034 1039 1005 1067 1083 1050 1072 1045 1046 1051 1081 1043 1070 1121 1054 1109 1022 1037 1146 1090 1050 1081 984 1094 1080 1103 1053 1029 1096 1100 1067 1118 1120 1044 1101 1081 1092 1081 1096 1085 1077 1069 1108 1066 1086 1090 1080 1034 1096 1037 1008 1125 1010 1052 1064 1068 986 1028 1070 973 1055 1004 1047 1002 1014 1004 1027 1043 1005 1077 1050 1016 1064 1052 1015 983 943 1071 1000 1091 1042 1100 1068 1047 1000 990 1053 1015 1044 1020 961 1031 1042 1019 1049 982 1032 1033 1068 1046 1015 1083 1004 1072 1036 1021 1091 1095 1040 1026 1053 985 1022 1000 1010 1068 1013 1032 1031 1004 1040 992 1009 1059 1029 1040 1021 1044 1050 1053 1035 1037 1051 1025 1004 1016 1047 1073 1039 1109 1024 1094 1022 1054 1051 1070 1096 1032 1033 1019 1081 1026 1088 1023 1116 1060 1095 979 1072 1110 1076 1081 1096 1092 1067 1067 1099 1074 1121 1066 1046 1155 1120 1059 1069 1117 1060 1079 1086 1119 1076 1152 1145 1109 1132 1139 1122 1159 1192 1199 1198 1198 1237 1261 1248 1340 1202 1267 1295 1308 1295 1329 1245 1207 1314 1348 1319 1288 1305 1294 1335 1298 1406 1368 1358 1362 1384 1315 1316 1349 1332 1342 1316 1301 1287 1265 1250 1210 1313 1243 1215 1245 1303 1252 1201 1205 1183 1197 1227 1202 1231 1175 1194 1190 1194 1075 1108 1053 1067 1069 1057 1109 1086 1059 1066 1034 1063 1043 1088 1049 1096 986 1039 953 1071 1070 1014 987 999 998 1028 980 1033 971 1045 1032 970 1009 1057 1013 1060 1030 1038 1012 964 982 984 1025 1013 1054 988 982 1002 1007 1001 1013 972 1001 1020 1075 1112 1026 939 956 970 995 969 1013 1010 1021 1026 1020 957 1003 1001 1008 1010 1054 1026 1005 1054 1047 1048 990 1002 1023 1011 1006 1045 1025 936 1032 1036 1030 988 1011 948 954 1025 1021 1040 961 1003 1050 1025 1078 983 956 1038 1003 976 1046 966 939 990 1026 1001 953 958 1019 1048 996 1043 1045 977 1013 1072 1036 1003 966 999 1018 1023 986 988 1065 985 1040 1008 950 1077 975 976 972 975 1055 998 1034 1017 1016 998 996 1051 996 1036 1014 1046 990 998 949 1009 945 927 1006 945 991 1059 935 1030 988 1002 1102 955 998 1047 942 997 1024 984 968 945 1002 975 1016 1034 1019 973 1008 995 992 973 948 1014 1032 1010 1020 1023 979 1019 1016 993 1007 938 989 943 966 982 968 997 1034 956 1009 985 1053 1012 1043 1028 1017 1038 986 977 1006 1001 969 1015 1019 1022 1047 979 1031 974 1008 929 977 1010 1009 1003 1000 996 1005 991 1002 963 995 1074 1054 993 1048 1034 1053 1022 979 1010 998 1054 1056 1023 1035 1085 1073 1077 1015 1056 1062 1069 1054 1037 1067 1033 1039 985 1063 1043 1027 1093 1031 1020 1017 1043 1049 1065 1031 1052 1098 1070 1035 1109 1087 1068 1064 1092 1071 1094 1077 1117 1053 1055 1153 1095 1083 1076 1087 1039 1098 1097 1101 1092 1119 1132 1165 1180 1087 1111 1183 1156 1208 1200 1235 1205 1222 1273 1315 1339 1300 1394 1353 1364 1468 1510 1578 1634 1641 1764 1776 1891 1957 2009 2047 2178 2246 2348 2318 2454 2465 2590 2678 2710 2821 2822 2927 2971 3056 3092 3038 3055 3194 3140 3264 3238 3148 3188 3233 3306 3172 3325 3174 3209 3195 3146 3183 3046 2932 2936 2792 2769 2734 2707 2706 2730 2671 2581 2559 2443 2451 2307 2204 2127 2171 1956 1957 1858 1791 1785 1751 1720 1606 1559 1592 1451 1449 1419 1493 1378 1401 1355 1276 1253 1295 1257 1264 1198 1238 1201 1154 1170 1130 1152 1124 1085 1114 1153 1122 1111 1064 1082 1078 1056 1079 1034 1067 1060 1120 1112 1070 1072 1045 1006 1008 1050 1083 1037 1028 1048 1060 1051 1061 1073 1076 1095 1056 1108 1064 1029 1088 1085 1043 1094 1115 1118 1098 1068 1137 1106 1063 1120 1139 1058 1053 1062 1107 1103 1080 1023 1018 1038 1003 1126 1017 1066 1085 1083 1102 1038 1023 1024 1073 1020 1013 1077 1018 1059 1057 1078 1045 1067 1038 1081 1070 1108 1072 1065 1023 1008 1050 1035 1081 990 1030 1063 1011 1004 986 994 1019 966 1023 1030 1057 1023 982 1010 1016 1027 994 962 1006 1020 1006 1038 1023 994 976 984 1024 981 958 969 1066 1001 972 976 1018 1044 1012 976 1008 995 978 1048 1021 1101 1046 995 1020 992 1057 1034 1078 1105 1112 1060 1060 1100 1020 1116 1088 1145 1132 1124 1061 1158 1130 1109 1217 1173 1195 1164 1163 1193 1145 1166 1206 1140 1233 1238 1122 1179 1200 1165 1229 1146 1130 1174 1123 1120 1211 1202 1094 1101 1187 1155 1117 1115 1112 1123 1058 1102 1100 1119 1102 1075 1022 1072 1055 1091 1108 1021 1102 988 1036 1015 1044 978 1002 1020 939 1015 970 1033 993 1032 984 1011 935 971 1004 962 929 985 967 1001 962 992 953 991 1007 976 968 1008 993 951 925 956 955 994 948 958 1000 925 943 988 946 980 1027 922 961 940 988 974 952 1040 934 930 992 921 959 953 992 943 932 905 908 1023 945 920 887 973 959 928 951 982 970 969 968 945 947 948 937 900 933 953 1004 1011 942 1005 964 987 972 980 901 977 1018 942 1046 956 1008 993 986 958 953 1039 1006 1013 966 1029 966 1032 967 974 990 993 902 1033 963 969 956 924 992 989 935 947 985 907 936 1021 973 953 967 965 957 981 967 922 959 946 934 953 927 953 883 961 918 969 934 974 935 988 962 861 915 941 954 976 1053 915 933 947 970 946 1017 1024 931 1038 956 1004 986 1028 965 1027 1067 986 996 1000 1053 1018 1066 1011 1036 1014 980 996 1003 1007 988 998 1001 1054 1054 1032 1047 999 1106 988 963 1005 1039 1014 989 1007 1006 978 957 1026 1023 1007 1011 975 1041 923 943 972 1012 1004 951 1019 966 973 959 993 949 928 989 910 950 922 931 983 906 946 916 908 933 957 892 958 949 939 924 928 929 918 953 856 849 934 935 913 862 992 855 906 903 946 901 900 886 895 946 982 893 968 947 895 947 959 888 898 936 923 941 915 846 898 936 926 913 959 869 888 871 936 913 901 927 893 962 897 938 854 928 924 917 880 864 897 864 917 921 906 877 896 838 922 909 900 892 891 887 919 930 902 901 899 826 886 906 910 878 935 995 914 931 894 906 867 931 942 891 937 919 924 913 911 900 892 964 863 879 893 881 896 879 905 892 889 922 880 880 868 942 902 923 895 947 874 908 895 898 854 920 881 873 938 939 895 887 913 895 889 942 939 911 909 905 875 933 922 952 851 883 956 899 903 884 878 888 953 864 915 933 905 884 846 830 855 856 915 927 892 884 899 892 893 895 910 965 916 917 927 923 843 889 948 921 903 889 867 911 917 883 918 906 904 860 911 910 926 948 951 891 912 927 937 875 932 905 955 939 903 932 909 966 870 895 958 974 847 923 917 921 875 885 883 879 892 921 940 853 835 880 920 874 941 890 898 863 929 921 958 932 892 897 903 925 906 945 936 911 897 866 957 871 919 933 924 852 924 944 948 876 967 974 951 991 919 930 944 969 897 942 972 923 988 875 997 949 959 957 930 933 854 964 972 954 969 974 993 960 937 937 918 955 1045 991 977 973 939 921 930 923 983 956 958 911 895 983 954 1019 945 936 953 956 959 893 929 904 958 946 977 981 991 990 941 975 966 967 942 972 988 979 1035 965 1003 1067 1016 1036 1017 1067 1034 1121 1045 1133 1114 1182 1108 1181 1097 1098 1105 1146 1164 1157 1108 1164 1136 1173 1135 1227 1137 1107 1146 1171 1153 1134 1127 1113 1118 1157 1214 1102 1118 1047 1085 1098 1051 1037 1046 1042 1032 1033 1044 1032 980 1070 998 1043 1027 973 925 956 912 949 956 1004 937 952 975 965 992 961 931 922 926 912 936 974 898 928 897 904 912 919 913 918 927 903 974 938 913 909 945 971 895 879 913 918 912 906 916 913 960 903 895 879 896 920 950 903 891 933 939 917 946 914 950 936 928 1002 991 937 960 994 1023 940 1006 1000 983 934 942 998 912 990 972 960 987 990 996 959 972 935 933 953 967 941 980 877 943 919 932 927 949 867 949 918 952 989 901 976 966 939 927 929 940 956 920 918 921 966 935 952 919 915 887 953 885 920 898 864 962 958 876 897 925 964 920 967 880 939 872 874 925 963 908 925 868 930 932 870 915 886 914 862 945 907 942 860 847 907 926 897 887 908 932 908 940 876 891 905 908 893 929 918 895 883 894 836 847 941 929 865 944 926 923 924 871 924 933 894 874 873 874 877 912 885 898 820 932 879 880 938 926 916 888 932 962 930 949 918 986 950 959 962 1068 956 1050 1028 1094 1136 1099 1141 1184 1157 1220 1238 1238 1196 1240 1286 1269 1344 1254 1276 1253 1359 1323 1334 1319 1388 1362 1385 1341 1324 1384 1408 1332 1351 1363 1357 1292 1288 1277 1261 1241 1275 1378 1338 1268 1255 1276 1251 1161 1157 1241 1187 1152 1120 1141 1132 1090 1059 1148 1016 1062 1062 1017 1037 1058 1009 1022 993 1019 974 972 944 931 974 991 1022 944 975 1001 922 933 890 914 956 930 927 886 932 855 906 929 903 892 915 896 936 881 898 849 960 1006 976 891 941 838 901 842 909 930 903 893 901 918 893 878 845 914 857 898 872 878 894 857 858 844 906 872 821 857 892 889 864 885 871 857 888 825 843 934 813 873 833 868 888 906 813 906 838 860 840 877 859 864 862 841 863 808 811 913 889 840 865 877 873 885 886 805 849 850 852 934 884 896 845 894 850 890 857 917 850 887 823 857 873 930 849 859 866 870 879 877 882 831 902 888 866 887 904 968 984 927 950 842 915 991 925 953 851 926 961 959 906 990 910 959 985 924 1007 975 971 971 917 994 940 993 1004 968 953 1005 1010 975 895 876 926 965 927 936 951 903 910 914 941 938 887 898 941 824 920 900 899 896 876 910 883 946 975 869 865 870 863 893 891 836 865 895 862 862 858 881 866 842 824 872 866 875 825 819 842 855 883 876 815 902 886 829 810 863 845 844 840 881 828 868 833 846 847 842 870 878 837 868 866 846 871 845 897 809 852 874 856 891 816 893 854 854 873 859 867 869 839 833 909 871 837 855 824 906 854 843 837 815 871 850 884 845 861 835 819 833 771 882 865 879 803 817 858 775 820 824 835 873 821 867 824 888 849 808 843 883 855 801 845 839 862 819 849 852 833 895 851 850 870 812 853 876 845 895 774 865 848 817 872 830 820 792 810 818 854 838 818 840 805 782 850 871 921 917 857 827 797 847 797 822 861 871 852 844 800 880 949 825 818 900 873 871 902 856 861 882 860 860 811 902 875 811 846 864 887 852 788 843 854 907 867 898 918 916 870 883 919 912 930 880 914 909 906 893 951 907 934 900 879 910 864 877 950 947 921 958 911 879 882 907 870 859 890 898 878 881 872 845 964 927 842 894 860 850 900 866 918 873 910 931 800 860 858 879 861 817 881 804 924 847 899 834 865 866 830 846 824 829 873 826 905 821 848 803 868 843 828 862 878 836 840 850 841 844 842 806 819 859 755 816 825 846 846 793 833 873 806 871 903 859 803 846 888 824 827 803 893 854 819 848 840 823 827 822 804 861 870 801 828 782 813 862 862 874 807 819 769 804 824 822 831 809 860 803 803 798 854 861 839 838 820 826 823 851 798 835 748 868 821 807 834 859 809 811 813 804 779 849 814 788 844 855 812 814 818 794 786 810 835 821 790 808 766 836 896 804 848 763 791 824 869 827 834 835 823 842 807 805 902 881 808 846 809 833 806 860 875 799 834 781 825 798 823 816 810 854 785 818 868 886 830 848 820 859 830 858 808 816 885 857 813 819 839 824 828 837 826 907 870 845 858 916 830 865 807 864 830 846 813 853 845 904 828 825 816 893 804 838 869 856 858 845 898 841 875 892 884 839 916 874 889 860 848 877 846 864 893 885 918 903 909 873 952 890 835 963 886 919 894 932 852 875 906 877 943 899 949 951 880 911 914 826 901 913 954 856 888 876 904 840 847 927 846 905 832 930 879 876 862 825 832 888 832 869 838 865 846 845 879 852 872 823 870 879 793 818 807 853 816 827 817 814 844 806 828 814 810 841 788 788 793 831 857 813 824 830 845 849 792 819 866 836 821 874 857 807 865 801 832 851 789 805 822 826 862 792 754 845 845 901 810 812 844 797 859 854 844 803 845 853 847 805 799 847 844 821 806 850 825 824 785 839 771 842 827 834 798 888 807 769 810 855 822 821 829 833 811 846 816 779 823 835 855 851 823 799 786 858 785 799 858 825 834 787 823 812 803 828 834 843 838 845 791 827 830 871 827 824 815 876 847 820 857 760 832 806 828 847 791 836 822 806 799 823 775 791 811 835 794 841 818 796 829 821 771 823 805 833 834 798 846 802 773 785 786 850 832 820 856 861 813 773 862 841 819 815 827 783 805 831 788 833 805 830 807 820 796 851 838 832 867 800 856 799 793 806 808 838 804 813 774 765 853 849 826 844 854 863 827 825 785 848 838 807 840 835 778 781 821 792 881 886 820 814 848 857 820 829 849 826 824 823 829 852 893 857 864 873 845 825 955 867 878 939 845 938 913 875 857 841 893 846 889 924 928 976 975 977 951 964 968 960 970 932 996 1014 964 1004 990 957 990 975 1026 1058 1027 1034 1037 1085 1038 1045 992 1015 1055 991 960 995 1002 1005 972 954 980 993 1028 976 929 1014 1010 957 929 975 947 945 913 904 926 919 894 878 858 884 841 885 904 939 962 871 837 868 865 871 846 808 788 839 777 875 775 815 805 895 824 823 787 837 795 834 822 819 820 764 747 803 824 770 847 825 805 865 802 838 826 792 836 779 769 784 806 785 806 867 790 821 831 811 860 878 872 833 780 784 828 820 827 790 859 772 804 830 796 827 745 807 857 784 789 826 823 830 792 822 816 852 848 836 869 843 851 821 850 791 824 854 826 851 859 838 799 774 854 826 835 818 830 805 801 815 804 800 835 815 757 797 801 843 830 866 854 772 815 825 806 824 894 796 853 860 757 799 832 794 797 798 804 813 851 835 842 790 822 819 827 896 822 776 816 836 793 852 826 830 775 828 843 874 837 865 801 806 783 895 834 835 804 801 827 846 819 840 837 829 775 860 819 814 850 864 812 803 776 813 795 817 798 799 858 798 774 847 861 796 833 792 811 761 746 820 818 819 806 845 804 827 835 842 793 779 793 826 807 805 758 812 823 810 820 817 808 825 782 823 818 753 787 848 783 794 843 796 838 844 831 793 810 832 811 832 819 823 795 772 768 778 827 811 799 851 807 832 807 843 859 839 804 829 792 754 815 809 819 790 825 811 791 816 841 762 814 799 799 805 844 862 757 833 824 816 814 783 887 815 747 864 747 798 824 780 839 747 809 820 873 782 814 837 805 770 858 861 834 827 829 871 838 813 860 822 842 824 836 819 860 842 824 796 809 786 806 850 763 812 810 830 825 831 797 869 796 823 848 840 777 853 805 827 808 827 770 824 840 820 854 890 757 821 791 794 857 816 777 784 857 786 780 774 844 850 849 839 769 803 853 813 839 821 812 791 758 808 867 796 846 784 839 810 818 825 826 799 715 791 813 813 867 802 839 835 829 846 857 776 792 800 799 807 839 824 888 811 804 850 740 834 798 810 825 859 771 787 812 809 815 762 819 775 823 809 792 898 793 823 809 757 773 778 837 772 802 805 777 829 798 790 744 831 798 761 801 838 748 817 797 824 788 814 822 768 841 798 767 832 760 779 783 772 810 837 798 793 838 795 831 791 777 765 802 828 770 774 779 866 771 811 794 823 797 801 813 774 815 787 814 813 795 808 791 764 817 770 827 858 814 868 839 849 857 832 804 805 832 825 818 767 814 823 753 835 804 787 805 852 813 801 837 815 862 827 854 823 826 863 801 806 845 810 769 785 803 808 794 822 841 814 827 816 826 878 823 818 808 847 817 780 846 784 846 812 796 858 845 793 807 840 809 800 808 803 807 851 852 828 791 830 817 798 797 841 785 768 831 788 871 829 808 897 819 811 764 767 860 845 859 840 894 848 808 813 833 811 828 800 870 862 855 818 863 842 878 761 904 876 844 814 894 848 921 861 880 935 838 868 844 900 855 841 876 927 893 879 898 902 929 894 873 847 856 870 849 894 948 903 828 852 898 868 838 875 866 885 884 897 883 876 873 909 897 890 869 810 905 836 868 842 900 918 939 903 896 890 898 895 880 922 865 946 886 881 897 942 930 952 847 957 901 902 928 861 940 862 900 843 858 882 948 904 841 844 957 898 885 827 879 937 928 870 866 877 830 859 889 833 823 856 847 880 834 807 857 858 847 843 865 857 861 837 896 853 858 860 912 850 883 870 854 835 835 879 859 861 861 923 892 961 922 864 837 876 871 841 887 909 829 854 908 886 894 913 849 871 829 804 917 875 882 872 885 886 841 868 852 843 852 854 868 832 812 850 839 842 877 875 870 880 903 904 837 870 861 818 822 820 866 866 884 860 853 838 838 833 874 849 837 842 836 845 826 892 836 818 884 821 861 895 846 880 877 892 834 882 864 830 837 869 801 826 854 870 818 806 884 865 810 889 911 815 902 826 918 856 846 876 849 812 886 910 866 862 845 865 841 846 879 860 894 906 894 852 864 838 859 888 851 866 851 934 875 924 939 889 921 943 907 950 1012 942 954 982 943 984 987 1033 968 1035 1121 1144 1083 1041 1105 1121 1117 1164 1158 1146 1189 1165 1217 1254 1282 1191 1271 1218 1236 1236 1290 1228 1241 1271 1253 1296 1241 1237 1326 1286 1284 1245 1230 1333 1254 1189 1240 1316 1198 1225 1162 1289 1192 1258 1239 1280 1139 1185 1172 1225 1152 1119 1108 1125 1083 1069 1117 1102 1106 1059 1019 1115 1063 1033 1001 1061 972 957 949 963 983 1001 1019 943 916 940 989 921 951 972 941 946 959 932 906 860 960 892 902 884 853 851 871 919 851 855 867 886 830 774 862 903 863 932 878 839 857 898 888 879 897 886 792 904 884 803 857 869 811 844 867 860 891 798 841 853 807 867 884 847 859 849 835 879 836 782 794 790 866 793 838 839 887 816 833 820 818 847 858 850 806 842 818 867 854 792 866 817 847 840 821 809 875 839 828 791 745 877 829 841 873 878 847 855 822 864 878 746 914 859 873 828 858 876 813 925 893 868 856 807 838 860 888 875 887 837 877 865 862 910 857 897 841 848 879 830 844 894 826 844 903 891 852 886 898 870 882 870 875 816 882 871 882 897 900 851 867 848 792 863 815 847 833 824 891 813 852 825 791 847 850 808 818 777 827 824 801 809 800 811 857 882 828 806 813 811 814 830 832 804 819 795 828 834 805 743 884 777 846 816 806 824 799 820 855 785 827 853 828 866 788 869 837 801 824 820 824 803 863 746 872 791 830 763 809 829 740 813 811 858 828 809 809 782 815 842 838 809 823 838 783 836 843 792 817 811 815 850 853 776 842 813 747 771 837 825 813 779 795 870 829 796 849 839 874 842 819 838 849 829 839 841 817 834 787 805 850 845 824 864 784 820 829 780 833 785 827 840 826 830 798 817 761 852 807 819 859 856 848 917 853 851 822 825 882 799 852 858 827 784 775 874 876 824 844 874 826 852 868 875 809 769 846 826 853 848 836 800 854 911 843 877 780 851 871 894 848 825 844 857 833 821 874 875 842 773 817 840 887 795 826 853 802 837 800 862 799 822 862 819 807 797 769 875 839 831 827 817 829 830 818 833 802 839 761 797 831 811 843 762 831 845 831 809 786 897 832 844 767 834 820 780 799 810 799 771 864 794 806 804 836 827 804 835 809 813 801 854 837 817 823 801 828 874 814 805 856 790 855 769 777 766 803 840 780 804 812 785 789 818 817 798 766 781 820 821 802 806 864 806 879 797 858 790 785 767 818 805 843 842 798 804 829 755 865 817 787 777 833 751 811 777 807 794 766 838 816 725 735 770 822 838 753 811 801 802 827 769 787 820 779 810 749 772 801 795 791 773 794 783 748 821 797 833 777 796 725 791 782 768 776 831 787 743 806 792 790 793 804 799 809 739 806 787 837 827 829 799 760 772 733 816 768 788 842 774 828 827 783 801 811 818 873 846 768 804 813 828 836 815 793 761 772 826 804 837 809 787 805 778 833 735 802 771 803 768 847 846 807 738 838 833 843 831 891 845 840 845 822 865 832 853 826 843 775 850 854 868 790 799 877 843 843 863 856 863 807 842 817 882 872 845 837 807 796 894 883 855 818 845 846 852 841 836 797 831 839 857 836 831 777 891 853 827 767 769 825 845 793 809 771 810 757 853 774 778 758 798 853 806 801 755 799 827 772 792 787 794 857 781 802 805 827 808 809 785 816 757 808 811 825 727 837 773 785 829 801 798 798 833 791 809 799 817 794 822 786 806 850 813 779 751 761 786 788 734 821 821 774 851 756 823 779 773 761 728 869 874 798 822 815 772 803 846 834 780 840 790 789 810 828 782 763 776 806 746 834 775 790 827 817 814 764 804 810 774 838 835 818 757 770 776 895 746 794 874 787 805 808 791 860 828 879 837 819 807 828 786 747 805 795 839 797 838 820 798 780 853 817 773 811 782 820 804 802 818 798 813 794 800 748 823 790 808 768 810 784 779 797 795 830 784 802 811 819 835 801 798 798 812 856 815 857 832 844 857 774 765 775 785 846 815 784 830 811 803 817 824 834 795 825 811 786 837 816 768 867 818 795 882 809 832 818 861 899 896 831 837 822 860 858 882 875 893 836 867 910 935 860 892 964 942 852 883 934 903 874 952 998 985 988 993 1005 1058 1025 967 984 1059 1080 1051 1062 1046 1067 1075 1102 1102 1110 1075 1110 1088 1097 1118 1085 1066 1129 1132 1161 1078 1163 1115 1122 1058 1065 1086 1126 1111 1037 1016 1031 1043 1067 1101 1018 1077 1067 1042 1079 1014 1021 1012 962 979 1007 993 1005 943 960 915 951 976 931 944 948 916 904 911 865 871 923 815 879 885 797 879 886 869 901 870 862 823 791 830 788 867 825 848 832 870 851 857 811 799 831 861 804 825 771 820 826 801 776 794 814 805 831 806 858 801 843 814 773 756 837 804 856 813 762 763 796 832 823 803 806 814 804 805 763 826 825 821 839 818 833 808 787 860 840 797 802 798 760 823 814 844 851 814 793 782 771 857 794 836 798 783 770 804 805 855 794 806 800 801 766 837 809 806 805 843 757 816 820 839 831 821 819 788 786 844 795 867 829 817 815 783 846 849 769 807 847 866 834 793 853 852 775 813 842 826 818 783 841 825 800 827 824 919 793 825 801 869 797 821 772 807 764 826 816 806 784 784 836 779 802 782 774 786 773 839 799 803 812 780 782 781 784 780 854 752 777 772 786 785 832 777 795 809 805 798 823 820 820 793 846 831 777 765 754 824 757 773 808 783 775 820 782 797 779 799 790 824 833 805 812 796 729 829 814 831 779 794 840 769 795 845 782 803 794 796 843 867 751 793 753 760 823 800 799 819 758 823 758 812 800 747 786 813 825 791 795 842 811 757 806 805 810 771 779 785 755 810 785 749 822 777 789 771 828 821 803 780 841 864 791 838 830 839 860 802 833 842 821 753 805 831 785 809 812 813 869 819 769 773 795 883 817 854 799 832 892 831 800 777 813 808 837 788 818 862 804 748 833 762 785 805 761 738 791 780 802 774 803 816 795 793 781 802 832 819 750 793 767 781 747 784 752 788 830 822 791 775 785 805 804 759 774 775 805 793 845 749 809 801 839 782 805 786 794 822 773 830 754 777 815 760 808 755 801 777 760 765 775 733 801 809 755 771 801 787 823 737 755 773 829 749 767 751 814 780 794 764 757 785 784 796 813 850 769 796 834 767 853 774 814 785 835 723 794 768 755 758 857 791 822 724 823 795 774 754 798 817 776 788 742 808 834 800 803 835 825 771 739 809 746 806 783 798 790 799 771 785 743 784 816 806 762 802 811 783 750 756 789 766 798 804 857 756 780 837 802 766 801 741 768 769 809 770 814 784 777 802 788 837 809 768 759 804 806 785 766 763 780 741 827 799 720 809 851 744 800 755 776 745 742 792 802 808 821 775 778 817 742 742 798 839 729 813 790 795 729 788 794 776 821 834 803 763 734 814 753 823 807 785 784 834 798 807 825 754 776 772 834 805 848 792 808 794 859 806 796 773 804 776 787 776 733 824 818 781 773 758 794 811 810 764 813 849 790 852 796 771 804 824 818 807 837 816 822 795 870 838 828 829 877 822 845 870 834 844 845 827 764 864 886 825 797 841 904 865 822 865 871 867 860 851 874 863 840 831 822 808 849 849 863 842 822 880 867 926 833 857 870 853 850 916 886 873 886 875 867 883 856 828 888 793 893 846 894 849 842 871 814 843 839 877 834 859 822 819 807 842 840 884 870 848 849 789 835 777 779 817 831 839 840 895 862 856 789 855 820 793 799 816 842 804 819 792 837 818 811 807 833 846 821 831 790 798 842 838 800 819 804 774 817 820 749 790 780 831 755 823 838 821 782 833 791 783 759 763 818 794 830 803 752 768 754 848 790 816</counts>
			</dataPoints>
		</scan>
	</xrdMeasurement>
</xrdMeasurements>
