<?xml version="1.0"?>
<xrdMeasurements xmlns="http://www.xrdml.com/XRDMeasurement/2.3" xmlns:xsi="http://www.w3.org/2001/XMLSchema-instance" xsi:schemaLocation="http://www.xrdml.com/XRDMeasurement/2.3 http://www.xrdml.com/XRDMeasurement/2.3/XRDMeasurement.xsd" status="Completed" recordIdentifier="{A63AFCA0-C00D-47C5-B90C-D729DCFC3220}">
	<comment>
		<entry/>
	</comment>
	<sample type="To be analyzed">
		<id>GPSS_Li2Co0p5Fe0p25Mn0p25Cl4_110625_690d9f07f040177efa2b78e8</id>
		<name></name>
		<preparedBy></preparedBy>
	</sample>
	<xrdMeasurement measurementType="Scan" status="Completed" sampleMode="Reflection">
		<usedWavelength intended="K-Alpha 1">
			<kAlpha1 unit="Angstrom">1.5405980</kAlpha1>
			<kAlpha2 unit="Angstrom">1.5444260</kAlpha2>
			<kBeta unit="Angstrom">1.3922500</kBeta>
			<ratioKAlpha2KAlpha1>0.5000</ratioKAlpha2KAlpha1>
		</usedWavelength>
		<incidentBeamPath>
			<radius unit="mm">145.00</radius>
			<xRayTube id="1010048" name="Empyrean Cu LFF HR (9430 033 7310x)">
				<tension unit="kV">40.0</tension>
				<current unit="mA">15.0</current>
				<anodeMaterial>Cu</anodeMaterial>
				<focus type="Line">
					<length unit="mm">12.0</length>
					<width unit="mm">0.4</width>
					<takeOffAngle unit="deg">6.0</takeOffAngle>
				</focus>
			</xRayTube>
			<sollerSlit id="21010002" name="Soller slits 0.04 rad.">
				<opening unit="rad">0.0400</opening>
			</sollerSlit>
			<mask id="22031000" name="Fixed mask 13 mm">
				<width unit="mm">9.00</width>
			</mask>
			<divergenceSlit id="22120001" name="Divergence slit 1°" xsi:type="fixedDivergenceSlitType">
				<distanceToSample unit="mm">50.00</distanceToSample>
				<height unit="mm">1.52</height>
			</divergenceSlit>
		</incidentBeamPath>
		<sampleMovement xsi:type="spinningSampleMovementType">
			<spinnerRevolutionTime unit="seconds">1.0</spinnerRevolutionTime>
		</sampleMovement>
		<diffractedBeamPath>
			<radius unit="mm">145.00</radius>
			<antiScatterSlit id="22090040" name="AS slit 9 mm (PIXcel)" xsi:type="fixedAntiScatterSlitType">
				<height unit="mm">9.00</height>
			</antiScatterSlit>
			<sollerSlit id="21020003" name="Large Soller slits 0.04 rad.">
				<opening unit="rad">0.0400</opening>
			</sollerSlit>
			<filter id="20030001" name="Large beta-filter Nickel">
				<material>Ni</material>
				<thickness unit="mm">0.020</thickness>
			</filter>
			<detector id="7010019" name="PIXcel1D-Medipix3 detector" xsi:type="rtmsDetectorType">
				<phd unit="keV">
					<lowerLevel>4.02</lowerLevel>
					<upperLevel>11.27</upperLevel>
				</phd>
				<mode>Scanning</mode>
				<activeLength unit="deg">5.542</activeLength>
			</detector>
		</diffractedBeamPath>
		<scan appendNumber="0" mode="Continuous" scanAxis="Gonio" status="Completed">
			<header>
				<startTimeStamp>2025-11-08T16:09:00-08:00</startTimeStamp>
				<endTimeStamp>2025-11-08T16:17:07-08:00</endTimeStamp>
				<author>
					<name>AutomatedUser</name>
				</author>
				<source>
					<applicationSoftware version="1.7b (136)">PANalytical Aeris Instrument Suite</applicationSoftware>
					<instrumentControlSoftware version="3.2.00000000 20240306">AERIS</instrumentControlSoftware>
					<instrumentID>950485</instrumentID>
				</source>
			</header>
			<dataPoints>
				<positions axis="2Theta" unit="deg">
					<startPosition>10.00943322</startPosition>
					<endPosition>99.99442286</endPosition>
				</positions>
				<positions axis="Omega" unit="deg">
					<startPosition>5.00471661</startPosition>
					<endPosition>49.99721143</endPosition>
				</positions>
				<commonCountingTime unit="seconds">12.495</commonCountingTime>
				<counts unit="counts">3484 3430 3508 3355 3415 3398 3474 3366 3443 3427 3435 3534 3422 3434 3431 3368 3468 3441 3566 3546 3577 3516 3389 3445 3444 3505 3512 3462 3478 3500 3491 3536 3460 3583 3428 3535 3388 3488 3464 3388 3415 3563 3594 3501 3470 3321 3594 3452 3504 3578 3566 3547 3564 3579 3509 3578 3552 3488 3521 3460 3586 3545 3576 3506 3503 3506 3595 3650 3549 3558 3641 3499 3585 3542 3465 3642 3548 3572 3643 3439 3677 3560 3589 3458 3500 3609 3572 3625 3580 3628 3581 3675 3484 3587 3681 3594 3558 3596 3584 3508 3619 3647 3623 3686 3724 3666 3699 3694 3699 3720 3574 3615 3681 3766 3724 3756 3605 3674 3653 3745 3792 3788 3637 3680 3584 3718 3695 3634 3650 3708 3676 3668 3823 3693 3733 3721 3686 3723 3778 3711 3707 3783 3813 3895 3673 3724 3681 3721 3789 3752 3668 3620 3748 3714 3720 3748 3758 3735 3645 3749 3611 3867 3740 3799 3586 3703 3693 3686 3736 3811 3735 3631 3681 3772 3650 3697 3735 3800 3795 3712 3772 3672 3688 3778 3750 3846 3756 3710 3681 3750 3704 3691 3658 3719 3703 3723 3682 3836 3749 3627 3662 3609 3620 3734 3730 3866 3803 3700 3782 3605 3639 3656 3747 3676 3707 3755 3634 3752 3720 3738 3709 3597 3720 3654 3619 3681 3749 3705 3782 3656 3661 3673 3718 3638 3653 3553 3814 3669 3607 3683 3660 3560 3727 3756 3573 3613 3645 3637 3620 3649 3597 3752 3699 3670 3692 3621 3716 3634 3687 3692 3525 3747 3778 3663 3626 3618 3614 3721 3698 3595 3647 3702 3772 3717 3677 3645 3689 3722 3689 3630 3611 3686 3613 3703 3732 3576 3724 3673 3721 3673 3734 3633 3774 3675 3647 3671 3633 3738 3694 3543 3639 3713 3613 3632 3648 3706 3647 3715 3622 3815 3654 3788 3791 3659 3709 3733 3626 3780 3640 3690 3671 3673 3693 3805 3821 3658 3796 3612 3686 3717 3970 3810 3809 3759 3842 3781 3811 3882 3762 3794 3721 3715 3782 3795 3747 3922 3780 3884 3745 3821 3779 3832 3792 3813 3884 3902 3798 3870 3902 3909 3724 3858 3822 3905 3953 3869 3857 3904 3882 3951 4015 3941 3973 3949 4019 3901 3980 3889 3781 3924 4086 3972 3986 4010 4061 4100 4005 4089 4076 4102 3973 4084 4107 4112 3999 3956 4066 4058 4093 4082 4159 4089 4037 4022 4114 4020 4102 4072 4010 4101 4112 4056 4100 3983 4157 4040 4181 4052 4123 4137 4102 4149 4117 4148 4018 4177 4172 4220 4193 4277 4191 4265 4219 4330 4321 4309 4323 4371 4342 4346 4315 4403 4426 4369 4441 4454 4567 4431 4519 4457 4585 4726 4713 4642 4807 4555 4793 4882 4724 4773 4842 4850 4961 4877 5108 5142 5362 5215 5389 5384 5389 5468 5374 5567 5748 5769 5715 5793 5732 5926 5814 5912 5866 5877 5915 6086 5987 5936 6078 6056 6025 6027 6168 6067 5987 6152 5997 5841 5971 6051 5891 5695 5754 5483 5495 5477 5585 5632 5575 5554 5581 5485 5557 5648 5679 5563 5594 5486 5506 5386 5159 5192 5172 5026 4876 5032 4800 4834 4776 4558 4715 4410 4350 4265 4358 4202 4178 4201 4070 4020 4127 4060 4069 4011 4054 3981 3985 3915 4066 3975 3922 4056 3902 3963 3937 3965 3849 3929 3824 3955 3940 3965 3943 3913 3917 3975 3894 3853 3863 3920 3923 3933 3856 3946 3943 3932 3837 3870 3901 3972 3771 3882 3945 3860 3860 3853 3939 3904 3766 3858 3774 3891 3873 3761 3772 3869 3832 3805 3892 3902 3838 3825 3799 3863 3821 3796 3845 3763 3797 3790 3845 3929 3809 3770 3670 3810 3790 3762 3859 3784 3756 3763 3751 3701 3731 3739 3798 3747 3826 3732 3789 3696 3826 3771 3648 3742 3705 3667 3624 3712 3724 3749 3779 3843 3846 3722 3734 3802 3629 3832 3710 3785 3778 3749 3861 3767 3797 3718 3769 3819 3818 3676 3756 3834 3753 3859 3747 3735 3722 3736 3653 3824 3747 3845 3722 3859 3744 3735 3833 3856 3807 3863 3968 3709 3922 3791 3920 4023 3913 3981 3969 3902 3882 4043 3893 4045 3807 3893 4000 3849 4005 4001 3889 4023 3999 3910 4087 3953 3968 3919 3853 3856 3880 3870 3841 3795 3802 3734 3746 3764 3637 3693 3731 3659 3612 3585 3728 3730 3735 3621 3574 3744 3622 3690 3684 3752 3700 3650 3704 3607 3657 3680 3680 3652 3663 3717 3696 3643 3684 3556 3797 3774 3513 3650 3658 3746 3667 3662 3568 3619 3660 3583 3526 3517 3558 3657 3595 3733 3488 3613 3617 3670 3597 3757 3718 3592 3611 3676 3630 3541 3595 3618 3621 3681 3660 3621 3598 3565 3572 3602 3530 3701 3618 3638 3640 3648 3576 3640 3623 3535 3633 3535 3586 3628 3645 3664 3583 3594 3597 3793 3528 3418 3592 3646 3586 3589 3551 3609 3539 3662 3605 3651 3609 3675 3648 3693 3629 3677 3549 3558 3545 3648 3635 3655 3640 3589 3487 3498 3522 3570 3636 3570 3490 3518 3632 3646 3659 3663 3592 3615 3607 3559 3682 3635 3552 3656 3619 3676 3604 3585 3633 3642 3612 3586 3659 3615 3541 3503 3682 3530 3633 3559 3654 3619 3574 3522 3610 3546 3546 3577 3511 3578 3475 3584 3468 3551 3591 3545 3633 3648 3606 3627 3584 3504 3538 3484 3563 3460 3560 3606 3509 3568 3528 3465 3501 3484 3556 3409 3597 3513 3653 3500 3422 3436 3600 3449 3486 3522 3576 3470 3507 3523 3560 3536 3612 3542 3553 3550 3533 3533 3572 3491 3503 3523 3472 3562 3504 3482 3551 3434 3595 3421 3608 3557 3561 3539 3590 3537 3477 3532 3413 3431 3557 3453 3490 3594 3493 3438 3403 3522 3521 3568 3544 3597 3604 3492 3542 3543 3544 3430 3528 3481 3548 3565 3593 3477 3612 3385 3503 3444 3490 3414 3487 3507 3531 3470 3521 3478 3414 3520 3484 3550 3517 3449 3547 3515 3494 3554 3483 3513 3444 3488 3395 3461 3453 3527 3436 3359 3423 3410 3393 3434 3550 3476 3546 3472 3530 3557 3404 3511 3479 3465 3464 3482 3515 3485 3405 3513 3355 3536 3487 3536 3486 3507 3400 3490 3467 3429 3394 3478 3375 3561 3536 3489 3593 3535 3575 3476 3517 3520 3642 3489 3540 3607 3514 3473 3420 3414 3506 3379 3552 3618 3400 3503 3576 3484 3487 3466 3451 3510 3426 3509 3482 3470 3461 3586 3491 3586 3635 3486 3457 3574 3507 3502 3579 3530 3549 3551 3563 3458 3546 3630 3545 3605 3547 3498 3546 3521 3558 3453 3610 3539 3399 3464 3693 3541 3557 3456 3490 3556 3544 3567 3591 3583 3532 3501 3500 3502 3530 3498 3478 3541 3649 3526 3502 3504 3455 3479 3606 3459 3562 3524 3563 3604 3546 3428 3559 3506 3485 3522 3516 3475 3424 3522 3523 3510 3520 3540 3578 3503 3417 3502 3453 3547 3498 3496 3611 3538 3427 3393 3488 3436 3475 3437 3427 3451 3463 3410 3479 3416 3458 3404 3495 3421 3417 3459 3417 3307 3419 3436 3398 3463 3490 3458 3440 3380 3380 3388 3337 3355 3452 3350 3390 3400 3404 3363 3341 3466 3440 3358 3382 3421 3377 3451 3327 3359 3459 3306 3310 3453 3257 3201 3285 3375 3324 3183 3330 3311 3243 3314 3369 3293 3296 3197 3424 3243 3318 3207 3281 3354 3337 3268 3271 3234 3155 3264 3148 3314 3295 3269 3220 3164 3215 3115 3175 3257 3301 3231 3180 3293 3175 3096 3277 3208 3212 3190 3267 3267 3067 3161 3148 3159 3233 3233 3092 3149 3200 3070 3142 3208 3310 3142 3151 3175 3157 3097 3174 3107 3125 3055 3082 3091 3122 3185 3251 3085 3108 3088 3162 3092 3117 3123 3102 3107 3037 3256 3085 2995 3143 3116 3106 3159 3031 3113 3082 3087 3028 3112 3134 3081 3015 2993 3042 3123 3091 3111 3085 3087 3143 3092 3109 3092 2979 3117 3086 3060 3086 3084 3063 3084 3074 3187 3028 3057 3172 2934 3276 3077 3110 3040 3030 3055 3094 3054 3128 3056 3152 3010 3098 3090 3114 3211 3265 3146 3083 3108 3079 3162 3134 3210 3177 3194 3246 3253 3151 3273 3175 3173 3292 3166 3304 3278 3308 3346 3312 3365 3311 3290 3243 3313 3213 3136 3126 3125 3195 3079 3170 3230 3125 3115 3125 3152 3176 3172 3062 3088 3125 3117 3063 3131 3057 3156 3048 3109 2932 3117 3082 2909 3068 3130 3060 3018 3040 2903 3045 2915 2957 2995 3037 3000 3008 3013 3002 2997 3031 2970 2970 3065 3041 3129 2981 3038 2994 2944 3044 3091 3033 3091 3157 2956 3081 3025 3030 3041 2945 2915 2980 3048 3001 3121 3040 2969 3021 3051 3025 2970 3060 3078 3087 2960 2964 3107 3060 3048 3077 3120 3042 3140 3094 3045 2963 3096 3059 3080 3018 2995 3020 2970 3051 2940 3006 3061 3013 3137 3060 3039 3049 3027 3104 3002 3097 3078 2924 3082 3014 3073 3057 2993 2977 3117 2929 2971 2986 2980 3025 3052 3018 3177 3113 2980 2995 3092 3040 3066 3039 3042 2919 3008 3128 3054 3080 3067 2935 3013 2948 3061 3060 3022 3062 3074 3062 3115 2911 2965 3019 3080 3066 3104 2975 3058 3023 3099 2952 3019 3023 2969 3105 2969 3034 3123 2995 2973 3044 2981 2992 3045 2996 3086 3098 2967 2993 3030 3121 3025 3030 3087 3070 3067 3065 3002 2962 2925 3040 3044 2993 2927 3036 3003 2962 2979 2921 2915 2957 3093 2968 2956 2892 2982 3023 2950 2861 2921 2817 2880 2920 2958 2903 3001 2890 2968 3029 2815 2871 2941 2820 2866 2938 2855 2869 2957 2906 2786 2910 2888 2942 2966 2909 2805 2959 2846 2873 2745 2880 2942 2912 2819 2794 2936 2794 2960 2827 2930 2825 2930 2948 2861 2903 2795 2807 2862 2893 2738 2868 2852 2835 2906 2834 2783 2868 2861 2853 2821 2787 2789 2749 2924 2813 2858 2824 2762 2874 2875 2804 2876 2844 2889 2768 2961 2750 2809 2842 2952 2832 2964 2799 2902 2779 2852 2807 2744 2754 2822 2866 2834 2754 2882 2835 2824 2873 2841 2791 2821 2893 2853 2814 2809 2866 2836 2876 2911 2899 2885 2892 2964 2854 2935 2890 2990 2957 2903 3023 3024 2884 3072 3002 3087 3034 3026 3085 3021 3029 3198 3140 3154 3134 3099 3106 3088 3103 3141 3184 3139 3138 3162 3107 3065 3163 3153 3106 3103 3161 3092 3116 3110 3269 3145 3134 3098 3099 3219 3167 3206 3186 3156 3059 3156 3163 3186 3187 3176 3112 3172 3199 3265 3276 3276 3184 3282 3234 3155 3220 3258 3195 3260 3102 3178 3116 3237 3165 3171 3182 3135 3165 3101 3069 3066 3039 2991 3100 3002 2996 3162 2957 2958 3009 3012 3046 2909 2943 2902 2749 2856 2820 2932 2939 2858 2905 2875 2799 2917 2815 2906 2917 2829 2878 2916 2864 2849 2909 2870 2904 2921 2818 2911 2873 2991 2940 3100 3004 3004 2935 2965 3137 3086 3039 3169 3111 3210 3253 3179 3235 3243 3270 3230 3299 3318 3370 3288 3444 3383 3399 3513 3406 3496 3475 3384 3543 3548 3476 3494 3531 3461 3512 3629 3585 3539 3475 3612 3672 3740 3673 3690 3773 3582 3767 3871 4018 4043 3937 4032 4133 4210 4212 4217 4332 4352 4288 4433 4495 4353 4344 4286 4186 4118 3977 3951 3772 3632 3671 3620 3612 3398 3275 3281 3122 3150 3039 3023 2910 2921 2911 2964 2938 2906 2860 2937 2789 2731 2779 2803 2705 2709 2767 2719 2699 2649 2818 2782 2756 2543 2700 2689 2739 2707 2797 2689 2555 2649 2665 2710 2627 2687 2700 2657 2617 2567 2537 2667 2562 2653 2651 2646 2663 2513 2647 2557 2630 2654 2605 2647 2536 2599 2549 2691 2624 2645 2620 2654 2608 2590 2644 2663 2492 2625 2582 2686 2625 2644 2644 2541 2657 2681 2651 2613 2681 2617 2566 2594 2685 2620 2650 2535 2555 2627 2542 2636 2699 2600 2658 2671 2662 2628 2685 2542 2611 2607 2552 2564 2571 2523 2618 2594 2711 2726 2559 2626 2574 2737 2678 2566 2631 2633 2671 2598 2556 2589 2568 2506 2636 2560 2617 2619 2679 2613 2589 2621 2560 2611 2482 2640 2542 2523 2601 2533 2562 2546 2644 2534 2627 2590 2577 2598 2670 2578 2581 2593 2580 2683 2540 2582 2605 2609 2546 2548 2623 2663 2524 2576 2618 2598 2531 2590 2545 2539 2599 2640 2533 2586 2576 2496 2612 2532 2556 2564 2498 2613 2581 2609 2598 2570 2692 2631 2660 2628 2559 2596 2636 2643 2632 2597 2558 2568 2625 2559 2652 2566 2593 2596 2584 2519 2658 2469 2661 2634 2591 2591 2522 2543 2548 2590 2543 2578 2555 2604 2532 2480 2604 2610 2493 2596 2584 2518 2521 2563 2572 2551 2709 2502 2595 2515 2540 2590 2551 2456 2558 2555 2637 2548 2536 2555 2584 2636 2642 2588 2547 2529 2546 2562 2607 2614 2622 2545 2576 2524 2562 2551 2685 2565 2557 2626 2551 2607 2643 2589 2623 2582 2603 2538 2569 2524 2516 2549 2573 2559 2636 2519 2586 2599 2594 2536 2622 2597 2609 2608 2636 2634 2673 2574 2625 2570 2612 2637 2602 2611 2625 2618 2637 2575 2678 2684 2625 2650 2640 2715 2669 2664 2641 2703 2658 2627 2723 2656 2669 2518 2651 2668 2687 2727 2679 2619 2583 2746 2727 2662 2775 2788 2679 2771 2769 2778 2818 2750 2739 2784 2804 2923 2829 2973 2950 2884 3013 2945 3060 3043 3029 3227 3185 3209 3232 3193 3269 3293 3448 3451 3611 3606 3556 3748 3854 3824 3958 4126 4106 4144 4138 4326 4246 4322 4409 4404 4582 4436 4620 4737 4727 4707 4734 4831 4797 4798 4834 4881 4795 4903 4989 4900 4994 5121 4984 5135 5084 5085 5273 5248 5432 5274 5473 5452 5580 5597 5750 5904 5844 5956 6132 6284 6376 6552 6616 6726 6923 6940 7195 7257 7416 7606 7650 7722 7691 7480 7454 7253 7175 7049 6884 6478 6524 6233 6117 5978 5744 5536 5462 5418 5109 5161 4951 4765 4705 4684 4478 4339 4284 4185 3989 3944 3852 3825 3613 3570 3516 3434 3377 3299 3320 3244 3104 3106 3052 3113 3043 2989 2968 2889 2934 2956 2985 2898 2777 2904 2871 2906 2836 2889 2835 2783 2921 2868 2756 2726 2759 2807 2869 2751 2782 2696 2744 2798 2777 2825 2703 2801 2678 2780 2710 2810 2669 2639 2690 2683 2563 2705 2708 2585 2582 2593 2697 2711 2707 2629 2631 2610 2653 2571 2669 2581 2632 2611 2733 2610 2711 2605 2562 2605 2624 2594 2666 2564 2588 2632 2641 2552 2490 2594 2601 2600 2602 2656 2604 2544 2715 2659 2604 2468 2534 2568 2515 2584 2595 2621 2597 2555 2543 2627 2626 2613 2614 2698 2632 2591 2606 2581 2710 2592 2562 2576 2622 2651 2538 2631 2612 2567 2539 2579 2614 2572 2551 2619 2602 2630 2595 2563 2587 2552 2519 2652 2668 2616 2538 2535 2596 2547 2612 2596 2702 2563 2528 2668 2532 2626 2675 2608 2563 2679 2597 2551 2631 2545 2555 2582 2601 2514 2571 2587 2572 2491 2613 2486 2578 2545 2456 2582 2589 2490 2610 2523 2609 2619 2651 2557 2481 2575 2596 2492 2543 2628 2488 2573 2591 2554 2552 2521 2516 2586 2614 2645 2645 2689 2622 2609 2605 2511 2606 2550 2622 2622 2620 2589 2502 2587 2546 2614 2558 2606 2567 2542 2545 2597 2621 2609 2661 2680 2619 2552 2663 2612 2494 2528 2582 2573 2590 2593 2515 2637 2633 2567 2576 2653 2634 2589 2631 2512 2718 2612 2528 2589 2585 2560 2553 2549 2590 2638 2655 2647 2676 2720 2688 2630 2650 2737 2670 2625 2678 2705 2695 2804 2724 2744 2781 2723 2735 2594 2741 2822 2665 2723 2728 2622 2616 2636 2563 2744 2746 2599 2604 2630 2603 2639 2558 2604 2651 2586 2526 2560 2593 2496 2468 2536 2617 2585 2639 2547 2603 2538 2573 2620 2583 2481 2514 2608 2562 2518 2666 2567 2538 2630 2594 2590 2511 2607 2631 2544 2542 2574 2491 2578 2582 2666 2565 2553 2546 2619 2506 2592 2558 2556 2519 2611 2528 2612 2632 2586 2663 2617 2713 2584 2446 2520 2543 2667 2793 2567 2567 2671 2574 2754 2603 2610 2712 2646 2750 2701 2672 2604 2743 2697 2650 2604 2673 2675 2628 2794 2744 2687 2657 2679 2595 2652 2654 2597 2630 2624 2606 2669 2667 2604 2663 2629 2511 2529 2610 2583 2608 2560 2516 2473 2476 2594 2592 2562 2514 2536 2505 2511 2537 2478 2465 2515 2504 2584 2488 2473 2505 2479 2468 2503 2539 2647 2542 2493 2599 2462 2594 2548 2505 2558 2593 2541 2583 2607 2620 2554 2571 2520 2536 2563 2602 2547 2491 2518 2457 2547 2499 2474 2468 2495 2523 2524 2480 2618 2516 2484 2480 2444 2577 2462 2614 2484 2479 2447 2525 2544 2500 2570 2483 2542 2540 2560 2568 2495 2402 2573 2485 2483 2518 2579 2524 2531 2482 2506 2603 2591 2535 2556 2564 2526 2434 2506 2465 2440 2456 2488 2458 2548 2542 2621 2557 2550 2519 2525 2561 2592 2554 2522 2619 2563 2464 2539 2491 2472 2501 2598 2534 2557 2588 2450 2494 2517 2513 2512 2526 2521 2606 2478 2678 2486 2481 2467 2537 2485 2514 2541 2469 2498 2544 2522 2511 2555 2464 2551 2497 2576 2583 2553 2473 2519 2571 2572 2631 2572 2453 2488 2518 2587 2565 2559 2530 2537 2544 2519 2597 2547 2640 2489 2503 2549 2491 2574 2544 2459 2630 2447 2506 2485 2493 2532 2567 2593 2579 2554 2521 2524 2547 2507 2550 2521 2582 2490 2538 2518 2580 2538 2593 2545 2468 2491 2504 2498 2478 2366 2564 2498 2588 2508 2377 2450 2453 2450 2484 2516 2596 2538 2490 2554 2540 2578 2557 2555 2538 2428 2536 2576 2495 2561 2507 2537 2440 2540 2558 2538 2517 2548 2423 2529 2463 2508 2537 2549 2583 2482 2484 2510 2600 2548 2565 2522 2580 2573 2588 2520 2495 2567 2527 2536 2482 2482 2596 2537 2512 2588 2446 2465 2492 2497 2521 2422 2613 2575 2564 2492 2579 2570 2467 2550 2588 2515 2542 2554 2362 2465 2524 2602 2528 2576 2511 2556 2595 2554 2547 2632 2472 2620 2610 2525 2559 2531 2545 2622 2724 2596 2598 2533 2602 2659 2519 2594 2628 2630 2597 2628 2687 2605 2639 2599 2698 2710 2649 2628 2645 2591 2626 2709 2665 2580 2651 2562 2658 2572 2618 2575 2609 2648 2744 2633 2526 2528 2531 2581 2603 2584 2565 2565 2507 2558 2553 2639 2561 2521 2579 2483 2464 2543 2533 2566 2520 2599 2546 2526 2569 2513 2604 2575 2562 2595 2604 2566 2576 2438 2518 2529 2478 2529 2598 2520 2555 2536 2523 2513 2589 2500 2460 2399 2518 2522 2579 2457 2536 2607 2613 2516 2554 2487 2555 2518 2433 2510 2550 2448 2613 2471 2454 2570 2606 2532 2473 2493 2522 2502 2528 2551 2543 2576 2613 2623 2554 2646 2533 2577 2497 2574 2451 2448 2500 2555 2537 2578 2501 2498 2550 2573 2509 2525 2546 2620 2606 2577 2481 2516 2532 2486 2590 2573 2519 2610 2641 2630 2486 2541 2492 2593 2587 2629 2606 2513 2497 2546 2476 2663 2636 2474 2530 2529 2578 2631 2486 2520 2521 2541 2498 2562 2533 2552 2585 2563 2527 2631 2581 2616 2573 2591 2461 2647 2587 2631 2529 2667 2596 2488 2592 2616 2604 2689 2608 2687 2612 2626 2671 2572 2584 2637 2602 2616 2662 2588 2645 2727 2697 2612 2763 2685 2770 2653 2658 2587 2795 2758 2698 2629 2726 2783 2697 2700 2724 2740 2681 2734 2673 2794 2713 2670 2632 2671 2623 2780 2797 2686 2608 2747 2726 2665 2782 2734 2733 2720 2777 2802 2724 2802 2674 2675 2838 2737 2849 2758 2804 2692 2795 2710 2774 2968 2952 2853 2812 2920 2882 2793 2941 2859 2986 2898 2887 2943 2998 2975 2942 3033 2960 2897 2916 2946 2936 2928 2872 2923 2907 2795 2884 2923 2887 2952 2888 2795 2862 2860 2714 2875 2682 2707 2743 2779 2762 2726 2652 2674 2693 2628 2742 2690 2737 2740 2626 2639 2641 2661 2714 2600 2595 2521 2550 2576 2660 2569 2624 2615 2572 2630 2617 2606 2635 2662 2551 2548 2631 2583 2650 2618 2648 2547 2605 2612 2590 2556 2611 2627 2553 2634 2430 2594 2566 2589 2648 2547 2563 2666 2534 2558 2551 2647 2593 2571 2608 2605 2521 2539 2635 2528 2552 2533 2545 2661 2534 2586 2631 2540 2556 2525 2630 2561 2569 2580 2622 2608 2560 2564 2501 2600 2585 2559 2477 2531 2549 2586 2613 2529 2508 2495 2470 2585 2572 2596 2558 2526 2528 2518 2591 2559 2542 2359 2524 2533 2662 2547 2610 2656 2494 2570 2559 2538 2514 2565 2573 2678 2632 2614 2572 2562 2594 2553 2618 2586 2518 2560 2521 2562 2575 2527 2512 2619 2602 2515 2536 2579 2597 2624 2504 2609 2568 2523 2646 2505 2592 2535 2537 2479 2592 2541 2568 2509 2585 2477 2611 2482 2645 2571 2545 2666 2577 2531 2626 2606 2552 2599 2633 2597 2615 2672 2521 2526 2485 2552 2519 2621 2499 2570 2542 2638 2508 2548 2620 2545 2561 2655 2511 2580 2609 2556 2500 2551 2527 2637 2628 2621 2525 2581 2574 2547 2525 2624 2444 2484 2557 2673 2597 2617 2551 2582 2574 2507 2524 2570 2503 2560 2566 2548 2534 2534 2584 2595 2580 2557 2506 2675 2566 2672 2515 2546 2600 2643 2633 2624 2647 2566 2562 2583 2627 2580 2600 2611 2688 2592 2639 2692 2677 2636 2614 2613 2649 2735 2713 2609 2679 2743 2638 2723 2787 2641 2713 2692 2778 2805 2779 2806 2828 2871 2900 2810 2969 2942 2917 3046 2947 3136 2944 3048 2951 3051 3120 3122 3085 3191 3184 3154 3191 3269 3240 3244 3281 3247 3254 3270 3103 3288 3227 3204 3262 3206 3294 3358 3325 3364 3333 3429 3319 3405 3395 3312 3471 3365 3405 3345 3457 3405 3367 3449 3461 3445 3349 3441 3365 3291 3349 3242 3368 3296 3303 3403 3293 3350 3298 3220 3313 3217 3347 3252 3161 3355 3325 3320 3266 3466 3466 3464 3452 3584 3596 3645 3796 3754 3902 3880 3994 4113 4171 4263 4348 4498 4584 4649 4608 4839 4752 4734 4855 4786 4789 4779 4630 4548 4565 4616 4542 4406 4408 4243 4260 4099 3980 3901 3849 3808 3722 3695 3531 3489 3497 3354 3336 3358 3214 3086 3190 3255 3120 3138 3207 3122 3044 3087 2985 3050 3070 2988 2935 3098 3018 3036 3078 2930 2958 2890 2821 2884 2913 2946 2866 2961 2822 2763 2834 2914 2843 2807 2827 2805 2732 2805 2874 2829 2714 2827 2761 2755 2775 2696 2823 2782 2674 2763 2705 2694 2704 2695 2693 2639 2698 2811 2669 2704 2666 2745 2770 2779 2769 2710 2732 2772 2701 2732 2720 2769 2683 2754 2747 2780 2747 2763 2679 2682 2762 2839 2794 2751 2760 2792 2651 2691 2719 2656 2720 2786 2692 2661 2675 2703 2615 2607 2639 2598 2707 2661 2606 2606 2703 2778 2642 2681 2668 2639 2648 2553 2621 2685 2633 2611 2769 2574 2615 2708 2704 2691 2634 2579 2637 2683 2710 2624 2634 2538 2705 2746 2658 2708 2732 2690 2688 2664 2685 2615 2625 2696 2693 2681 2715 2628 2686 2744 2717 2651 2747 2633 2661 2707 2616 2689 2637 2634 2679 2711 2615 2681 2707 2654 2645 2615 2659 2753 2652 2609 2621 2617 2641 2750 2692 2736 2745 2560 2807 2646 2632 2677 2680 2720 2748 2668 2686 2764 2758 2785 2810 2805 2887 2787 2814 2773 2875 2709 2807 2897 2867 2830 2827 2821 2746 2808 2858 2795 2877 2879 2867 2809 2770 2743 2731 2723 2737 2676 2779 2676 2690 2766 2660 2670 2765 2701 2716 2721 2671 2781 2791 2774 2733 2737 2590 2662 2648 2691 2700 2611 2684 2796 2691 2716 2716 2668 2667 2703 2677 2681 2668 2688 2595 2655 2592 2747 2639 2665 2783 2687 2657 2699 2700 2759 2680 2641 2685 2601 2587 2680 2550 2565 2691 2622 2711 2649 2578 2681 2582 2679 2644 2630 2575 2636 2591 2654 2505 2598 2629 2586 2598 2644 2626 2625 2610 2649 2624 2629 2684 2686 2571 2607 2650 2640 2498 2559 2678 2638 2559 2661 2665 2590 2649 2622 2490 2593 2577 2668 2551 2584 2669 2690 2605 2593 2612 2597 2552 2620 2592 2633 2528 2562 2592 2644 2640 2564 2595 2641 2562 2512 2601 2585 2510 2521 2569 2545 2606 2602 2584 2569 2593 2562 2621 2608 2670 2636 2573 2519 2533 2688 2621 2563 2606 2614 2531 2514 2591 2538 2597 2594 2451 2493 2531 2471 2517 2585 2509 2499 2531 2549 2559 2625 2419 2520 2598 2527 2575 2551 2550 2618 2500 2529 2555 2498 2514 2489 2606 2632 2618 2471 2535 2503 2509 2538 2584 2562 2626 2578 2511 2618 2515 2466 2562 2523 2540 2645 2523 2576 2598 2644 2526 2650 2508 2594 2653 2632 2555 2557 2515 2579 2484 2576 2567 2520 2520 2535 2651 2527 2603 2619 2579 2493 2594 2632 2567 2676 2573 2554 2543 2598 2675 2509 2627 2467 2483 2647 2545 2435 2558 2555 2593 2423 2586 2533 2569 2513 2481 2555 2624 2597 2525 2543 2587 2587 2554 2610 2555 2613 2514 2587 2544 2473 2485 2611 2451 2487 2494 2541 2485 2583 2535 2632 2514 2616 2440 2553 2531 2502 2552 2510 2573 2609 2457 2492 2482 2473 2587 2510 2608 2542 2631 2577 2467 2522 2472 2550 2498 2479 2493 2606 2517 2568 2527 2530 2526 2474 2469 2584 2514 2615 2521 2540 2507 2541 2538 2663 2524 2603 2510 2589 2557 2529 2578 2523 2499 2645 2580 2603 2571 2608 2605 2600 2572 2598 2573 2504 2603 2608 2563 2582 2584 2534 2611 2566 2707 2552 2573 2660 2585 2620 2670 2523 2581 2663 2565 2609 2580 2520 2602 2627 2547 2686 2577 2562 2608 2623 2559 2652 2618 2592 2644 2643 2478 2623 2582 2559 2584 2636 2696 2715 2556 2595 2521 2653 2532 2565 2572 2547 2649 2578 2554 2657 2577 2607 2445 2588 2656 2539 2586 2569 2564 2540 2521 2613 2584 2611 2619 2505 2616 2586 2571 2566 2562 2548 2581 2563 2609 2473 2651 2549 2477 2557 2492 2540 2614 2561 2511 2566 2484 2483 2565 2459 2500 2568 2622 2572 2509 2555 2535 2513 2636 2632 2571 2501 2576 2534 2561 2549 2548 2581 2563 2465 2540 2459 2560 2628 2643 2568 2586 2537 2574 2526 2722 2480 2529 2606 2518 2592 2591 2701 2548 2545 2572 2576 2554 2487 2607 2540 2531 2529 2518 2580 2538 2580 2544 2655 2558 2559 2633 2537 2599 2595 2605 2552 2569 2579 2591 2523 2549 2568 2541 2618 2601 2641 2648 2627 2662 2614 2671 2602 2638 2566 2616 2594 2598 2638 2606 2648 2575 2547 2702 2698 2523 2658 2546 2644 2666 2599 2637 2705 2690 2713 2618 2637 2660 2656 2630 2650 2663 2686 2749 2681 2646 2717 2650 2680 2708 2697 2625 2690 2650 2705 2774 2631 2678 2639 2693 2635 2727 2606 2687 2669 2680 2701 2740 2620 2576 2713 2618 2705 2685 2745 2705 2587 2628 2574 2723 2531 2673 2721 2566 2670 2560 2552 2625 2610 2710 2680 2547 2662 2591 2629 2687 2696 2730 2761 2645 2709 2753 2614 2714 2712 2836 2720 2784 2728 2841 2821 2779 2766 2806 2859 2834 2870 2783 2905 2973 2883 2968 2873 2902 2876 2919 2901 2807 2866 2918 2926 2883 2879 2851 2791 2772 2801 2728 2763 2793 2775 2797 2852 2739 2772 2759 2623 2722 2601 2693 2647 2750 2673 2658 2579 2670 2683 2708 2606 2711 2573 2606 2618 2657 2646 2599 2706 2629 2514 2598 2606 2733 2614 2564 2634 2559 2607 2573 2607 2549 2649 2603 2676 2714 2652 2610 2611 2548 2551 2537 2560 2597 2708 2576 2571 2596 2673 2497 2585 2689 2610 2549 2624 2433 2494 2602 2593 2530 2638 2537 2576 2599 2619 2607 2579 2615 2549 2542 2626 2615 2734 2553 2619 2606 2518 2506 2619 2610 2628 2510 2641 2586 2622 2542 2619 2518 2535 2567 2543 2528 2567 2638 2649 2617 2494 2510 2561 2590 2607 2556 2567 2562 2634 2599 2512 2514 2638 2594 2637 2572 2655 2577 2532 2574 2628 2720 2579 2606 2644 2682 2677 2567 2676 2661 2698 2644 2633 2657 2622 2571 2658 2704 2658 2711 2747 2667 2733 2626 2732 2726 2727 2728 2666 2735 2766 2732 2874 2757 2605 2733 2740 2803 2764 2765 2688 2812 2709 2739 2712 2826 2787 2700 2732 2895 2789 2764 2771 2713 2815 2777 2833 2854 2875 2789 2768 2854 2742 2732 2749 2797 2874 2778 2803 2789 2828 2848 2785 2779 2995 2898 2876 2897 2752 2847 2791 2756 2788 2819 2709 2721 2784 2728 2768 2716 2854 2834 2807 2854 2773 2639 2768 2773 2761 2805 2779 2683 2729 2716 2714 2728 2767 2692 2835 2750 2715 2785 2882 2829 2839 2875 2883 2978 2916 3023 3085 3025 3065 3012 2963 3063 3056 3192 3117 3048 3097 3243 3107 3127 3068 3013 3077 2987 3016 3071 2969 2976 2913 3130 2992 3018 2784 2946 2908 2992 2879 2848 2923 2806 2910 2853 2841 2915 2839 2804 2756 2776 2766 2840 2877 2795 2805 2744 2792 2825 2755 2808 2746 2777 2808 2702 2709 2692 2636 2704 2642 2707 2645 2745 2728 2614 2754 2655 2652 2682 2698 2650 2773 2590 2611 2607 2663 2633 2711 2656 2663 2756 2656 2744 2706 2668 2689 2684 2642 2542 2587 2752 2710 2769 2787 2662 2698 2727 2650 2778 2778 2658 2674 2800 2692 2674 2676 2739 2731 2653 2709 2738 2695 2813 2701 2772 2649 2744 2701 2672 2577 2687 2627 2668 2619 2730 2640 2698 2576 2545 2594 2656 2627 2663 2574 2598 2578 2698 2711 2723 2632 2599 2623 2621 2710 2638 2705 2676 2689 2592 2638 2607 2642 2627 2623 2565 2708 2724 2647 2646 2591 2532 2522 2624 2665 2640 2726 2685 2571 2648 2693 2588 2627 2672 2642 2701 2611 2675 2622 2576 2680 2656 2642 2765 2738 2637 2572 2701 2614 2645 2689 2715 2643 2685 2617 2726 2716 2802 2761 2723 2681 2709 2752 2757 2706 2744 2732 2772 2699 2648 2729 2760 2752 2719 2781 2784 2624 2708 2662 2757 2723 2684 2723 2686 2706 2640 2644 2708 2642 2720 2625 2722 2628 2703 2621 2550 2632 2708 2695 2633 2664 2651 2544 2676 2617 2588 2672 2581 2590 2667 2659 2648 2624 2670 2685 2645 2610 2605 2551 2735 2685 2552 2597 2614 2667 2615 2651 2627 2567 2524 2687 2663 2588 2565 2553 2673 2727 2576 2636 2708 2737 2652 2522 2603 2607 2649 2519 2595 2519 2561 2618 2650 2621 2622 2604 2574 2624 2580 2599 2690 2714 2550 2562 2544 2593 2638 2555 2590 2625 2530 2571 2631 2682 2686 2625 2588 2616 2510 2644 2530 2633 2553 2515 2572 2636 2592 2604 2578 2545 2509 2552 2608 2646 2541 2535 2671 2528 2558 2589 2566 2649 2546 2623 2564 2639 2585 2606 2515 2449 2529 2581 2703 2491 2569 2654 2524 2655 2548 2553 2600 2636 2555 2531 2478 2468 2555 2655 2578 2532 2602 2664 2529 2545 2536 2572 2539 2521 2534 2535 2518 2586 2617 2593 2526 2561 2584 2630 2601 2510 2651 2635 2517 2602 2498 2625 2557 2607 2553 2591 2545 2623 2602 2625 2489 2648 2587 2669 2507 2685 2579 2434 2522 2510 2647 2524 2536 2539 2489 2571 2539 2603 2582 2564 2583 2586 2478 2599 2559 2643 2587 2655 2694 2543 2690 2521 2515 2663 2503 2562 2437 2578 2647 2552 2538 2624 2490 2626 2547 2606 2561 2551 2573 2705 2579 2553 2635 2676 2630 2457 2591 2523 2598 2540 2533 2536 2562 2631 2577 2531 2540 2564 2610 2498 2667 2583 2550 2534 2556 2652 2546 2565 2615 2604 2548 2587 2532 2567 2564 2536 2560 2662 2539 2481 2516 2678 2575 2639 2585 2587 2575 2531 2663 2547 2555 2440 2595 2621 2617 2556 2659 2678 2597 2641 2615 2558 2625 2481 2584 2581 2664 2678 2554 2634 2579 2543 2616 2616 2572 2588 2636 2641 2669 2630 2654 2692 2625 2610 2542 2639 2635 2658 2559 2597 2674 2609 2592 2559 2662 2621 2546 2515 2682 2563 2600 2524 2627 2678 2616 2516 2663 2573 2591 2511 2567 2635 2600 2567 2698 2559 2545 2505 2585 2579 2571 2627 2622 2606 2565 2505 2599 2528 2584 2572 2549 2497 2576 2598 2557 2654 2536 2582 2628 2624 2585 2553 2557 2666 2610 2614 2551 2591 2609 2529 2623 2581 2546 2582 2484 2690 2552 2684 2538 2577 2673 2584 2581 2590 2673 2590 2590 2524 2556 2526 2564 2606 2710 2634 2552 2616 2608 2604 2741 2559 2587 2582 2509 2622 2616 2598 2619 2597 2638 2630 2648 2575 2645 2611 2690 2584 2604 2626 2621 2642 2578 2645 2714 2621 2624 2579 2667 2733 2639 2653 2591 2561 2566 2599 2546 2603 2538 2664 2625 2576 2566 2610 2532 2639 2616 2612 2626 2633 2612 2571 2546 2575 2576 2592 2673 2665 2663 2567 2698 2579 2671 2577 2590 2637 2579 2540 2561 2588 2619 2636 2578 2500 2561 2685 2748 2583 2615 2653 2607 2615 2529 2626 2618 2693 2682 2603 2610 2650 2622 2665 2662 2646 2710 2638 2616 2657 2701 2601 2629 2698 2692 2639 2703 2648 2576 2632 2658 2737 2650 2661 2667 2608 2664 2733 2681 2648 2665 2629 2679 2581 2654 2578 2664 2662 2537 2633 2627 2593 2574 2639 2642 2605 2668 2553 2622 2689 2634 2539 2725 2651 2603 2565 2647 2610 2563 2610 2607 2604 2551 2590 2625 2637 2566 2668 2583 2512 2572 2595 2596 2623 2584 2630 2598 2503 2600 2626 2543 2578 2541 2529 2699 2593 2546 2668 2579 2597 2547 2579 2534 2550 2500 2608 2650 2520 2593 2502 2567 2743 2560 2605 2626 2577 2622 2636 2579 2662 2558 2611 2550 2631 2552 2619 2681 2619 2638 2541 2708 2574 2603 2568 2602 2640 2479 2629 2646 2679 2553 2526 2539 2655 2489 2531 2615 2602 2536 2548 2552 2587 2534 2608 2573 2623 2555 2716 2546 2598 2601 2689 2623 2633 2565 2668 2678 2607 2586 2692 2641 2652 2720 2555 2596 2583 2606 2549 2565 2628 2577 2659 2647 2605 2537 2564 2623 2638 2664 2583 2723 2646 2641 2652 2649 2582 2575 2592 2622 2704 2743 2564 2694 2673 2549 2675 2643 2693 2615 2663 2584 2619 2609 2687 2610 2615 2642 2640 2668 2683 2670 2635 2691 2525 2630 2773 2705 2639 2650 2627 2684 2720 2652 2654 2655 2582 2623 2675 2726 2650 2657 2623 2706 2752 2681 2710 2614 2738 2560 2694 2591 2732 2610 2692 2694 2584 2594 2610 2682 2708 2626 2641 2652 2686 2616 2549 2660 2573 2638 2597 2674 2616 2580 2720 2638 2615 2635 2657 2745 2770 2649 2557 2667 2660 2617 2641 2709 2601 2660 2723 2659 2763 2685 2723 2721 2827 2701 2732 2777 2621 2707 2769 2612 2761 2774 2694 2707 2728 2758 2881 2796 2782 2834 2817 2826 2828 2817 2912 2935 2823 2745 2951 2801 2984 2936 2827 2850 2845 2837 2846 2769 2917 2839 2754 2795 2782 2795 2829 2789 2704 2828 2706 2829 2772 2758 2835 2726 2770 2784 2795 2674 2706 2789 2780 2794 2712 2697 2730 2745 2657 2765 2659 2761 2703 2654 2720 2713 2727 2692 2708 2747 2669 2658 2740 2610 2714 2597 2648 2600 2595 2696 2731 2605 2610 2730 2664 2597 2596 2636 2581 2681 2643 2586 2639 2684 2595 2602 2562 2651 2715 2582 2682 2580 2629 2627 2583 2654 2642 2649 2582 2536 2726 2587 2667 2550 2600 2556 2666 2675 2613 2566 2591 2573 2634 2668 2611 2491 2559 2614 2646 2515 2533 2652 2606 2557 2606 2626 2554 2534 2638 2646 2648 2571 2617 2548 2652 2549 2568 2514 2545 2504 2598 2506 2622 2523 2641 2627 2611 2602 2548 2656 2597 2628 2620 2674 2621 2651 2553 2608 2638 2584 2585 2588 2572 2586 2621 2611 2579 2632 2649 2519 2671 2584 2551 2617 2573 2602 2558 2628 2501 2649 2569 2681 2646 2541 2748 2607 2670 2645 2579 2608 2556 2676 2635 2619 2540 2612 2648 2520 2663 2579 2672 2524 2608 2619 2630 2521 2686 2574 2621 2675 2599 2633 2692 2543 2645 2607 2592 2586 2557 2635 2667 2609 2614 2528 2641 2657 2564 2577 2520 2571 2675 2666 2512 2585 2656 2566 2578 2596 2584 2692 2544 2600 2648 2612 2602 2611 2537 2663 2634 2660 2652 2589 2645 2576 2512 2640 2631 2560 2547 2637 2636 2555 2544 2650 2639 2594 2698 2632 2594 2652 2593 2566 2559 2570 2623 2666 2712 2562 2634 2621 2546 2651 2608 2668 2579 2580 2712 2555 2670 2591 2649 2654 2643 2650 2622 2659 2591 2678 2589 2640 2627 2534 2715 2646 2618 2660 2720 2592 2656 2622 2603 2599 2636 2545 2669 2536 2582 2569 2571 2554 2583 2604 2525 2603 2608 2577 2613 2633 2595 2593 2592 2628 2627 2663 2685 2708 2595 2581 2556 2657 2559 2647 2502 2693 2660 2671 2577 2688 2669 2607 2595 2609 2557 2541 2651 2576 2599 2547 2599 2565 2578 2644 2684 2653 2610 2581 2597 2539 2699 2617 2574 2598 2660 2649 2604 2511 2557 2608 2656 2628 2586 2600 2617 2622 2608 2588 2623 2603 2612 2605 2610 2571 2610 2615 2552 2703 2509 2649 2585 2615 2613 2582 2562 2616 2641 2552 2604 2680 2603 2613 2562 2633 2701 2530 2556 2565 2631 2569 2561 2660 2592 2537 2639 2620 2651 2643 2503 2623 2635 2653 2606 2527 2658 2551 2548 2671 2586 2644 2607 2517 2597 2562 2629 2647 2705 2534 2572 2561 2644 2566 2635 2594 2575 2607 2557 2603 2617 2694 2598 2626 2506 2586 2578 2688 2623 2542 2638 2555 2553 2664 2639 2586 2691 2705 2710 2681 2655 2619 2594 2688 2738 2614 2545 2619 2602 2484 2569 2593 2649 2670 2678 2591 2640 2588 2736 2591 2602 2576 2610 2635 2655 2598 2577 2653 2596 2619 2716 2565 2556 2664 2650 2659 2595 2645 2674 2655 2723 2609 2613 2630 2522 2626 2657 2747 2582 2631 2741 2526 2683 2671 2635 2730 2608 2621 2661 2606 2647 2646 2712 2661 2624 2626 2589 2686 2642 2620 2573 2666 2585 2582 2676 2595 2542 2645 2615 2580 2560 2550 2691 2663 2630 2524 2562 2646 2618 2565 2638 2649 2640 2617 2598 2558 2593 2722 2731 2603 2620 2595 2660 2689 2652 2667 2659 2649 2677 2622 2745 2614 2621 2625 2613 2617 2622 2613 2634 2662 2651 2606 2732 2659 2684 2661 2677 2701 2745 2639 2652 2518 2672 2697 2662 2703 2560 2694 2632 2597 2641 2698 2702 2594 2630 2651 2515 2764 2590 2684 2642 2656 2596 2730 2613 2613 2576 2640 2655 2637 2693 2637 2622 2711 2684 2704 2629 2661 2602 2621 2574 2608 2686 2683 2638 2678 2655 2600 2662 2621 2633 2673 2733 2625 2621 2650 2684 2657 2611 2724 2689 2686 2691 2672 2712 2795 2688 2707 2723 2685 2721 2724 2795 2773 2741 2762 2682 2656 2634 2674 2766 2748 2676 2798 2697 2770 2639 2722 2710 2662 2610 2624 2665 2760 2624 2769 2669 2668 2643 2663 2662 2758 2720 2695 2678 2696 2641 2584 2713 2650 2603 2708 2670 2673 2721 2750 2689 2684 2693 2750 2671 2758 2787 2635 2757 2737 2776 2683 2631 2731 2755 2740 2702 2779 2730 2761 2772 2795 2709 2697 2738 2824 2715 2733 2732 2802 2732 2687 2703 2780 2734 2683 2707 2793 2705 2795 2682 2663 2734 2654 2702 2622 2717 2698 2589 2610 2587 2824 2738 2691 2648 2692 2699 2638 2657 2671 2597 2668 2740 2708 2704 2605 2721 2692 2698 2667 2577 2712 2622 2715 2561 2759 2622 2677 2680 2755 2616 2651 2758 2770 2756 2693 2689 2690 2783 2708 2703 2744 2653 2775 2757 2733 2548 2728 2766 2786 2782 2802 2754 2767 2775 2723 2765 2740 2754 2742 2718 2807 2643 2789 2698 2709 2738 2765 2709 2798 2720 2735 2691 2788 2737 2659 2712 2755 2711 2678 2725 2691 2710 2879 2660 2855 2731 2848 2701 2770 2836 2768 2704 2811 2690 2756 2716 2842 2755 2757 2761 2727 2870 2791 2688 2749 2720 2695 2809 2845 2806 2869 2737 2728 2709 2742 2759 2823 2794 2722 2771 2747 2756 2788 2719 2786 2889 2811 2710 2728 2770 2684 2764 2745 2714 2708 2685 2770 2723 2705 2720 2755 2722 2687 2752 2761 2754 2725 2703 2640 2769 2750 2742 2635 2757 2751 2747 2815 2813 2725 2765 2715 2741 2828 2685 2782 2697 2820 2721 2839 2747 2816 2842 2807 2850 2763 2849 2769 2871 2933 2854 2852 2783 2896 2864 2817 2929 2901 2972 2831 2973 2978 2906 2977 2991 3066 2992 3062 3011 3021 3016 3031 3085 3093 3012 3023 3080 2996 2946 3030 2921 3036 2918 3007 3000 2948 2908 2985 2991 2989 2900 3088 2991 2981 2975 2985 2980 2931 2970 2947 2988 2962 2878 2852 2952 3024 2904 2852 2885 2808 2881 2894 2829 2815 2830 2764 2876 2845 2853 2845 2723 2720 2794 2765 2746 2733 2812 2790 2803 2697 2742 2842 2742 2812 2760 2730 2804 2725 2779 2756 2787 2728 2812 2821 2821 2771 2711 2632 2687 2753 2707 2824 2755 2810 2791 2726 2831 2771 2660 2737 2708 2845 2732 2705 2698 2747 2746 2780 2800 2739 2719 2596 2624 2630 2710 2712 2710 2780 2717 2709 2773 2768 2716 2714 2653 2676 2722 2753 2755 2606 2746 2664 2648 2750 2786 2693 2704 2726 2709 2702 2649 2668 2753 2658 2692 2688 2739 2654 2696 2739 2649 2720 2670 2791 2641 2675 2569 2684 2664 2691 2692 2778 2615 2816 2737 2640 2681 2760 2649 2721 2760 2736 2684 2711 2734 2755 2689 2615 2723 2755 2634 2632 2734 2710 2784 2721 2660 2709 2716 2699 2676 2716 2763 2744 2668 2712 2698 2750 2718 2741 2701 2755 2594 2726 2750 2734 2743 2673 2642 2624 2756 2735 2628 2676 2695 2750 2736 2813 2641 2713 2707 2672 2699 2722 2733 2735 2661 2669 2675 2704 2669 2712 2745 2704 2705 2680 2751 2725 2731 2614 2749 2660 2802 2771 2778 2767 2690 2709 2690 2659 2646 2685 2736 2669 2654 2755 2687 2647 2740 2657 2583 2755 2698 2693 2629 2718 2726 2721 2672 2697 2624 2700 2653 2652 2712 2681 2719 2620 2646 2602 2680 2638 2640 2612 2663 2628 2699 2633 2693 2668 2602 2579 2636 2651 2693 2705 2723 2631 2707 2731 2739 2710 2633 2671 2714 2704 2656 2673 2682 2641 2615 2627 2613 2632 2646 2641 2576 2711 2640 2732 2683 2582 2564 2675 2642 2700 2686 2695 2667 2588 2663 2701 2609 2635 2667 2646 2593 2665 2732 2673 2724 2602 2612 2648 2715 2646 2700 2612 2757 2680 2675 2602 2696 2776 2678 2701 2584 2686 2665 2711 2653 2668 2650 2625 2709 2662 2716 2583 2596 2706 2623 2757 2601 2637 2676 2696 2655 2674 2705 2652 2708 2631 2676 2568 2613 2618 2656 2666 2667 2646 2700 2649 2655 2719 2778 2643 2591 2600 2589 2682 2708 2556 2614 2667 2504 2668 2733 2712 2701 2609 2690 2691 2786 2689 2657 2652 2706 2652 2687 2679 2688 2751 2633 2660 2602 2692 2562 2587 2687 2656 2634 2671 2634 2532 2674 2695 2626 2634 2610 2629 2640 2617 2626 2759 2635 2695 2686 2700 2662 2704 2657 2531 2675 2683 2651 2653 2634 2795 2774 2631 2585 2727 2574 2623 2621 2741 2632 2670 2568 2636 2603 2700 2673 2716 2727 2636 2686 2721 2631 2709 2648 2598 2684 2633 2702 2699 2627 2714 2704 2600 2658 2635 2694 2729 2633 2648 2725 2681 2702 2700 2610 2588 2618 2650 2704 2699 2614 2680 2628 2741 2605 2630 2708 2670 2817 2703 2632 2641 2741 2726 2708 2596 2690 2633 2694 2690 2619 2642 2673 2544 2666 2682 2639 2737 2675 2563 2612 2677 2720 2737 2662 2641 2740 2771 2681 2623 2507 2668 2747 2665 2588 2621 2649 2736 2643 2673 2705 2745 2653 2616 2630 2886 2705 2629 2587 2686 2647 2672 2569 2676 2740 2666 2720 2632 2689 2730 2712 2648 2813 2638 2581 2713 2664 2770 2687 2716 2702 2715 2740 2654 2745 2593 2651 2715 2681 2671 2636 2630 2641 2705 2652 2622 2705 2674 2735 2631 2677 2738 2678 2619 2625 2598 2658 2635 2668 2654 2703 2653 2616 2605 2793 2723 2671 2705 2604 2793 2686 2647 2804 2673 2717 2636 2635 2623 2750 2662 2719 2659 2618 2649 2579 2596 2685 2687 2734 2766 2637 2709 2664 2628 2746 2678 2660 2709 2627 2792 2675 2760 2585 2707 2717 2603 2669 2728 2832 2770 2724 2658 2720 2711 2662 2675 2787 2626 2663 2695 2686 2733 2669 2721 2684 2727 2654 2728 2666 2738 2745 2742 2770 2679 2696 2709 2704 2788 2658 2705 2816 2747 2703 2731 2675 2722 2727 2689 2702 2652 2671 2662 2598 2707 2648 2777 2628 2740 2731 2674 2578 2615 2642 2618 2689 2787 2684 2723 2682 2632 2699 2808 2624 2635 2717 2702 2700 2637 2730 2649 2746 2680 2684 2715 2774 2733 2675 2760 2720 2765 2757 2702 2692 2792 2746 2701 2824 2630 2680 2767 2703 2667 2804 2772 2699 2786 2812 2748 2626 2756 2720 2795 2673 2664 2819 2813 2827 2771 2772 2725 2763 2665 2712 2671 2694 2785 2678 2753 2744 2753 2765 2740 2693 2717 2729 2664 2665 2765 2774 2663 2761 2725 2746 2834 2766 2802 2684 2670 2740 2719 2675 2754 2730 2772 2663 2748 2808 2577 2828 2758 2834 2757 2722 2747 2753 2670 2820 2648 2758 2673 2688 2692 2733 2769 2831 2766 2738 2762 2783 2722 2746 2700 2781 2737 2751 2821 2814 2705 2754 2671 2772 2735 2751 2787 2723 2696 2738 2852 2769 2698 2806 2679 2818 2794 2806 2829 2756 2739 2810 2784 2768 2749 2674 2752 2666 2782 2854 2786 2795 2792 2732 2733 2737 2732 2753 2748 2704 2795 2724 2823 2801 2656 2775 2757 2666 2693 2788 2802 2729 2737 2778 2781 2704 2730 2725 2722 2784 2858 2776 2714 2801 2760 2783 2702 2710 2723 2740 2698 2697 2662 2730 2817 2814 2732 2771 2773 2778 2755 2749 2778 2762 2630 2788 2814 2833 2812 2838 2859 2751 2788 2817 2775 2885 2842 2863 2834 2834 2854 2788 2768 2911 2834 2899 2930 2980 2949 3036 2963 2914 2916 2988 2920 3017 2890 2873 2928 3003 2900 2952 2920 2875 2939 2925 2990 2897 2846 2874 2981 2901 2893 2839 2836 2900 2941 2873 2845 2871 2876 2846 2906 2847 2825 2840 2920 2938 2830 2875 2810 2861 2759 2753 2873 2776 2726 2870 2772 2802 2710 2768 2747 2814 2834 2761 2772 2756 2799 2811 2858 2797 2805 2775 2817 2849 2679 2773 2743 2745 2721 2736 2754 2752 2765 2734 2691 2817 2809 2774 2754 2721 2626 2779 2760 2695 2784 2774 2797 2717 2783 2775 2751 2751 2803 2645 2797 2726 2633 2728 2683 2743 2669 2672 2780 2784 2721 2720 2794 2711 2709 2672 2688 2689 2659 2792 2769 2739 2747 2717 2801 2704 2639 2759 2662 2693 2801 2721 2604 2759 2699 2642 2710 2716 2702 2666 2685 2697 2738 2813 2648 2710 2720 2806 2687 2704 2754 2749 2734 2736 2669 2692 2726 2742 2683 2739 2681 2695 2754 2794 2701 2677 2725 2763 2753 2661 2669 2807 2750 2728 2700 2774 2795 2757 2790 2716 2705 2689 2697 2644 2706 2760 2640 2724 2632 2682 2613 2757 2720 2725 2813 2711 2793 2789 2707 2732 2736 2788 2700 2681 2675 2712 2665 2720 2722 2669 2726 2719 2737 2703 2756 2702 2760 2717 2692 2702 2663 2663 2647 2647 2733 2738 2657 2736 2756 2694 2666 2689 2618 2708 2675 2739 2719 2705 2723 2720 2664 2645 2676 2621 2689 2794 2646 2644 2741 2776 2692 2626 2716 2688 2790 2664 2696 2695 2662 2730 2635 2752 2704 2679 2604 2689 2729 2731 2728 2689 2748 2701 2615 2685 2679 2695 2685 2757 2784 2686 2787 2726 2770 2601 2634 2727 2700 2592 2740 2755 2669 2746 2728 2641 2625 2664 2749 2766 2678 2707 2723 2732 2709 2750 2741 2756 2694 2628 2679 2664 2654 2707 2651 2717 2674 2689 2604 2699 2555 2738 2725 2860 2618 2694 2664 2754 2664 2711 2678 2679 2559 2694 2694 2614 2702 2643 2692 2731 2721 2703 2774 2692 2754 2734 2722 2596 2663 2567 2780 2638 2705 2741 2707 2669 2669 2689 2606 2574 2580 2799 2581 2724 2744 2713 2666 2705 2743 2665 2731 2712 2719 2611 2630 2689 2632 2710 2690 2691 2645 2697 2718 2770 2743 2672 2720 2716 2739 2724 2713 2757 2769 2606 2711 2666 2727 2652 2671 2704 2686 2659 2725 2703 2770 2703 2601 2651 2712 2638 2669 2664 2614 2688 2714 2686 2618 2704 2695 2707 2628 2697 2654 2615 2706 2689 2624 2689 2693 2615 2700 2773 2634 2658 2721 2687 2733 2656 2604 2738 2729 2667 2689 2626 2644 2673 2720 2678 2752 2696 2731 2728 2634 2801 2665 2768 2662 2753 2665 2789 2755 2652 2702 2689 2720 2698 2720 2665 2606 2747 2716 2662 2734 2696 2709 2734 2682 2653 2714 2669 2609 2662 2718 2768 2705 2632 2786 2773 2725 2778 2750 2767 2806 2718</counts>
			</dataPoints>
		</scan>
	</xrdMeasurement>
</xrdMeasurements>
