<?xml version="1.0"?>
<xrdMeasurements xmlns="http://www.xrdml.com/XRDMeasurement/2.3" xmlns:xsi="http://www.w3.org/2001/XMLSchema-instance" xsi:schemaLocation="http://www.xrdml.com/XRDMeasurement/2.3 http://www.xrdml.com/XRDMeasurement/2.3/XRDMeasurement.xsd" status="Completed" recordIdentifier="{DB9CF4BF-1257-4804-8B9A-E056CC376418}">
	<comment>
		<entry/>
	</comment>
	<sample type="To be analyzed">
		<id>GPSS_Li1p6Fe1p0Co0p2Cl4_111225_691549b847a6a0fd7c6580c0</id>
		<name></name>
		<preparedBy></preparedBy>
	</sample>
	<xrdMeasurement measurementType="Scan" status="Completed" sampleMode="Reflection">
		<usedWavelength intended="K-Alpha 1">
			<kAlpha1 unit="Angstrom">1.5405980</kAlpha1>
			<kAlpha2 unit="Angstrom">1.5444260</kAlpha2>
			<kBeta unit="Angstrom">1.3922500</kBeta>
			<ratioKAlpha2KAlpha1>0.5000</ratioKAlpha2KAlpha1>
		</usedWavelength>
		<incidentBeamPath>
			<radius unit="mm">145.00</radius>
			<xRayTube id="1010048" name="Empyrean Cu LFF HR (9430 033 7310x)">
				<tension unit="kV">40.0</tension>
				<current unit="mA">15.0</current>
				<anodeMaterial>Cu</anodeMaterial>
				<focus type="Line">
					<length unit="mm">12.0</length>
					<width unit="mm">0.4</width>
					<takeOffAngle unit="deg">6.0</takeOffAngle>
				</focus>
			</xRayTube>
			<sollerSlit id="21010002" name="Soller slits 0.04 rad.">
				<opening unit="rad">0.0400</opening>
			</sollerSlit>
			<mask id="22031000" name="Fixed mask 13 mm">
				<width unit="mm">9.00</width>
			</mask>
			<divergenceSlit id="22120001" name="Divergence slit 1°" xsi:type="fixedDivergenceSlitType">
				<distanceToSample unit="mm">50.00</distanceToSample>
				<height unit="mm">1.52</height>
			</divergenceSlit>
		</incidentBeamPath>
		<sampleMovement xsi:type="spinningSampleMovementType">
			<spinnerRevolutionTime unit="seconds">1.0</spinnerRevolutionTime>
		</sampleMovement>
		<diffractedBeamPath>
			<radius unit="mm">145.00</radius>
			<antiScatterSlit id="22090040" name="AS slit 9 mm (PIXcel)" xsi:type="fixedAntiScatterSlitType">
				<height unit="mm">9.00</height>
			</antiScatterSlit>
			<sollerSlit id="21020003" name="Large Soller slits 0.04 rad.">
				<opening unit="rad">0.0400</opening>
			</sollerSlit>
			<filter id="20030001" name="Large beta-filter Nickel">
				<material>Ni</material>
				<thickness unit="mm">0.020</thickness>
			</filter>
			<detector id="7010019" name="PIXcel1D-Medipix3 detector" xsi:type="rtmsDetectorType">
				<phd unit="keV">
					<lowerLevel>4.02</lowerLevel>
					<upperLevel>11.27</upperLevel>
				</phd>
				<mode>Scanning</mode>
				<activeLength unit="deg">5.542</activeLength>
			</detector>
		</diffractedBeamPath>
		<scan appendNumber="0" mode="Continuous" scanAxis="Gonio" status="Completed">
			<header>
				<startTimeStamp>2025-11-16T15:11:10-08:00</startTimeStamp>
				<endTimeStamp>2025-11-16T15:19:17-08:00</endTimeStamp>
				<author>
					<name>AutomatedUser</name>
				</author>
				<source>
					<applicationSoftware version="1.7b (136)">PANalytical Aeris Instrument Suite</applicationSoftware>
					<instrumentControlSoftware version="3.2.00000000 20240306">AERIS</instrumentControlSoftware>
					<instrumentID>950485</instrumentID>
				</source>
			</header>
			<dataPoints>
				<positions axis="2Theta" unit="deg">
					<startPosition>10.00943322</startPosition>
					<endPosition>99.99442286</endPosition>
				</positions>
				<positions axis="Omega" unit="deg">
					<startPosition>5.00471661</startPosition>
					<endPosition>49.99721143</endPosition>
				</positions>
				<commonCountingTime unit="seconds">12.495</commonCountingTime>
				<counts unit="counts">3288 3341 3224 3363 3337 3205 3248 3262 3348 3259 3383 3341 3288 3372 3297 3378 3314 3268 3268 3218 3405 3430 3371 3357 3352 3349 3405 3358 3335 3316 3335 3168 3230 3394 3309 3197 3319 3285 3195 3323 3298 3339 3289 3261 3295 3267 3241 3301 3350 3285 3327 3291 3233 3333 3431 3330 3364 3379 3265 3347 3283 3311 3393 3355 3338 3366 3367 3346 3271 3432 3310 3383 3413 3357 3515 3320 3377 3358 3445 3519 3444 3505 3366 3449 3295 3393 3409 3355 3296 3363 3440 3262 3398 3406 3333 3461 3354 3311 3470 3419 3326 3449 3291 3383 3286 3478 3340 3368 3477 3459 3315 3475 3377 3429 3503 3428 3388 3487 3457 3389 3397 3436 3332 3388 3391 3336 3442 3428 3374 3435 3451 3432 3439 3369 3409 3355 3364 3380 3392 3353 3483 3441 3467 3480 3465 3420 3466 3503 3460 3543 3445 3331 3422 3375 3317 3488 3424 3413 3517 3510 3358 3485 3391 3452 3394 3392 3301 3482 3383 3484 3410 3408 3482 3444 3308 3495 3334 3378 3329 3433 3263 3527 3375 3369 3412 3441 3334 3430 3414 3439 3391 3430 3391 3382 3369 3466 3345 3430 3389 3429 3391 3375 3411 3433 3326 3373 3392 3433 3372 3408 3291 3425 3484 3456 3276 3424 3504 3275 3475 3320 3298 3336 3414 3410 3484 3463 3487 3381 3419 3504 3287 3338 3330 3398 3342 3365 3367 3485 3314 3379 3316 3430 3356 3339 3443 3392 3372 3220 3357 3350 3265 3364 3254 3288 3321 3415 3310 3356 3327 3368 3445 3391 3449 3402 3283 3317 3365 3289 3292 3446 3260 3315 3376 3309 3320 3328 3343 3338 3175 3349 3320 3284 3297 3292 3301 3345 3310 3309 3331 3411 3336 3351 3330 3346 3419 3388 3297 3249 3331 3288 3395 3350 3400 3396 3453 3360 3415 3346 3433 3371 3394 3395 3328 3287 3370 3380 3358 3374 3335 3278 3294 3449 3375 3407 3315 3392 3446 3356 3422 3341 3337 3395 3350 3477 3339 3385 3392 3403 3353 3353 3480 3407 3486 3504 3456 3368 3409 3535 3442 3522 3431 3406 3322 3455 3522 3504 3463 3472 3512 3440 3522 3470 3495 3439 3443 3490 3503 3520 3550 3531 3514 3549 3573 3554 3581 3425 3449 3576 3408 3686 3604 3612 3563 3571 3690 3627 3507 3659 3525 3670 3681 3518 3540 3588 3506 3618 3733 3642 3602 3647 3698 3635 3714 3730 3584 3715 3695 3815 3671 3705 3719 3614 3796 3647 3714 3670 3750 3773 3786 3734 3853 3798 3853 3805 3797 3787 3815 3945 3910 3901 4085 4035 4083 4076 4188 4110 4215 4147 4196 4356 4354 4444 4472 4501 4563 4741 4851 4736 4874 4755 4842 4822 4884 4796 4858 4828 4857 4939 4815 4906 4806 4839 4901 4739 4901 4993 4940 4935 4925 4886 4881 4915 4938 4997 4856 4890 5030 4783 4891 4805 4880 4843 4918 4807 4815 4806 4629 4585 4517 4586 4636 4554 4513 4499 4542 4543 4505 4523 4501 4409 4455 4410 4322 4363 4305 4250 4169 4203 4381 4180 4223 4202 4138 4151 4122 4120 4053 4125 4040 4059 4068 4053 3997 4024 4075 3861 3836 3818 3952 3980 3866 3853 3898 3768 3951 3896 3876 3886 3903 3888 3922 3804 3862 3739 3926 3824 3829 3866 3835 3846 3779 3711 3834 3693 3748 3665 3771 3530 3651 3681 3598 3592 3770 3747 3671 3620 3783 3648 3820 3719 3588 3710 3683 3620 3665 3639 3718 3617 3607 3630 3611 3536 3601 3558 3565 3542 3533 3608 3664 3613 3685 3729 3640 3717 3664 3628 3553 3564 3577 3544 3570 3554 3508 3608 3625 3559 3618 3457 3611 3598 3583 3569 3654 3547 3507 3449 3637 3495 3619 3577 3511 3527 3629 3614 3538 3641 3566 3589 3608 3519 3537 3541 3609 3648 3491 3633 3544 3554 3604 3652 3593 3647 3531 3575 3497 3496 3538 3501 3548 3469 3608 3561 3590 3707 3572 3499 3529 3548 3626 3610 3652 3680 3661 3632 3652 3733 3670 3732 3724 3644 3711 3618 3569 3662 3663 3607 3723 3635 3657 3698 3546 3664 3767 3624 3503 3663 3577 3566 3463 3545 3545 3663 3517 3577 3481 3544 3541 3572 3633 3504 3516 3503 3537 3516 3507 3480 3484 3529 3502 3473 3539 3534 3513 3523 3543 3460 3508 3483 3533 3676 3511 3550 3489 3649 3567 3568 3550 3355 3444 3392 3586 3476 3508 3465 3488 3480 3556 3440 3478 3440 3629 3385 3459 3406 3568 3555 3554 3450 3470 3434 3497 3546 3554 3519 3487 3548 3581 3552 3534 3527 3519 3464 3511 3552 3543 3493 3448 3513 3534 3496 3471 3493 3507 3501 3445 3554 3463 3418 3400 3507 3418 3494 3526 3403 3467 3437 3612 3451 3462 3521 3501 3487 3473 3419 3469 3502 3504 3509 3454 3466 3449 3431 3563 3474 3553 3507 3481 3522 3694 3558 3512 3417 3487 3455 3460 3467 3456 3461 3618 3388 3541 3419 3625 3428 3491 3585 3464 3456 3511 3513 3418 3524 3434 3445 3269 3489 3482 3469 3474 3394 3428 3457 3443 3457 3513 3511 3439 3481 3593 3416 3472 3418 3585 3463 3557 3380 3489 3394 3484 3553 3534 3518 3437 3485 3442 3491 3415 3431 3477 3467 3470 3487 3480 3525 3416 3540 3513 3526 3477 3434 3454 3445 3508 3386 3515 3344 3558 3526 3466 3530 3546 3461 3451 3535 3455 3365 3498 3470 3408 3506 3494 3395 3526 3395 3495 3518 3504 3473 3542 3447 3509 3490 3303 3432 3520 3609 3458 3473 3473 3440 3543 3451 3333 3480 3445 3505 3445 3417 3357 3499 3431 3450 3503 3516 3448 3406 3446 3383 3510 3543 3466 3456 3485 3464 3491 3402 3407 3405 3360 3453 3462 3423 3482 3430 3415 3456 3541 3315 3426 3479 3385 3257 3412 3563 3449 3428 3507 3528 3528 3479 3414 3530 3432 3474 3474 3401 3551 3498 3667 3411 3462 3425 3465 3426 3413 3404 3463 3563 3456 3429 3482 3395 3503 3427 3526 3463 3513 3370 3389 3399 3447 3543 3479 3357 3467 3485 3569 3374 3475 3398 3382 3387 3544 3419 3420 3499 3416 3378 3481 3399 3416 3454 3485 3444 3562 3481 3502 3512 3397 3516 3437 3393 3318 3544 3502 3501 3527 3450 3338 3509 3429 3428 3421 3492 3379 3560 3519 3547 3436 3460 3386 3506 3442 3410 3384 3496 3540 3404 3508 3530 3437 3471 3435 3442 3495 3542 3503 3563 3452 3370 3511 3484 3481 3524 3424 3412 3435 3457 3479 3467 3523 3569 3477 3555 3437 3457 3417 3416 3502 3528 3386 3459 3499 3481 3378 3518 3452 3508 3521 3533 3493 3477 3430 3465 3409 3646 3432 3443 3577 3559 3492 3396 3521 3471 3420 3490 3462 3447 3471 3481 3414 3557 3494 3403 3488 3469 3415 3399 3538 3432 3471 3429 3572 3446 3518 3467 3548 3507 3491 3362 3432 3418 3558 3467 3521 3564 3522 3563 3522 3466 3508 3473 3360 3443 3426 3441 3583 3505 3428 3494 3466 3521 3475 3506 3375 3498 3432 3483 3545 3520 3470 3502 3457 3519 3560 3467 3487 3533 3372 3491 3353 3399 3423 3487 3510 3394 3498 3339 3520 3395 3479 3361 3429 3471 3504 3442 3446 3430 3431 3497 3375 3462 3433 3488 3356 3421 3380 3265 3451 3363 3408 3311 3261 3451 3425 3395 3324 3415 3371 3535 3276 3369 3329 3484 3335 3415 3374 3374 3329 3344 3346 3364 3388 3344 3368 3287 3349 3383 3365 3237 3312 3306 3334 3357 3356 3390 3369 3396 3247 3342 3326 3388 3308 3328 3320 3275 3268 3405 3370 3334 3420 3272 3310 3203 3214 3279 3189 3316 3264 3186 3386 3216 3318 3307 3294 3411 3253 3354 3141 3291 3276 3257 3291 3297 3325 3218 3160 3277 3196 3297 3330 3197 3292 3226 3256 3228 3232 3169 3269 3240 3224 3257 3282 3272 3185 3218 3261 3247 3223 3210 3138 3285 3310 3318 3227 3284 3231 3263 3209 3280 3287 3333 3288 3333 3303 3290 3409 3333 3455 3236 3309 3260 3399 3356 3452 3285 3451 3267 3315 3418 3320 3298 3358 3265 3271 3261 3351 3322 3322 3371 3370 3414 3304 3291 3224 3276 3336 3294 3277 3258 3225 3279 3295 3265 3241 3286 3232 3263 3252 3252 3258 3318 3285 3325 3207 3198 3293 3217 3183 3235 3179 3224 3173 3139 3302 3309 3319 3290 3234 3186 3143 3180 3195 3187 3178 3234 3182 3121 3144 3282 3225 3080 3302 3198 3228 3215 3227 3297 3200 3301 3201 3194 3187 3228 3171 3230 3201 3199 3229 3210 3186 3254 3142 3175 3317 3239 3290 3169 3174 3236 3161 3288 3091 3048 3234 3278 3077 3226 3205 3228 3251 3280 3120 3278 3218 3217 3236 3307 3222 3221 3283 3293 3237 3289 3301 3231 3264 3344 3248 3264 3177 3235 3303 3228 3223 3299 3197 3273 3259 3180 3242 3170 3350 3187 3277 3145 3285 3153 3281 3259 3296 3261 3253 3265 3338 3240 3239 3246 3185 3246 3323 3358 3296 3177 3251 3234 3162 3236 3173 3257 3269 3274 3288 3226 3198 3305 3203 3267 3211 3283 3239 3260 3394 3203 3171 3275 3244 3278 3302 3279 3218 3288 3300 3169 3366 3389 3290 3258 3297 3354 3184 3255 3290 3253 3208 3248 3273 3266 3277 3243 3204 3134 3313 3258 3232 3265 3182 3257 3162 3261 3151 3243 3305 3229 3192 3251 3363 3286 3133 3243 3288 3232 3259 3221 3186 3264 3240 3189 3150 3096 3213 3153 3242 3238 3125 3168 3241 3248 3200 3289 3239 3191 3172 3247 3195 3252 3191 3119 3272 3214 3255 3131 3134 3143 3266 3346 3202 3186 3223 3130 3065 3218 3129 3154 3130 3254 3121 3203 3155 3164 3178 3096 3079 3152 3194 3234 3196 3169 3189 3044 3195 3108 3167 3106 3146 3218 3096 3164 3244 3124 3158 3165 3101 3122 3182 3104 3155 3206 3116 3065 3080 3074 3054 3107 3058 3076 3217 3033 3023 3111 3140 3156 3167 3196 3149 3103 3125 3072 3136 3027 3125 3104 3182 3163 3103 3206 3025 3109 3103 3029 3064 3195 3075 3074 3059 3049 3037 3137 3052 3153 3027 3109 3155 3057 3111 3226 3055 3136 3073 3137 3219 3099 3123 3027 3156 3144 3245 3173 3233 3257 3117 3298 3285 3328 3392 3387 3388 3485 3391 3449 3492 3598 3585 3661 3543 3634 3722 3608 3646 3636 3684 3665 3676 3620 3723 3711 3704 3721 3718 3646 3643 3656 3731 3717 3660 3753 3619 3556 3692 3645 3691 3570 3651 3625 3648 3580 3563 3516 3436 3531 3490 3438 3468 3499 3546 3465 3357 3369 3416 3461 3411 3442 3389 3400 3416 3398 3422 3364 3282 3306 3325 3266 3316 3185 3287 3221 3248 3270 3348 3172 3260 3224 3180 3129 3179 3127 3213 3321 3186 3248 3185 3129 3136 3206 3136 3123 3205 3155 3185 3181 3061 3194 3157 3243 3125 3187 3106 3104 3066 3180 3177 3175 3187 3171 3300 3262 3238 3254 3289 3371 3456 3388 3479 3588 3500 3564 3574 3801 3723 3786 3965 3710 3876 3908 4030 3972 4037 4059 4099 4170 4127 4182 4239 4199 4197 4193 4177 4123 4098 4190 4219 4217 4142 4115 4143 4014 3992 4083 3912 3931 3867 3890 3676 3857 3631 3636 3603 3548 3499 3472 3431 3452 3403 3400 3295 3298 3302 3289 3444 3276 3282 3240 3287 3174 3107 3178 3136 3138 3317 3135 3057 3120 3156 3032 3082 3114 3143 3058 3062 3120 3057 3110 3124 3039 3041 3078 3101 3071 2969 3030 3081 2981 3044 2968 3045 3021 2963 3037 2956 3046 2940 3080 3031 2955 2961 3005 2869 3136 2940 2940 2941 2969 2981 2933 2922 2865 2960 2918 2958 2871 2931 2855 2998 2908 2933 2835 3004 2913 2886 2914 2972 2916 2981 2877 2873 3016 2899 2923 2875 3038 2916 2908 2895 2970 2862 2881 2941 2942 2843 2901 2979 2939 2925 2828 2842 2879 2982 2900 2983 2901 2932 3016 2918 2919 2982 2939 3002 2935 2889 2867 2966 2904 2932 2935 2966 2956 3055 2922 2926 2869 2833 2952 2866 2913 2846 2962 2933 2896 2934 3020 2888 2930 2900 2920 3007 2902 3017 3004 2878 2943 2987 2939 2883 3082 2908 2873 2857 2785 3034 2966 2881 2834 2865 2769 2938 2913 2894 2863 2901 2972 2916 2911 2854 2923 2888 2983 2911 2856 2976 2942 2849 2901 2957 2903 2929 2902 2939 2954 2796 2895 2824 2851 2927 2948 2846 2836 2937 2882 2849 2855 2918 2888 2988 2841 2888 3024 2980 2923 2862 2897 2859 3005 2893 2957 2831 2953 2894 2839 2988 2970 2881 2940 2968 2971 2905 2933 3045 2846 2916 2963 2903 2865 2955 2997 2893 3064 2949 3064 2889 2964 2915 2873 2904 2868 2864 2864 2975 2790 2858 2829 2844 2878 2890 2909 2924 2898 2897 2870 2948 2948 2776 2892 2819 2928 2853 2950 2865 2882 2908 2864 2885 2938 2765 2940 2898 2875 2916 2957 2865 2953 2882 2841 2915 2884 2832 2879 2793 2840 2923 2860 2845 2895 2962 2843 2951 2968 2929 2899 2933 2910 2902 2860 2829 2989 2924 2956 2845 2918 2955 2884 2869 2911 2893 3030 2958 2927 3025 2912 2925 2881 2927 2972 2998 2972 2912 2913 2987 2904 2926 2940 3078 2909 2873 2992 2934 2897 2987 2891 3006 3004 2987 2870 2955 2868 2929 2873 2984 2914 3024 3026 2889 2951 2995 2884 2925 3012 2929 2895 2951 2975 3022 2986 2977 3014 2909 3129 3050 3095 3142 3099 2994 3083 3267 3026 3173 3170 3225 3198 3381 3266 3460 3531 3569 3573 3595 3822 3844 3954 4099 4369 4322 4534 4659 4865 5117 5297 5432 5584 5773 5871 6081 6131 6232 6527 6387 6625 6635 6835 6720 6949 7087 6647 7019 6945 6966 6771 6904 6775 6813 6587 6595 6557 6399 6279 6268 6168 5970 5967 5806 5641 5694 5552 5494 5473 5381 5290 5102 4987 5078 4852 4958 4801 4620 4559 4584 4439 4511 4287 4240 4165 4178 4167 4146 4098 4135 4032 3979 3943 3911 3925 3959 3920 3769 3954 3696 3891 3782 3827 3822 3721 3816 3749 3697 3568 3627 3610 3493 3596 3505 3498 3541 3572 3478 3422 3439 3343 3402 3498 3420 3363 3310 3423 3278 3310 3254 3140 3187 3068 3281 3180 3097 3089 3054 3173 3035 3057 2995 3095 3060 3079 3012 3058 2973 3040 2916 3004 3036 3057 2964 2927 3056 3043 3037 2947 2981 2965 3018 2939 2957 2951 2932 2964 3047 2932 2895 2916 2940 2908 2887 2827 2934 2852 2903 2933 2946 2982 2928 2898 3029 2847 2936 2800 2914 2914 2831 2885 2944 2941 2964 2953 2808 2850 2824 2950 2922 2882 2898 2878 2921 2930 2867 2928 2935 2881 2883 2851 2908 2899 2960 2926 2860 2842 2845 2814 2895 2825 2784 2856 2923 2818 2908 2829 2908 2856 2889 2863 2862 2951 2843 2814 2894 2816 2856 2805 2869 2803 2874 2906 2867 2800 2821 2860 2857 2866 2923 2840 2819 2883 2781 2845 2930 2834 2957 2871 2986 2737 2789 2946 2799 2812 2802 2831 2812 2838 2856 2911 2904 2888 2954 2847 2877 2852 2912 2814 2818 2826 2837 2836 2893 2810 2859 2837 2748 2791 2725 2850 2794 2807 2774 2752 2802 2858 2762 2897 2829 2833 2856 2829 2897 2872 2833 2837 2927 2801 2883 2862 2892 2781 2934 2799 2776 2850 2736 2842 2781 2807 2843 2849 2777 2844 2892 2814 2872 2911 2867 2903 2911 2914 2847 2918 2857 2892 2902 2934 2928 2869 2934 3019 2990 2904 2837 2931 2900 3055 2883 2853 2834 2908 2964 2961 2965 2968 2894 2912 2937 2892 2880 3011 2946 2881 2848 3046 2857 2908 2972 2923 2879 2958 2863 2881 2863 2917 2907 2942 2827 2830 2861 2828 2865 2829 2894 2886 2814 2877 2801 2840 2776 2903 2925 2898 2809 2883 2860 2876 2863 2797 2741 2802 2873 2785 2857 2761 2848 2826 2740 2765 2769 2791 2746 2867 2858 2801 2818 2902 2783 2755 2859 2851 2757 2824 2818 2837 2818 2825 2772 2803 2864 2765 2854 2928 2839 2701 2865 2940 2925 2830 2712 2945 2828 2936 2810 2839 2955 2826 2818 2818 2882 2833 2812 2834 2955 2872 2850 2770 2762 2873 2692 2718 2872 2808 2828 2789 2807 2784 2873 2752 2792 2875 2773 2821 2688 2805 2736 2815 2804 2678 2836 2703 2827 2762 2683 2842 2811 2800 2802 2785 2740 2682 2813 2790 2648 2758 2836 2696 2761 2682 2762 2829 2750 2749 2808 2813 2743 2842 2742 2732 2805 2656 2738 2701 2784 2712 2700 2778 2718 2770 2729 2772 2705 2689 2778 2776 2716 2685 2655 2776 2949 2696 2682 2703 2725 2766 2753 2705 2661 2666 2696 2760 2727 2769 2685 2637 2748 2751 2794 2625 2756 2724 2792 2772 2765 2802 2731 2753 2707 2715 2726 2772 2793 2662 2842 2764 2790 2804 2752 2801 2771 2731 2782 2716 2704 2633 2739 2640 2765 2768 2666 2843 2610 2742 2691 2757 2623 2726 2770 2774 2725 2684 2795 2669 2776 2787 2607 2774 2704 2682 2684 2706 2634 2700 2735 2712 2758 2705 2758 2642 2715 2762 2713 2568 2707 2676 2678 2766 2845 2720 2718 2726 2653 2735 2723 2709 2689 2652 2708 2802 2706 2772 2770 2756 2785 2730 2665 2767 2670 2726 2717 2621 2749 2685 2711 2711 2751 2728 2737 2818 2709 2713 2696 2684 2656 2680 2653 2693 2700 2741 2705 2735 2756 2664 2721 2724 2716 2679 2698 2714 2678 2746 2723 2691 2693 2660 2653 2651 2688 2691 2666 2712 2846 2883 2741 2667 2576 2746 2706 2681 2674 2800 2687 2734 2699 2717 2725 2694 2716 2682 2705 2719 2815 2733 2689 2686 2781 2727 2738 2802 2677 2713 2717 2719 2794 2754 2795 2846 2774 2677 2758 2800 2700 2701 2778 2698 2795 2744 2745 2753 2674 2748 2707 2706 2666 2745 2740 2697 2646 2710 2656 2724 2726 2734 2635 2675 2615 2652 2663 2748 2693 2760 2742 2708 2660 2649 2758 2761 2638 2739 2701 2669 2723 2774 2668 2734 2704 2643 2741 2723 2802 2720 2693 2709 2680 2639 2735 2775 2684 2732 2644 2709 2766 2734 2718 2788 2778 2835 2743 2709 2781 2810 2778 2787 2781 2745 2792 2743 2808 2882 2826 2782 2725 2857 2785 2815 2884 2790 2767 2794 2799 2733 2706 2801 2776 2781 2688 2693 2784 2846 2720 2790 2780 2651 2816 2838 2698 2800 2741 2707 2760 2750 2736 2735 2773 2811 2816 2747 2818 2624 2576 2736 2727 2695 2733 2684 2680 2656 2777 2753 2701 2639 2809 2730 2736 2665 2753 2693 2685 2728 2694 2698 2765 2725 2824 2681 2773 2849 2725 2750 2781 2665 2697 2654 2746 2753 2741 2726 2694 2792 2682 2656 2691 2697 2699 2685 2755 2679 2710 2747 2724 2772 2720 2772 2797 2677 2726 2718 2668 2804 2666 2709 2715 2654 2732 2737 2658 2708 2760 2812 2679 2645 2752 2676 2744 2646 2840 2654 2710 2719 2724 2724 2642 2645 2728 2686 2673 2653 2670 2667 2699 2853 2739 2664 2678 2717 2795 2840 2612 2709 2640 2785 2675 2667 2726 2649 2774 2683 2688 2737 2700 2707 2718 2701 2715 2594 2759 2673 2651 2579 2664 2719 2783 2678 2577 2719 2720 2600 2728 2711 2699 2769 2745 2769 2661 2690 2708 2696 2718 2648 2779 2778 2724 2725 2628 2691 2666 2667 2759 2769 2882 2719 2871 2742 2631 2781 2666 2747 2605 2769 2712 2779 2689 2731 2737 2878 2721 2760 2718 2783 2768 2742 2787 2743 2791 2774 2795 2833 2843 2792 2842 2851 2864 2819 2790 3004 2984 2952 3005 2990 3051 3123 2988 3117 3071 3026 3041 3167 3149 3135 3118 3256 3100 3169 3132 3260 3100 3193 3065 3091 3191 3160 3140 3170 3144 3179 3105 3144 3089 3054 3139 3033 3025 3020 3074 2957 2965 2940 3031 3035 2933 2888 2915 3022 2938 3021 2888 2933 2993 2962 2922 2889 2853 2924 2931 2919 2899 2810 2803 2862 2815 2790 2849 2904 2757 2847 2849 2775 2765 2813 2819 2896 2845 2780 2798 2780 2865 2832 2721 2735 2774 2706 2735 2893 2742 2762 2720 2845 2775 2732 2647 2856 2752 2778 2662 2723 2816 2878 2804 2872 2873 2789 2729 2764 2712 2770 2855 2696 2768 2771 2751 2778 2803 2731 2745 2683 2796 2836 2781 2850 2722 2826 2767 2808 2784 2752 2649 2760 2676 2659 2716 2812 2668 2779 2751 2664 2740 2809 2734 2763 2725 2802 2724 2766 2668 2701 2698 2643 2881 2788 2735 2812 2686 2684 2771 2682 2630 2781 2720 2660 2725 2712 2686 2696 2763 2748 2757 2726 2643 2783 2837 2773 2799 2740 2743 2763 2702 2805 2668 2735 2765 2653 2830 2738 2691 2719 2678 2746 2629 2670 2704 2806 2795 2707 2832 2738 2705 2711 2830 2724 2735 2657 2750 2704 2671 2686 2701 2757 2695 2652 2770 2659 2699 2776 2715 2718 2703 2702 2729 2749 2728 2621 2691 2731 2705 2690 2655 2793 2725 2714 2762 2816 2738 2763 2719 2748 2782 2721 2698 2748 2610 2747 2751 2788 2741 2659 2781 2685 2671 2676 2718 2785 2724 2798 2642 2649 2796 2764 2608 2770 2768 2754 2709 2810 2757 2797 2791 2738 2783 2695 2754 2829 2680 2724 2647 2794 2768 2769 2732 2703 2701 2882 2713 2667 2764 2801 2731 2730 2693 2624 2697 2804 2681 2675 2744 2644 2762 2723 2753 2669 2701 2640 2758 2739 2736 2689 2697 2773 2741 2697 2769 2796 2747 2731 2768 2851 2730 2768 2728 2741 2799 2760 2745 2648 2809 2720 2760 2820 2739 2798 2721 2773 2744 2740 2702 2713 2790 2780 2731 2775 2663 2756 2812 2710 2746 2698 2729 2715 2790 2807 2726 2706 2805 2812 2689 2776 2803 2775 2770 2827 2822 2777 2894 2908 2801 2852 2827 2746 2774 2807 2819 2941 2932 2872 2891 2919 2974 2969 3000 2972 3023 3064 3230 3186 3237 3272 3411 3299 3387 3535 3620 3649 3685 3795 3913 4102 4119 4224 4308 4307 4351 4357 4493 4515 4528 4658 4568 4646 4630 4673 4632 4660 4640 4618 4536 4550 4563 4463 4446 4378 4416 4427 4334 4334 4243 4310 4187 4220 4112 4026 4089 3967 4056 3946 3834 3824 3848 3704 3849 3895 3761 3711 3617 3653 3674 3661 3579 3553 3566 3596 3413 3483 3501 3495 3377 3321 3304 3350 3436 3333 3266 3367 3225 3384 3265 3301 3324 3237 3410 3444 3255 3227 3352 3325 3383 3312 3487 3324 3446 3478 3501 3531 3436 3476 3500 3435 3503 3496 3513 3407 3503 3368 3395 3438 3298 3391 3350 3318 3215 3310 3243 3117 3169 3123 3146 3094 3018 3069 3054 3096 2975 2982 2969 3108 3047 3058 3030 2953 2969 2921 2931 2920 2891 2749 2831 2895 2824 2870 2949 2809 2844 2899 2890 2739 2870 2768 2874 2814 2726 2772 2839 2894 2760 2871 2809 2852 2857 2888 2796 2882 2839 2830 2772 2882 2784 2790 2713 2715 2758 2750 2696 2710 2769 2669 2829 2794 2819 2841 2727 2755 2760 2716 2732 2785 2808 2720 2656 2667 2706 2737 2710 2711 2721 2795 2704 2689 2745 2624 2810 2761 2722 2807 2732 2657 2787 2705 2770 2824 2677 2732 2794 2818 2713 2701 2796 2670 2823 2676 2757 2778 2815 2763 2861 2804 2814 2741 2764 2887 2813 2822 2857 2908 2938 2789 2814 2901 2930 3004 2934 3018 2905 2893 2992 2936 3053 2942 2983 3004 2926 2961 2931 2949 2948 2956 2880 2910 2809 2954 2931 2917 2850 2839 2914 2928 3030 2811 2897 2867 2881 2933 2780 2919 2875 2797 2746 2785 2865 2809 2860 2762 2837 2887 2898 2829 2854 2861 2765 2791 2873 2834 2870 2831 2777 2825 2858 2782 2867 2802 2871 2771 2823 2833 2828 2856 2835 2812 2840 2770 2840 2724 2799 2887 2897 2845 2883 2806 2851 2879 2862 2793 2891 2879 2927 2906 2997 2980 2885 2916 2965 2919 2878 2952 2833 2854 2925 2955 2886 2912 2982 2920 2888 2936 2841 2826 2855 2859 2821 2928 2967 2789 2912 2805 2829 2743 2675 2784 2847 2752 2724 2693 2848 2877 2717 2795 2678 2750 2711 2635 2695 2710 2695 2659 2734 2768 2786 2781 2690 2793 2776 2668 2685 2706 2724 2776 2672 2654 2791 2718 2717 2734 2587 2768 2566 2714 2615 2724 2731 2806 2652 2585 2722 2643 2742 2670 2720 2733 2655 2613 2730 2664 2701 2716 2679 2662 2719 2636 2637 2592 2688 2659 2637 2666 2644 2601 2518 2612 2659 2696 2718 2627 2711 2583 2711 2661 2687 2668 2670 2727 2608 2718 2531 2643 2616 2667 2596 2651 2654 2657 2731 2632 2653 2658 2733 2716 2740 2739 2609 2616 2660 2578 2663 2716 2717 2537 2615 2631 2765 2606 2620 2632 2654 2752 2593 2571 2648 2675 2662 2629 2593 2770 2573 2734 2655 2721 2638 2698 2740 2652 2652 2664 2563 2624 2628 2606 2633 2576 2675 2681 2567 2753 2598 2686 2664 2633 2686 2691 2650 2662 2615 2717 2647 2643 2635 2684 2728 2530 2649 2720 2613 2619 2683 2639 2588 2635 2629 2700 2592 2658 2733 2694 2588 2640 2737 2616 2605 2655 2682 2591 2668 2681 2641 2733 2624 2681 2614 2608 2770 2608 2621 2679 2645 2658 2634 2654 2619 2632 2789 2743 2644 2676 2680 2607 2599 2684 2711 2684 2540 2680 2665 2611 2611 2643 2626 2717 2704 2747 2632 2682 2623 2692 2580 2662 2647 2648 2697 2675 2649 2675 2529 2567 2701 2673 2749 2673 2577 2633 2538 2554 2710 2610 2664 2728 2726 2664 2685 2672 2646 2642 2722 2627 2526 2685 2704 2656 2770 2508 2749 2710 2666 2675 2625 2682 2584 2729 2713 2691 2687 2770 2606 2762 2683 2636 2612 2660 2626 2585 2605 2652 2614 2617 2619 2722 2719 2668 2587 2671 2714 2714 2639 2674 2691 2742 2670 2706 2597 2720 2771 2613 2647 2599 2636 2713 2684 2685 2697 2741 2641 2657 2695 2571 2705 2715 2740 2727 2634 2636 2725 2685 2734 2599 2656 2690 2745 2734 2665 2617 2663 2684 2629 2685 2545 2761 2702 2551 2645 2647 2612 2603 2660 2668 2768 2620 2784 2738 2740 2644 2603 2673 2756 2621 2700 2604 2808 2646 2599 2598 2723 2648 2637 2607 2591 2672 2682 2653 2572 2659 2589 2643 2748 2685 2694 2718 2610 2653 2656 2759 2663 2668 2675 2648 2633 2640 2624 2710 2686 2555 2678 2612 2716 2641 2639 2577 2599 2637 2522 2590 2636 2685 2616 2638 2697 2642 2703 2719 2572 2709 2576 2745 2580 2598 2621 2644 2732 2664 2628 2657 2679 2684 2694 2669 2585 2735 2603 2702 2608 2658 2608 2585 2678 2495 2693 2655 2678 2683 2684 2693 2677 2655 2643 2727 2626 2663 2620 2659 2712 2759 2772 2593 2740 2618 2786 2791 2665 2740 2728 2679 2654 2774 2692 2801 2768 2664 2713 2697 2584 2649 2666 2667 2722 2756 2678 2760 2622 2671 2699 2726 2635 2711 2672 2599 2748 2591 2734 2614 2681 2626 2652 2649 2598 2731 2700 2738 2615 2649 2712 2775 2815 2819 2775 2556 2691 2782 2737 2860 2742 2741 2851 2887 2804 2936 2794 2914 2843 2803 2905 2808 2808 2910 2839 2769 2799 2751 2865 2790 2876 2860 2914 2948 2885 2900 2839 2855 2820 2791 2890 2944 2872 2811 2888 2829 2906 2880 2908 2906 2897 2934 2790 2854 2860 2921 2803 2870 2787 2857 2891 2805 2957 2872 2784 2771 2737 2868 2833 2843 2787 2763 2763 2827 2764 2796 2747 2842 2766 2725 2673 2798 2708 2707 2679 2659 2739 2757 2616 2741 2653 2750 2648 2750 2738 2650 2726 2671 2724 2681 2628 2684 2670 2685 2748 2622 2641 2756 2746 2635 2685 2723 2590 2652 2733 2683 2705 2615 2676 2671 2684 2726 2626 2746 2684 2673 2597 2686 2708 2686 2743 2670 2722 2714 2642 2670 2672 2654 2623 2645 2659 2644 2683 2668 2745 2667 2622 2707 2755 2717 2621 2637 2722 2649 2699 2701 2739 2626 2748 2598 2706 2744 2646 2696 2710 2687 2692 2514 2755 2640 2645 2627 2620 2704 2572 2691 2623 2711 2610 2603 2714 2594 2617 2598 2641 2648 2669 2649 2708 2655 2696 2741 2574 2639 2633 2671 2614 2624 2635 2690 2678 2637 2613 2547 2683 2696 2717 2615 2698 2702 2707 2640 2687 2742 2742 2557 2680 2607 2621 2672 2626 2669 2638 2585 2736 2665 2687 2630 2693 2739 2718 2621 2684 2661 2725 2559 2658 2611 2674 2732 2722 2634 2683 2643 2734 2688 2807 2706 2613 2595 2703 2652 2652 2769 2626 2726 2656 2632 2622 2638 2772 2645 2710 2827 2692 2770 2855 2696 2852 2783 2753 2903 2786 2890 2898 3030 2867 2874 2957 2979 2912 2953 3087 3082 3013 3128 3079 3001 3110 3039 3205 3169 3092 3099 3177 3078 3114 3086 3248 3034 3005 3101 3131 3203 3157 3104 3047 3079 3026 3012 2971 3078 2934 2971 3083 3039 3038 3052 3019 3040 2971 3036 2999 2930 2935 2964 2999 2899 2985 3005 3014 2905 3115 2947 2890 2890 2964 3000 2908 2902 2982 2930 2923 2840 2852 2942 2913 2839 2807 2906 2829 2876 2866 2845 2927 2806 2858 2785 2899 2805 2769 2718 2677 2859 2770 2747 2807 2748 2864 2747 2809 2758 2778 2776 2832 2802 2764 2702 2803 2711 2804 2860 2729 2685 2708 2759 2715 2751 2752 2714 2717 2830 2781 2692 2706 2756 2746 2771 2660 2701 2773 2668 2782 2797 2699 2679 2701 2837 2824 2660 2773 2633 2700 2762 2782 2759 2799 2647 2711 2779 2750 2797 2755 2664 2717 2773 2751 2739 2731 2694 2735 2771 2817 2724 2760 2868 2752 2689 2756 2700 2585 2672 2710 2766 2690 2672 2726 2748 2749 2731 2760 2753 2759 2791 2714 2653 2735 2701 2735 2680 2659 2660 2671 2725 2773 2686 2624 2656 2760 2754 2706 2652 2772 2725 2681 2799 2719 2792 2842 2776 2772 2763 2772 2816 2804 2775 2809 2851 2831 2897 2842 2896 2715 2781 2814 2833 2854 2817 2759 2762 2812 2790 2839 2769 2825 2821 2800 2778 2792 2773 2726 2869 2657 2838 2776 2767 2831 2757 2668 2710 2747 2815 2719 2787 2760 2785 2710 2696 2713 2723 2766 2733 2673 2723 2791 2758 2749 2680 2673 2738 2664 2612 2688 2787 2725 2618 2665 2723 2659 2687 2664 2684 2674 2735 2665 2736 2699 2675 2744 2744 2598 2685 2724 2621 2759 2624 2680 2655 2662 2711 2689 2574 2766 2631 2609 2695 2658 2794 2734 2630 2540 2703 2637 2600 2655 2724 2602 2671 2742 2603 2788 2600 2696 2575 2679 2717 2646 2596 2766 2687 2752 2690 2643 2665 2689 2672 2599 2671 2598 2619 2666 2698 2600 2606 2645 2711 2705 2668 2630 2670 2612 2673 2661 2667 2712 2704 2634 2626 2647 2601 2740 2605 2669 2611 2644 2639 2632 2762 2617 2625 2631 2657 2787 2644 2653 2701 2566 2739 2603 2617 2690 2601 2579 2640 2692 2642 2715 2604 2623 2584 2623 2638 2649 2672 2623 2648 2660 2628 2702 2720 2593 2626 2651 2594 2710 2656 2688 2616 2607 2588 2669 2703 2572 2694 2585 2671 2641 2639 2685 2652 2663 2589 2670 2660 2671 2727 2657 2710 2605 2561 2664 2663 2614 2656 2665 2645 2639 2616 2676 2604 2707 2667 2609 2623 2672 2709 2651 2556 2631 2589 2639 2550 2618 2574 2636 2701 2614 2646 2584 2712 2662 2601 2620 2612 2609 2676 2580 2580 2647 2586 2601 2558 2609 2667 2640 2671 2638 2737 2645 2610 2646 2620 2747 2590 2722 2585 2554 2709 2623 2682 2606 2687 2603 2606 2635 2628 2578 2665 2618 2618 2617 2698 2698 2657 2618 2691 2619 2585 2606 2731 2670 2679 2578 2655 2657 2580 2611 2628 2615 2673 2571 2621 2688 2629 2657 2590 2659 2717 2708 2604 2664 2639 2675 2669 2642 2611 2627 2667 2640 2661 2554 2560 2578 2635 2741 2604 2692 2609 2578 2622 2659 2716 2651 2664 2666 2686 2628 2634 2661 2624 2664 2732 2612 2574 2567 2678 2658 2684 2583 2706 2615 2512 2571 2639 2696 2602 2646 2727 2666 2573 2638 2616 2652 2672 2616 2535 2650 2627 2672 2667 2678 2673 2631 2677 2627 2657 2549 2514 2650 2641 2577 2585 2606 2556 2577 2627 2623 2574 2650 2617 2640 2635 2577 2701 2656 2643 2633 2677 2639 2552 2614 2618 2699 2616 2537 2668 2680 2656 2591 2663 2557 2614 2612 2580 2549 2605 2557 2713 2625 2610 2633 2644 2619 2634 2532 2571 2583 2529 2651 2619 2572 2622 2630 2549 2582 2553 2584 2654 2664 2564 2648 2526 2636 2614 2535 2648 2533 2631 2600 2560 2633 2628 2541 2643 2637 2633 2628 2700 2638 2666 2607 2642 2635 2567 2585 2635 2694 2668 2643 2531 2573 2621 2589 2597 2667 2625 2710 2678 2609 2567 2586 2603 2700 2622 2698 2625 2694 2597 2734 2713 2691 2677 2625 2664 2693 2615 2689 2709 2747 2706 2710 2716 2721 2670 2689 2621 2581 2746 2667 2722 2591 2702 2623 2691 2757 2656 2682 2688 2648 2686 2676 2639 2594 2604 2592 2652 2649 2671 2698 2651 2799 2621 2667 2646 2612 2744 2611 2581 2668 2728 2650 2601 2688 2739 2631 2726 2686 2703 2636 2694 2622 2760 2667 2694 2697 2686 2635 2641 2653 2669 2823 2603 2641 2712 2647 2641 2622 2586 2585 2659 2657 2682 2617 2732 2600 2639 2587 2625 2698 2666 2646 2754 2528 2640 2672 2770 2593 2662 2618 2649 2595 2712 2623 2756 2662 2576 2645 2718 2628 2731 2723 2607 2636 2620 2689 2517 2646 2735 2636 2574 2534 2677 2562 2662 2664 2606 2577 2666 2569 2579 2599 2684 2670 2653 2702 2664 2636 2604 2684 2633 2651 2623 2666 2700 2651 2600 2645 2626 2660 2585 2682 2690 2732 2615 2607 2777 2646 2693 2667 2666 2603 2669 2625 2686 2656 2706 2719 2583 2633 2698 2644 2571 2672 2628 2683 2605 2690 2654 2661 2624 2572 2641 2722 2645 2624 2623 2648 2711 2617 2629 2588 2640 2679 2590 2600 2679 2601 2655 2712 2604 2678 2524 2661 2590 2663 2620 2681 2580 2670 2645 2585 2623 2561 2669 2603 2534 2666 2559 2614 2572 2664 2654 2623 2629 2578 2703 2626 2624 2615 2577 2594 2608 2664 2655 2595 2628 2606 2696 2654 2596 2568 2667 2643 2665 2564 2594 2577 2641 2649 2646 2592 2619 2571 2604 2607 2545 2711 2670 2665 2617 2727 2624 2599 2698 2593 2586 2637 2655 2597 2690 2614 2545 2726 2646 2573 2615 2686 2657 2657 2677 2634 2694 2595 2619 2684 2720 2712 2648 2524 2683 2669 2567 2643 2633 2632 2721 2596 2592 2581 2645 2709 2632 2667 2691 2729 2757 2830 2723 2777 2741 2871 2752 2784 2798 2850 2793 2849 2797 2755 2721 2850 2745 2782 2740 2761 2883 2864 2825 2883 2819 2737 2746 2751 2766 2805 2831 2862 2825 2740 2737 2778 2774 2772 2715 2707 2829 2817 2748 2801 2736 2859 2848 2809 2787 2776 2718 2682 2685 2744 2761 2748 2815 2727 2729 2747 2736 2729 2653 2801 2636 2695 2768 2744 2779 2752 2736 2674 2710 2678 2733 2752 2691 2773 2741 2620 2599 2657 2739 2682 2825 2737 2660 2760 2594 2713 2605 2723 2758 2798 2714 2741 2719 2635 2683 2702 2643 2634 2692 2692 2663 2694 2704 2731 2565 2675 2630 2655 2737 2639 2593 2687 2680 2575 2662 2624 2699 2697 2644 2606 2623 2723 2662 2595 2685 2653 2590 2641 2662 2566 2670 2714 2690 2661 2653 2584 2658 2639 2722 2654 2681 2627 2709 2652 2722 2677 2709 2616 2696 2714 2560 2650 2625 2678 2583 2594 2680 2677 2661 2637 2665 2683 2649 2640 2567 2598 2611 2628 2664 2649 2660 2702 2597 2681 2647 2671 2607 2642 2629 2656 2663 2571 2717 2649 2559 2675 2623 2653 2671 2639 2622 2733 2631 2610 2731 2568 2600 2633 2589 2607 2630 2646 2557 2736 2582 2746 2506 2621 2606 2681 2642 2644 2600 2623 2565 2660 2671 2569 2611 2591 2587 2540 2540 2643 2603 2638 2564 2599 2660 2647 2680 2585 2585 2657 2674 2539 2583 2637 2569 2699 2614 2529 2621 2688 2670 2677 2714 2714 2583 2629 2700 2733 2602 2638 2612 2641 2543 2648 2708 2617 2583 2668 2537 2670 2580 2644 2647 2569 2652 2705 2569 2590 2634 2578 2722 2637 2644 2642 2679 2685 2644 2663 2653 2655 2725 2591 2544 2558 2638 2619 2677 2627 2622 2552 2696 2740 2603 2547 2613 2626 2699 2632 2575 2588 2661 2660 2746 2582 2676 2574 2575 2620 2652 2694 2565 2527 2646 2643 2589 2652 2717 2555 2566 2633 2622 2537 2671 2629 2555 2684 2670 2663 2687 2568 2554 2620 2597 2641 2608 2688 2594 2663 2640 2607 2564 2681 2613 2620 2667 2589 2600 2560 2698 2620 2629 2611 2720 2624 2627 2652 2676 2712 2634 2622 2582 2635 2571 2557 2602 2641 2702 2656 2634 2566 2746 2584 2635 2623 2640 2609 2656 2542 2715 2609 2560 2614 2646 2583 2669 2644 2604 2648 2640 2712 2626 2612 2661 2685 2537 2680 2619 2667 2562 2558 2672 2675 2614 2612 2665 2625 2566 2662 2518 2678 2652 2708 2677 2629 2626 2547 2691 2594 2541 2612 2616 2688 2656 2626 2666 2590 2624 2544 2654 2624 2622 2570 2575 2640 2632 2627 2643 2550 2665 2606 2639 2688 2645 2634 2587 2675 2588 2740 2684 2626 2610 2563 2729 2615 2700 2718 2572 2655 2644 2528 2597 2624 2640 2599 2638 2651 2593 2599 2664 2524 2741 2625 2563 2570 2600 2608 2626 2633 2512 2545 2619 2594 2693 2655 2602 2613 2629 2631 2628 2555 2631 2604 2611 2720 2756 2746 2624 2637 2627 2630 2641 2603 2682 2562 2631 2662 2638 2734 2557 2600 2600 2566 2536 2679 2618 2501 2608 2544 2639 2588 2671 2667 2596 2605 2658 2531 2652 2608 2576 2734 2632 2628 2599 2579 2597 2624 2654 2572 2675 2666 2622 2616 2670 2661 2630 2651 2607 2633 2644 2699 2639 2670 2644 2570 2608 2623 2652 2614 2666 2627 2736 2559 2619 2623 2583 2662 2555 2614 2689 2609 2598 2564 2528 2637 2596 2702 2746 2577 2631 2612 2680 2505 2580 2629 2529 2712 2638 2582 2579 2736 2659 2599 2576 2581 2518 2564 2656 2716 2572 2652 2674 2592 2599 2719 2620 2628 2604 2664 2524 2671 2649 2668 2589 2592 2614 2628 2649 2620 2551 2640 2638 2582 2631 2652 2670 2654 2651 2697 2607 2687 2557 2534 2606 2663 2654 2661 2675 2592 2659 2695 2662 2640 2602 2695 2628 2639 2555 2623 2605 2657 2643 2672 2601 2640 2674 2649 2703 2675 2646 2715 2735 2673 2639 2676 2746 2701 2649 2689 2703 2576 2685 2677 2619 2654 2638 2533 2696 2623 2662 2681 2613 2634 2708 2609 2632 2665 2665 2703 2659 2786 2652 2752 2690 2634 2699 2659 2683 2695 2662 2630 2767 2618 2680 2738 2760 2678 2696 2716 2700 2650 2713 2714 2702 2697 2698 2671 2763 2630 2623 2761 2702 2636 2706 2636 2671 2649 2716 2645 2715 2647 2684 2743 2713 2720 2692 2769 2801 2722 2660 2712 2543 2704 2664 2617 2654 2786 2685 2665 2670 2724 2702 2718 2757 2621 2688 2747 2726 2649 2636 2778 2673 2749 2653 2608 2592 2688 2668 2644 2610 2689 2585 2602 2671 2761 2676 2712 2731 2765 2764 2641 2715 2697 2757 2621 2681 2734 2756 2683 2633 2659 2656 2789 2724 2561 2641 2666 2775 2681 2684 2782 2686 2754 2622 2686 2621 2663 2701 2657 2728 2605 2659 2678 2617 2734 2624 2719 2557 2644 2631 2715 2656 2598 2667 2695 2600 2616 2732 2634 2721 2720 2666 2725 2522 2576 2650 2692 2657 2752 2667 2667 2710 2630 2680 2676 2714 2623 2583 2720 2613 2694 2743 2660 2641 2690 2687 2653 2653 2737 2632 2518 2714 2577 2709 2684 2606 2711 2603 2742 2733 2625 2690 2649 2720 2659 2636 2702 2783 2716 2624 2666 2643 2694 2686 2711 2641 2674 2741 2618 2692 2595 2607 2666 2524 2741 2609 2791 2697 2647 2683 2711 2649 2702 2737 2690 2722 2708 2697 2671 2575 2724 2662 2741 2731 2642 2647 2697 2644 2697 2618 2641 2741 2662 2695 2767 2740 2709 2699 2697 2717 2714 2724 2683 2679 2697 2696 2680 2755 2688 2661 2796 2585 2790 2804 2823 2862 2832 2825 2880 2911 2878 2930 2787 2882 3004 2847 2969 2925 2996 3017 3021 2954 3016 3086 2994 3068 2888 3013 2830 3043 2849 2984 2989 2979 2972 2956 3028 2951 3009 2889 2936 2996 2966 2989 2971 2888 2910 2895 2920 2938 2911 2840 2951 2955 2722 2911 2965 2934 2890 2860 2879 2889 2912 2872 2879 2877 2957 2906 2893 2932 2960 2851 2893 2945 2865 3008 2822 2933 2885 2871 2799 2902 2883 2835 2967 2822 2844 2850 2931 2814 2865 2874 2877 2821 2839 2857 2856 2781 2829 2918 2843 2795 2809 2898 2809 2702 2748 2777 2746 2853 2781 2819 2815 2816 2787 2765 2711 2640 2718 2780 2782 2734 2735 2810 2810 2629 2745 2733 2639 2738 2742 2701 2657 2749 2761 2735 2772 2691 2729 2784 2703 2682 2699 2734 2816 2764 2727 2750 2681 2729 2838 2660 2782 2723 2789 2694 2664 2682 2746 2705 2709 2687 2639 2618 2725 2696 2735 2705 2715 2675 2698 2753 2659 2740 2671 2779 2577 2755 2686 2820 2713 2724 2765 2754 2770 2719 2811 2762 2790 2650 2846 2672 2838 2752 2865 2816 2858 2815 2815 2839 2748 2703 2722 2741 2781 2854 2779 2874 2814 2828 2830 2861 2808 2753 2757 2742 2758 2898 2903 2801 2725 2730 2768 2885 2812 2781 2808 2844 2841 2819 2795 2709 2789 2868 2792 2731 2718 2838 2793 2787 2776 2783 2738 2681 2810 2719 2754 2718 2761 2756 2783 2728 2775 2679 2659 2604 2669 2761 2787 2638 2751 2766 2756 2732 2706 2698 2724 2730 2668 2680 2630 2727 2760 2785 2678 2705 2695 2771 2661 2724 2747 2726 2718 2625 2715 2738 2712 2693 2668 2738 2610 2607 2784 2712 2664 2760 2685 2577 2730 2791 2679 2745 2608 2735 2723 2645 2864 2698 2660 2711 2581 2774 2698 2685 2502 2719 2673 2628 2706 2640 2712 2678 2704 2685 2679 2779 2647 2655 2634 2687 2701 2778 2659 2636 2636 2652 2725 2662 2644 2661 2721 2677 2587 2687 2633 2751 2677 2713 2703 2694 2702 2648 2717 2682 2737 2693 2657 2549 2759 2654 2685 2682 2679 2730 2690 2564 2646 2704 2723 2697 2708 2688 2601 2682 2601 2711 2712 2625 2612 2631 2617 2695 2660 2693 2667 2619 2789 2648 2657 2675 2617 2687 2718 2597 2556 2713 2697 2690 2634 2641 2744 2596 2620 2665 2569 2627 2515 2631 2739 2610 2720 2634 2727 2681 2601 2618 2544 2702 2661 2611 2623 2628 2629 2691 2634 2618 2658 2717 2702 2586 2512 2712 2583 2665 2666 2633 2611 2624 2639 2758 2658 2682 2723 2675 2655 2675 2633 2675 2571 2653 2783 2674 2647 2644 2681 2609 2677 2708 2643 2643 2700 2667 2607 2599 2648 2637 2665 2700 2538 2621 2626 2672 2578 2632 2616 2597 2634 2695 2590 2612 2711 2659 2571 2620 2573 2704 2547 2643 2690 2687 2735 2756 2606 2613 2652 2673 2635 2668 2678 2520 2623 2614 2588 2579 2716 2628 2643 2742 2664 2705 2574 2628 2633 2626 2636 2605 2656 2648 2610 2700 2667 2679 2641 2702 2615 2619 2684 2624 2651 2571 2604 2610 2619 2663 2618 2631 2698 2607 2660 2598 2755 2603 2693 2631 2585 2655 2675 2657 2630 2591 2752 2702 2709 2601 2619 2681 2611 2660 2538 2629 2712 2730 2623 2623 2667 2671 2734 2618 2554 2670 2668 2600 2661 2619 2658 2696 2647 2746 2596 2628 2712 2710 2842 2608 2624 2637 2563 2612 2630 2494 2615 2650 2710 2659 2650 2657 2656 2630 2626 2673 2590 2623 2596 2721 2652 2673 2628 2635 2658 2647 2717 2696 2665 2668 2614 2661 2687 2714 2560 2589 2693 2668 2583 2683 2639 2666 2714 2631 2662 2710 2616 2683 2650 2581 2615 2655 2597 2703 2618 2650 2667 2703 2609 2630 2667 2668 2680 2672 2658 2620 2629 2674 2627 2658 2692 2685 2631 2740 2689 2626 2538 2780 2595 2688 2660 2724 2655 2732 2699 2723 2696 2711 2652 2719 2744 2664 2647 2655 2691 2683 2670 2680 2732 2643 2594 2665 2737 2614 2772 2652 2576 2725 2679 2494 2659 2711 2594 2703 2745 2574 2688 2660 2558 2639 2592 2651 2635 2696 2634 2598 2614 2549 2584 2649 2633 2683 2724 2610 2736 2643 2704 2614 2641 2546 2747 2746 2722 2680 2673 2569 2603 2627 2624 2778 2618 2740 2714 2611 2629 2645 2697 2681 2742 2656 2649 2624 2708 2623 2687 2661 2617 2626 2732 2693 2662 2665 2601 2751 2543 2621 2598 2695 2676 2637 2731 2624 2671 2729 2715 2611 2663 2717 2639 2748 2665 2697 2578 2608 2607 2711 2667 2596 2600 2686 2637 2651 2636 2610 2700 2666 2693 2707 2637 2623 2681 2658 2819 2685 2493 2616 2670 2661 2693 2688 2706 2673 2682 2720 2722 2581 2707 2636 2704 2637 2615 2744 2569 2693 2677 2704 2804 2615 2597 2698 2630 2644 2633 2676 2613 2683 2714 2690 2663 2625 2642 2665 2742 2685 2683 2665 2728 2708 2633 2689 2695 2608 2681 2713 2707 2619 2639 2645 2584 2620 2610 2595 2658 2690 2581 2678 2575 2682 2689 2655 2652 2585 2694 2693 2611 2653 2697 2665 2778 2675 2651 2628 2668 2624 2666 2570 2596 2562 2638 2575 2722 2578 2701 2545 2698 2701 2658 2716 2695 2728 2613 2667 2671 2640 2631 2682 2729 2684 2693 2682 2677 2748 2719 2747 2699 2730 2651 2727 2632 2711 2664 2682 2659 2661 2794 2744 2628 2660 2655 2730 2765 2639 2757 2648 2682 2580 2699 2753 2702 2733 2738 2694 2769 2708 2734 2750 2725 2826 2743 2816 2864 2844 2902 2867 2898 2849 2814 2777 2896 2808 2864 2827 2844 2976 2881 2873 2811 2819 2871 2786 2834 2788 2818 2795 2928 2772 2817 2892 2869 2859 2866 2815 2899 2806 2809 2844 2912 2899 2822 2916 2837 2841 2843 2851 2886 2865 2824 2788 2757 2879 2789 2848 2770 2851 2918 2840 2855 2745 2781 2796 2749 2797 2727 2794 2810 2667 2754 2787 2804 2837 2811 2817 2829 2715 2746 2814 2837 2728 2840 2820 2742 2806 2777 2842 2884 2779 2765 2725 2766 2681 2822 2769 2780 2727 2764 2810 2823 2691 2751 2654 2688 2893 2676 2769 2748 2749 2756 2702 2772 2746 2643 2671 2687 2709 2762 2762 2730 2719 2664 2757 2689 2725 2695 2710 2676 2661 2731 2665 2611 2835 2657 2757 2725 2772 2682 2726 2752 2746 2596 2730 2688 2706 2708 2684 2704 2678 2679 2689 2722 2666 2651 2742 2638 2613 2764 2598 2775 2694 2750 2714 2653 2666 2677 2764 2736 2561 2707 2727 2739 2676 2572 2562 2550 2763 2733 2757 2712 2816 2614 2716 2767 2751 2671 2664 2681 2773 2781 2791 2731 2683 2635 2742 2792 2767 2781 2737 2821 2771 2824 2696 2766 2697 2802 2741 2829 2637 2667 2691 2806 2710 2739 2777 2813 2713 2720 2822 2720 2705 2631 2773 2667 2672 2684 2773 2757 2668 2667 2696 2681 2680 2714 2643 2620 2658 2693 2668 2845 2638 2677 2786 2818 2685 2704 2732 2700 2806 2711 2749 2655 2692 2768 2685 2628 2703 2727 2688 2762 2601 2643 2674 2694 2729 2712 2699 2635 2703 2686 2719 2666 2691 2785 2632 2733 2677 2606 2687 2603 2659 2677 2634 2633 2811 2735 2580 2728 2705 2776 2760 2677 2769 2619 2572 2709 2705 2700 2723 2625 2613 2639 2623 2621 2529 2601 2721 2675 2646 2693 2642 2721 2664 2560 2709 2651 2732 2711 2606 2603 2675 2582 2690 2629 2595 2638 2642 2670 2677 2573 2627 2663 2753 2720 2665 2642 2654 2675 2693 2672 2597 2640 2674 2662 2632 2671 2650 2616 2645 2611 2677 2535 2645 2739 2752 2709 2696 2663 2689 2715 2642 2598 2582 2682 2636 2642 2666 2608 2663 2621 2696 2646 2656 2684 2597 2627 2635 2666 2625 2714 2642 2658 2790 2686 2606 2735 2724 2732 2659 2656 2712 2703 2627 2704 2701 2643 2643 2715 2693 2679 2712 2793 2673 2639 2616 2682 2667 2653 2690 2702 2633 2725 2682 2665 2665 2662 2553 2635 2657 2683 2684 2759 2623 2639 2738 2693 2618 2748 2649 2643 2613 2752 2708 2664 2585 2611 2639 2676 2554 2581 2687 2742 2727 2693 2696 2677 2682 2656 2622 2632 2745 2634 2680 2773 2730 2695 2576 2633 2664 2620 2676 2675 2625 2709 2677 2638 2534 2662 2657 2713 2613 2664 2685 2573 2688 2666 2707 2620 2654 2627 2657 2612 2502 2656 2656 2615 2662 2643 2720 2670 2680 2661 2687 2625 2714 2718 2703 2585 2634 2730 2545 2672 2661 2658 2737 2656 2682 2712 2653 2633 2620 2765 2600 2712 2729 2667 2724 2699 2625 2707 2649 2717 2597 2579 2653 2602 2659 2602 2630 2633 2698 2659 2616 2728 2658 2688 2677 2650 2724 2664 2666 2587 2581 2718 2631 2631 2589 2712 2670 2651 2684 2578 2697 2713 2591 2609 2695 2700 2650 2728 2613 2610 2694 2581 2626 2562 2756 2573 2635 2630 2676 2614 2581 2597 2745 2592 2676 2624 2630 2679 2655 2616 2639 2624 2665 2544 2715 2677 2648 2687 2695 2702 2633 2669 2619 2684 2698 2760 2620</counts>
			</dataPoints>
		</scan>
	</xrdMeasurement>
</xrdMeasurements>
