<?xml version="1.0"?>
<xrdMeasurements xmlns="http://www.xrdml.com/XRDMeasurement/2.3" xmlns:xsi="http://www.w3.org/2001/XMLSchema-instance" xsi:schemaLocation="http://www.xrdml.com/XRDMeasurement/2.3 http://www.xrdml.com/XRDMeasurement/2.3/XRDMeasurement.xsd" status="Completed" recordIdentifier="{607762E5-B66E-4A3A-AB18-C1707374F3C7}">
	<comment>
		<entry/>
	</comment>
	<sample type="To be analyzed">
		<id>GPSS_Li2Cr0p5Mn0p5Cl4_102925_69023408f1dc75abe2563674</id>
		<name></name>
		<preparedBy></preparedBy>
	</sample>
	<xrdMeasurement measurementType="Scan" status="Completed" sampleMode="Reflection">
		<usedWavelength intended="K-Alpha 1">
			<kAlpha1 unit="Angstrom">1.5405980</kAlpha1>
			<kAlpha2 unit="Angstrom">1.5444260</kAlpha2>
			<kBeta unit="Angstrom">1.3922500</kBeta>
			<ratioKAlpha2KAlpha1>0.5000</ratioKAlpha2KAlpha1>
		</usedWavelength>
		<incidentBeamPath>
			<radius unit="mm">145.00</radius>
			<xRayTube id="1010048" name="Empyrean Cu LFF HR (9430 033 7310x)">
				<tension unit="kV">40.0</tension>
				<current unit="mA">15.0</current>
				<anodeMaterial>Cu</anodeMaterial>
				<focus type="Line">
					<length unit="mm">12.0</length>
					<width unit="mm">0.4</width>
					<takeOffAngle unit="deg">6.0</takeOffAngle>
				</focus>
			</xRayTube>
			<sollerSlit id="21010002" name="Soller slits 0.04 rad.">
				<opening unit="rad">0.0400</opening>
			</sollerSlit>
			<mask id="22031000" name="Fixed mask 13 mm">
				<width unit="mm">9.00</width>
			</mask>
			<divergenceSlit id="22120001" name="Divergence slit 1°" xsi:type="fixedDivergenceSlitType">
				<distanceToSample unit="mm">50.00</distanceToSample>
				<height unit="mm">1.52</height>
			</divergenceSlit>
		</incidentBeamPath>
		<sampleMovement xsi:type="spinningSampleMovementType">
			<spinnerRevolutionTime unit="seconds">1.0</spinnerRevolutionTime>
		</sampleMovement>
		<diffractedBeamPath>
			<radius unit="mm">145.00</radius>
			<antiScatterSlit id="22090040" name="AS slit 9 mm (PIXcel)" xsi:type="fixedAntiScatterSlitType">
				<height unit="mm">9.00</height>
			</antiScatterSlit>
			<sollerSlit id="21020003" name="Large Soller slits 0.04 rad.">
				<opening unit="rad">0.0400</opening>
			</sollerSlit>
			<filter id="20030001" name="Large beta-filter Nickel">
				<material>Ni</material>
				<thickness unit="mm">0.020</thickness>
			</filter>
			<detector id="7010019" name="PIXcel1D-Medipix3 detector" xsi:type="rtmsDetectorType">
				<phd unit="keV">
					<lowerLevel>4.02</lowerLevel>
					<upperLevel>11.27</upperLevel>
				</phd>
				<mode>Scanning</mode>
				<activeLength unit="deg">5.542</activeLength>
			</detector>
		</diffractedBeamPath>
		<scan appendNumber="0" mode="Continuous" scanAxis="Gonio" status="Completed">
			<header>
				<startTimeStamp>2025-11-01T16:59:25-07:00</startTimeStamp>
				<endTimeStamp>2025-11-01T17:07:33-07:00</endTimeStamp>
				<author>
					<name>AutomatedUser</name>
				</author>
				<source>
					<applicationSoftware version="1.7b (136)">PANalytical Aeris Instrument Suite</applicationSoftware>
					<instrumentControlSoftware version="3.2.00000000 20240306">AERIS</instrumentControlSoftware>
					<instrumentID>950485</instrumentID>
				</source>
			</header>
			<dataPoints>
				<positions axis="2Theta" unit="deg">
					<startPosition>10.00943322</startPosition>
					<endPosition>99.99442286</endPosition>
				</positions>
				<positions axis="Omega" unit="deg">
					<startPosition>5.00471661</startPosition>
					<endPosition>49.99721143</endPosition>
				</positions>
				<commonCountingTime unit="seconds">12.495</commonCountingTime>
				<counts unit="counts">3001 2909 2950 2948 2904 2933 2983 3013 2979 2936 2972 3066 2913 2924 2963 3002 2969 2888 2974 2908 2939 3031 2940 2950 3028 3000 2992 2927 2914 3006 3037 3013 3013 3081 2921 2945 2916 3071 3007 3023 3112 3065 3034 3050 2986 3006 3042 3009 3041 2906 2997 2871 3018 3117 3110 3100 3096 3046 3112 3051 3149 3124 3138 3122 3114 3190 3260 3053 3149 3119 3097 3243 3095 3294 3280 3278 3259 3278 3344 3287 3233 3430 3312 3316 3296 3301 3283 3300 3201 3223 3232 3136 3261 3194 3166 3156 3188 3133 3113 3018 3194 3101 3176 3143 3139 3215 3202 3146 3146 3056 3078 3142 3134 3091 3090 3103 3071 3168 3080 3008 3175 3037 3190 2993 3124 3186 3179 3043 3067 3164 3121 3158 3137 3122 2968 2965 3167 2998 3134 3088 3042 3017 3209 3163 3108 3147 3132 3053 3083 3060 3006 3142 3066 3107 3048 2966 3077 3132 3141 3078 3107 3103 3046 3123 3092 3032 3209 3014 3165 2975 3105 3044 3103 3094 3094 3084 3046 2987 3133 3104 3005 3046 3112 3098 3043 3090 3047 3169 3066 3040 2975 3011 3010 3040 3007 3101 3114 3088 3147 3081 3034 2929 3106 3115 3072 3047 2988 3204 3095 2975 3040 3076 3077 3060 3125 3046 3029 3003 3074 2953 2948 3015 3002 3008 2949 2975 2956 3008 3112 2974 2959 3055 2937 3020 2964 2989 3012 3002 3035 2958 2899 3071 2888 2998 2986 3002 2949 2906 2872 2962 3035 3055 3054 3042 2896 2943 2995 3016 2950 2915 2997 3006 2965 2995 2818 3021 2996 2960 3028 2942 2917 3049 2937 2943 2943 2951 2961 2949 2940 2927 3072 2995 2980 2921 2989 2991 2968 2976 2957 3014 2966 2865 2839 2897 2958 3023 2999 2996 2910 2929 2974 3052 3017 2975 3031 3042 3050 3050 2913 3012 3038 3083 3041 3041 3055 3089 2950 2994 3001 3048 3051 3093 3050 3107 3087 3062 3141 3102 3089 3022 3008 3090 2958 3042 3025 3040 3093 2995 3123 3040 3114 3137 3161 3165 3103 3056 3107 3118 3175 3285 3081 3174 3201 3165 3210 3202 3240 3278 3167 3241 3260 3233 3272 3127 3197 3049 3111 3187 3158 3245 3127 3213 3220 3264 3167 3210 3098 3225 3278 3264 3303 3312 3288 3296 3365 3227 3231 3270 3353 3329 3223 3310 3422 3333 3495 3373 3406 3426 3513 3568 3317 3569 3485 3564 3599 3657 3696 3747 3830 3805 3896 3960 4043 3996 4013 3889 3923 3986 3971 4022 3958 4010 3972 3898 3936 3942 4082 4047 3947 3901 3851 3784 3760 3747 3730 3737 3709 3645 3591 3417 3499 3454 3570 3423 3399 3382 3455 3433 3460 3271 3371 3484 3412 3387 3408 3613 3483 3550 3463 3502 3603 3401 3473 3504 3346 3440 3551 3530 3455 3508 3465 3539 3489 3455 3414 3302 3313 3302 3174 3226 3135 3266 3171 3205 3146 3128 3200 3140 3266 3181 3079 3034 3015 3050 3032 3125 3026 3036 3017 2985 2980 3065 2915 3022 3030 2984 2990 3066 2939 2903 2999 2957 2857 2974 2948 2872 2951 3029 3007 2950 3001 2915 2987 2849 2906 3026 2859 2938 2887 2871 2837 2943 2990 2864 2908 2964 2985 2911 2847 2927 2908 2866 2797 2826 2935 2774 2829 2863 2887 2846 2857 2865 2794 2852 2852 2792 2830 2781 2657 2762 2786 2805 2771 2768 2766 2803 2832 2798 2737 2666 2740 2758 2785 2753 2760 2687 2623 2689 2779 2770 2645 2735 2732 2722 2625 2839 2661 2791 2748 2739 2742 2700 2709 2764 2689 2665 2694 2673 2768 2780 2716 2660 2715 2710 2697 2595 2642 2744 2622 2668 2678 2721 2727 2727 2638 2680 2670 2705 2621 2733 2784 2668 2638 2611 2657 2572 2671 2631 2656 2664 2646 2626 2684 2772 2696 2651 2735 2706 2658 2635 2654 2746 2661 2700 2631 2690 2685 2587 2675 2708 2582 2656 2626 2610 2672 2650 2598 2690 2691 2633 2583 2796 2574 2707 2639 2658 2657 2590 2795 2670 2536 2590 2651 2675 2683 2576 2637 2545 2655 2636 2663 2591 2664 2610 2611 2666 2516 2607 2611 2670 2679 2556 2645 2579 2653 2732 2624 2535 2643 2568 2562 2541 2574 2609 2564 2469 2521 2512 2620 2692 2618 2600 2568 2610 2507 2651 2626 2591 2593 2609 2569 2610 2623 2549 2683 2668 2556 2585 2519 2624 2581 2544 2611 2530 2577 2589 2416 2568 2639 2503 2657 2500 2585 2485 2541 2497 2567 2545 2516 2509 2486 2530 2464 2445 2492 2525 2524 2577 2543 2587 2546 2559 2532 2608 2569 2520 2507 2394 2700 2485 2505 2488 2522 2564 2469 2524 2553 2444 2506 2458 2476 2544 2492 2671 2487 2570 2466 2399 2459 2648 2516 2470 2502 2539 2461 2418 2449 2460 2581 2527 2472 2446 2507 2490 2544 2541 2495 2464 2351 2520 2471 2491 2520 2474 2562 2534 2471 2449 2483 2503 2398 2520 2498 2476 2466 2433 2453 2489 2462 2378 2439 2471 2367 2447 2484 2514 2467 2472 2471 2412 2515 2482 2469 2448 2526 2345 2456 2472 2354 2504 2517 2474 2415 2441 2494 2414 2369 2444 2428 2417 2380 2402 2488 2392 2392 2454 2357 2460 2374 2355 2422 2459 2536 2385 2468 2497 2401 2434 2409 2420 2376 2393 2496 2379 2440 2439 2438 2449 2457 2529 2439 2516 2496 2543 2516 2542 2648 2585 2666 2540 2593 2627 2700 2805 2783 2721 2868 2971 2882 2777 2906 2872 2867 2880 2859 2783 2883 2916 2749 2854 2782 2775 2780 2691 2791 2698 2615 2602 2564 2634 2483 2527 2450 2521 2449 2431 2433 2422 2393 2381 2395 2388 2273 2372 2351 2312 2374 2442 2289 2300 2299 2363 2365 2344 2294 2295 2245 2432 2274 2365 2290 2261 2253 2241 2330 2296 2268 2445 2302 2293 2299 2312 2344 2400 2399 2259 2297 2289 2320 2312 2331 2277 2255 2393 2303 2277 2341 2356 2343 2293 2239 2233 2229 2261 2302 2329 2368 2329 2382 2356 2355 2356 2349 2261 2386 2308 2262 2282 2390 2320 2392 2456 2294 2342 2355 2317 2436 2260 2279 2327 2399 2327 2385 2225 2381 2391 2285 2431 2322 2349 2302 2321 2301 2334 2262 2315 2264 2335 2318 2376 2392 2335 2301 2307 2319 2341 2411 2368 2309 2259 2369 2377 2290 2346 2356 2389 2371 2314 2376 2377 2306 2255 2256 2299 2317 2269 2330 2278 2351 2284 2223 2281 2387 2356 2303 2229 2374 2383 2227 2230 2254 2423 2278 2285 2200 2328 2325 2299 2290 2328 2348 2312 2298 2287 2324 2311 2287 2271 2273 2281 2306 2185 2232 2362 2346 2333 2227 2357 2204 2341 2263 2292 2280 2291 2361 2344 2268 2253 2204 2221 2142 2188 2268 2325 2121 2267 2157 2226 2267 2294 2257 2232 2186 2299 2199 2261 2195 2188 2173 2190 2169 2152 2115 2213 2165 2115 2142 2118 2133 2150 2061 2199 2086 2192 2189 2211 2107 2151 2051 2063 2141 2083 2151 2123 2060 2061 2091 2080 2069 2118 2107 2004 2037 2084 2041 2039 1994 2108 2061 2037 2024 1992 2092 2060 2011 2066 2044 2079 2069 1978 2052 1992 1997 2017 2038 2001 1991 2018 1994 1970 1976 1992 1942 1908 1939 1921 2031 1898 1997 1899 1936 1892 1970 1954 1857 1823 1887 1869 1899 1956 1889 1966 1896 1859 1890 1860 1853 1956 1820 1892 1865 1837 1867 1919 1815 1838 1875 1800 1902 1841 1876 1864 1891 1817 1792 1778 1785 1862 1883 1831 1848 1779 1757 1788 1816 1797 1758 1772 1757 1749 1808 1775 1798 1788 1754 1778 1851 1731 1766 1766 1820 1760 1855 1698 1713 1780 1748 1772 1683 1764 1829 1678 1710 1712 1736 1776 1772 1779 1764 1706 1700 1794 1753 1689 1742 1737 1704 1754 1664 1784 1722 1700 1751 1704 1702 1723 1710 1708 1716 1706 1689 1742 1639 1691 1637 1753 1770 1686 1726 1619 1765 1692 1787 1729 1705 1679 1747 1705 1747 1651 1733 1695 1714 1661 1668 1688 1677 1672 1756 1736 1663 1762 1761 1727 1737 1595 1649 1703 1679 1717 1657 1696 1691 1717 1667 1696 1685 1683 1683 1668 1682 1639 1688 1690 1693 1661 1666 1608 1605 1718 1671 1695 1672 1584 1630 1710 1621 1717 1630 1768 1679 1704 1697 1581 1678 1629 1633 1688 1666 1572 1633 1725 1681 1671 1686 1674 1640 1692 1654 1639 1718 1633 1655 1685 1606 1618 1687 1719 1613 1658 1630 1669 1605 1788 1711 1696 1724 1686 1686 1676 1704 1688 1664 1673 1627 1692 1668 1720 1686 1676 1666 1744 1723 1697 1666 1693 1681 1693 1680 1705 1657 1670 1606 1662 1695 1758 1663 1712 1688 1692 1680 1689 1675 1645 1606 1665 1707 1684 1619 1645 1681 1635 1649 1668 1720 1598 1711 1688 1760 1723 1693 1717 1613 1669 1612 1679 1696 1687 1656 1715 1631 1631 1700 1617 1714 1632 1673 1683 1663 1765 1679 1622 1680 1698 1619 1674 1640 1633 1663 1684 1661 1661 1672 1643 1635 1617 1637 1582 1582 1652 1686 1582 1643 1625 1593 1644 1691 1586 1645 1608 1563 1640 1580 1661 1589 1558 1585 1672 1627 1582 1632 1505 1608 1600 1595 1634 1624 1622 1563 1628 1630 1617 1696 1551 1620 1596 1591 1650 1576 1586 1500 1631 1635 1562 1551 1574 1537 1568 1611 1598 1586 1519 1549 1459 1555 1556 1491 1470 1497 1519 1528 1467 1494 1495 1548 1501 1480 1496 1508 1473 1447 1549 1385 1449 1470 1396 1444 1411 1419 1439 1476 1467 1502 1447 1431 1484 1450 1394 1457 1485 1471 1375 1460 1429 1383 1330 1425 1411 1427 1439 1438 1412 1449 1392 1457 1374 1438 1487 1424 1452 1391 1398 1487 1499 1398 1445 1391 1477 1496 1440 1402 1413 1407 1412 1373 1412 1387 1396 1432 1353 1370 1439 1450 1392 1376 1377 1425 1441 1477 1526 1477 1474 1457 1483 1542 1512 1560 1606 1619 1604 1620 1583 1700 1639 1688 1730 1699 1725 1656 1712 1667 1635 1680 1664 1634 1632 1532 1573 1530 1636 1543 1511 1486 1582 1495 1445 1393 1477 1389 1494 1402 1389 1390 1405 1387 1370 1371 1263 1406 1337 1359 1310 1362 1349 1318 1298 1322 1235 1245 1317 1311 1275 1353 1239 1253 1221 1238 1263 1204 1256 1283 1207 1292 1219 1246 1220 1234 1253 1271 1231 1217 1213 1176 1221 1206 1270 1163 1150 1314 1217 1190 1216 1177 1230 1264 1189 1264 1190 1181 1163 1179 1218 1236 1272 1233 1263 1245 1258 1247 1237 1255 1232 1275 1264 1265 1297 1291 1311 1365 1397 1465 1516 1491 1485 1610 1645 1693 1807 1832 1834 1985 1957 1975 1975 1957 1882 1882 1955 1961 1905 1897 1863 1777 1815 1711 1784 1678 1651 1611 1665 1538 1571 1462 1518 1444 1451 1338 1357 1365 1315 1347 1286 1267 1317 1322 1310 1271 1273 1333 1235 1347 1306 1448 1398 1428 1467 1624 1611 1650 1627 1820 1961 2071 2122 2206 2173 2170 2157 2107 2078 1954 2005 1991 1798 1780 1649 1612 1527 1478 1412 1415 1378 1331 1353 1203 1324 1249 1245 1135 1204 1170 1200 1165 1141 1074 1127 1095 1133 1121 1092 1063 1169 1097 1050 1159 1102 1116 1136 1079 1182 1183 1084 1076 1125 1163 1096 1095 1096 1039 1106 1063 1095 1126 1153 1184 1158 1154 1160 1229 1196 1207 1278 1319 1247 1302 1337 1362 1319 1297 1240 1308 1306 1309 1250 1222 1285 1266 1196 1181 1190 1221 1185 1137 1216 1133 1219 1099 1084 1124 1042 1123 1118 1057 1055 1019 1009 1079 1046 1063 987 987 1021 1029 1057 976 1035 997 1008 968 1036 1011 1016 962 1042 1055 1089 949 1022 998 969 995 1009 980 1043 998 989 981 963 975 975 978 903 965 967 1022 1045 1020 1032 999 975 1004 981 981 1016 952 1056 998 1055 1020 1020 1036 1017 981 1069 963 981 976 976 998 1049 1029 1048 1035 1060 1037 1009 1043 1024 1007 934 975 977 1005 962 1035 978 969 968 991 1005 1064 974 1071 1002 998 967 1031 1003 1005 1026 998 1088 1026 1103 1093 1064 1120 1064 1106 1068 1097 1083 1149 1190 1147 1131 1134 1198 1173 1149 1132 1232 1254 1288 1192 1326 1302 1286 1308 1364 1278 1408 1409 1436 1384 1374 1448 1354 1460 1291 1386 1350 1361 1349 1350 1389 1341 1293 1273 1233 1272 1193 1212 1267 1206 1217 1187 1229 1210 1118 1186 1201 1163 1147 1128 1128 1134 1081 1033 1133 1146 1041 1129 1156 1082 1119 1116 1106 1050 1090 1105 1118 1062 1118 1074 1000 1068 1044 1091 1088 1090 1048 1067 1077 1086 998 1095 1121 1102 1099 1089 1164 1092 1098 1106 1067 1104 1098 1071 1066 1047 1092 1069 1117 1098 1051 1108 1038 1031 1062 1114 1054 1110 1097 1111 1165 1112 1186 1127 1100 1177 1175 1141 1121 1168 1110 1061 1137 1106 1117 1124 1164 1115 1097 1083 1032 1051 1145 1090 1157 1092 1117 1101 1164 1069 1125 1138 1153 1131 1159 1138 1222 1117 1264 1171 1182 1297 1242 1257 1377 1424 1504 1467 1553 1691 1768 1843 1944 1959 2054 2139 2190 2201 2320 2313 2275 2302 2281 2238 2262 2251 2263 2211 2220 2075 2024 1997 1942 1846 1860 1818 1800 1754 1684 1664 1719 1693 1648 1570 1595 1552 1569 1597 1613 1599 1563 1505 1638 1595 1493 1620 1631 1462 1621 1600 1538 1598 1558 1617 1653 1655 1749 1756 1805 1913 1941 2005 2065 2150 2198 2206 2241 2426 2375 2475 2308 2362 2307 2298 2287 2252 2122 2131 2053 1999 1865 1770 1699 1749 1587 1545 1519 1505 1398 1366 1383 1298 1176 1230 1137 1096 1160 1067 1073 1038 1097 1012 999 1050 979 967 977 960 950 960 995 963 981 935 941 871 894 903 843 961 919 890 882 881 908 856 920 876 905 897 869 830 819 894 847 867 897 886 916 856 872 839 891 846 878 884 855 892 841 874 911 924 808 913 892 806 882 850 878 863 845 826 860 822 901 864 861 837 874 883 847 846 830 832 867 891 810 864 844 823 868 883 820 841 804 843 847 885 893 929 961 863 841 905 899 912 820 846 843 852 860 857 837 835 853 832 823 883 825 860 808 799 820 776 797 792 796 833 753 775 757 749 784 781 796 815 800 818 852 774 840 783 782 775 834 801 745 749 756 784 794 777 757 773 815 792 789 756 811 792 783 811 775 783 776 773 770 767 803 831 822 783 791 798 771 754 740 772 736 774 763 740 745 783 785 768 797 802 770 814 795 814 771 765 790 770 721 833 774 790 791 830 840 735 795 739 793 827 800 733 772 831 768 794 776 782 739 750 756 787 764 746 709 743 756 734 780 773 778 787 772 735 735 756 788 743 775 785 716 765 753 785 774 799 737 765 773 741 780 762 738 776 818 801 741 797 785 765 739 823 751 742 756 793 775 814 780 786 812 780 797 731 723 747 728 711 750 747 773 744 741 765 764 686 750 711 781 722 742 682 735 745 759 743 746 772 744 743 703 722 719 706 748 740 730 711 710 679 733 719 775 709 675 734 709 678 760 776 690 710 696 703 716 724 700 705 677 716 701 727 708 716 700 690 708 717 700 718 742 703 692 735 650 705 747 700 689 675 702 634 661 727 677 741 689 681 694 656 711 672 716 759 704 686 686 780 715 707 696 697 699 723 713 687 674 693 676 626 704 645 675 724 677 665 659 735 704 731 739 675 668 740 652 700 660 711 711 716 710 682 699 719 694 666 730 705 729 698 689 668 763 677 705 649 692 672 668 665 704 703 645 676 665 688 681 682 753 662 717 649 707 702 711 714 635 669 714 671 707 679 708 710 708 651 640 703 688 664 682 664 650 680 650 710 672 680 638 692 685 645 685 643 666 678 668 657 705 701 671 674 725 681 704 696 706 683 692 691 693 682 682 692 657 652 722 674 718 709 701 746 755 807 783 711 779 743 772 809 739 743 814 782 763 764 802 766 779 746 721 734 712 762 745 756 739 754 778 703 734 733 688 766 752 713 702 717 699 726 693 713 709 672 692 763 661 687 677 660 704 686 677 643 668 648 702 680 697 677 661 748 687 652 646 617 673 663 679 656 638 682 649 662 633 611 641 649 620 660 670 628 601 641 628 670 649 654 656 645 676 652 677 651 683 663 699 660 664 682 661 667 672 680 683 665 655 641 659 662 679 724 673 693 686 649 665 677 671 659 630 653 651 630 659 663 670 661 667 615 655 677 657 653 681 648 665 695 691 698 697 679 722 732 694 696 760 788 772 835 857 835 816 790 810 818 814 846 857 780 834 794 850 788 817 801 778 784 764 717 683 675 706 739 711 686 650 729 676 710 726 667 663 665 640 660 669 697 640 684 654 687 673 667 661 657 681 658 657 697 636 643 623 602 638 611 674 607 617 594 602 641 610 629 650 630 629 652 643 646 659 648 637 642 656 624 660 628 595 642 654 625 618 687 638 640 647 659 591 641 591 598 627 618 605 660 640 579 622 636 647 667 619 636 642 659 634 649 628 613 624 619 619 623 649 630 658 655 627 652 628 622 661 657 622 644 659 658 586 631 631 644 673 602 680 600 638 641 626 636 650 661 632 616 671 689 665 649 673 689 724 660 680 690 679 684 674 655 649 658 663 688 646 685 645 633 623 653 720 706 707 628 692 686 650 687 670 637 609 726 655 677 660 658 633 670 683 639 677 701 685 657 674 672 683 702 667 692 658 676 639 671 694 620 671 650 644 664 673 678 670 625 647 634 657 662 641 690 639 642 676 639 662 656 632 627 706 644 644 669 653 652 645 632 637 655 635 669 663 673 629 688 661 633 671 642 565 594 652 665 621 658 646 656 636 702 673 662 655 674 677 689 721 739 701 703 691 667 718 701 723 701 737 726 751 720 733 704 686 686 689 652 669 680 670 616 660 638 659 669 604 658 672 664 654 657 595 687 647 644 666 645 657 640 676 607 667 618 658 659 627 584 673 631 623 635 637 626 631 583 657 613 642 663 617 612 626 604 588 635 623 635 641 601 625 607 606 581 629 655 648 624 621 622 606 661 594 618 651 613 624 642 655 632 616 607 628 638 615 601 591 621 629 621 610 634 619 599 655 627 584 605 598 571 568 586 574 609 643 628 605 608 602 539 577 567 557 586 637 585 566 557 614 620 578 562 585 522 603 604 553 590 595 610 569 571 572 570 569 561 617 594 561 627 568 639 605 569 601 594 562 629 595 557 570 622 604 589 572 583 579 550 578 552 584 539 567 590 570 593 563 563 583 564 600 582 562 566 568 567 588 597 582 582 575 588 557 591 549 550 543 586 572 543 619 571 619 580 589 625 611 630 559 581 615 555 568 567 598 579 553 601 540 554 606 612 562 577 607 535 603 569 563 566 573 537 561 577 538 582 563 559 519 581 600 664 615 544 621 563 596 566 624 565 541 589 593 618 589 605 561 648 582 605 623 579 589 619 574 610 574 598 578 597 554 553 562 614 581 576 599 534 566 591 571 613 543 594 600 590 560 533 585 577 562 588 581 592 572 543 531 612 593 604 615 570 571 566 613 611 611 582 590 615 582 636 580 601 617 567 647 606 609 597 616 612 620 625 620 611 656 611 641 654 608 616 628 642 631 650 685 605 684 660 678 704 662 695 721 695 659 716 709 741 740 775 764 761 761 855 786 813 882 812 841 841 889 889 853 857 888 914 903 877 940 986 950 994 903 969 992 990 1095 1023 1087 1154 1215 1246 1229 1318 1304 1349 1391 1346 1377 1355 1319 1307 1345 1329 1309 1312 1275 1316 1213 1206 1262 1230 1171 1133 1068 1087 1022 950 972 940 899 908 913 838 882 805 825 730 782 749 740 754 720 714 713 713 669 686 675 684 650 685 683 666 683 651 660 699 672 672 645 671 655 668 691 668 660 647 656 617 614 598 639 591 615 625 614 662 644 614 688 591 644 616 708 705 700 711 731 763 745 818 843 815 878 884 912 979 919 950 952 969 958 980 985 1007 976 955 1016 960 906 973 889 936 904 892 847 824 794 854 746 764 708 749 693 671 643 702 687 665 634 687 659 639 618 638 659 643 613 587 658 619 641 630 644 610 629 609 591 538 585 593 569 562 624 585 593 575 619 589 589 600 573 528 580 552 552 583 543 571 566 557 560 542 564 602 574 541 549 515 506 513 534 524 562 547 532 591 561 504 516 547 527 533 597 557 525 561 571 589 569 522 573 588 537 579 589 598 583 517 540 555 550 568 538 528 548 540 568 565 599 544 538 591 618 594 654 613 614 590 608 606 608 599 595 599 595 659 650 625 644 648 639 605 608 670 621 599 605 619 610 622 593 654 599 551 571 595 551 584 576 586 546 617 588 565 547 589 561 546 547 530 529 585 538 525 543 564 514 563 567 517 522 529 550 557 514 565 499 551 513 518 525 578 506 553 528 498 545 556 545 526 547 499 515 554 540 558 545 569 535 553 514 563 559 521 512 523 578 521 554 556 526 495 535 534 525 567 526 535 564 512 550 524 569 510 546 523 475 526 460 516 492 543 517 497 542 541 510 523 504 512 497 548 526 550 490 566 565 496 524 524 540 521 534 492 476 492 545 549 524 543 529 555 520 474 540 506 558 525 452 529 495 497 490 511 530 503 499 539 491 497 501 529 486 536 445 515 480 533 492 519 481 492 464 496 533 487 569 532 511 486 483 504 534 532 541 493 523 536 523 515 545 515 488 535 531 481 499 490 500 498 516 494 507 509 519 487 505 517 531 540 546 508 523 515 470 507 489 504 488 492 482 459 465 500 522 498 510 463 487 534 499 490 521 522 488 511 505 481 490 483 504 487 506 542 465 499 455 519 454 467 438 497 483 503 487 502 460 467 444 494 461 502 461 511 478 480 464 494 481 530 482 483 471 515 524 489 523 501 511 474 513 492 474 483 487 515 514 483 502 520 480 495 519 495 489 523 501 552 518 533 527 528 545 536 549 523 496 501 520 515 524 519 526 512 504 535 532 504 523 519 503 511 518 545 489 507 494 523 467 467 484 445 539 486 488 461 500 466 474 492 526 490 473 480 474 511 434 466 453 484 467 505 527 447 494 435 464 476 499 481 474 432 464 452 450 469 492 475 492 480 471 451 493 474 459 479 491 510 464 459 490 473 523 494 460 484 454 458 492 457 469 468 467 427 451 454 462 476 444 443 514 466 478 435 435 461 477 466 468 464 493 519 451 465 463 415 480 429 447 465 431 481 472 462 492 491 439 451 491 455 442 469 465 494 437 436 425 478 471 488 473 469 491 495 434 472 476 487 474 477 480 504 481 489 479 457 470 472 508 475 447 481 499 483 471 516 471 451 460 497 470 424 480 482 463 502 492 494 472 451 472 456 482 474 509 466 462 458 491 449 478 456 497 482 464 444 470 452 466 458 467 488 507 459 472 456 488 435 451 468 479 448 460 479 456 457 456 467 472 440 498 449 465 461 491 481 403 464 492 463 441 464 462 482 459 462 468 461 482 439 485 462 480 499 449 489 469 468 508 484 453 507 510 474 523 500 455 470 493 487 500 510 461 511 491 490 459 490 483 508 487 473 461 475 464 481 495 480 515 471 447 463 460 470 423 525 503 490 518 470 463 494 474 461 488 455 453 470 446 436 449 470 490 487 436 451 460 475 486 509 489 446 534 504 483 507 476 519 512 464 500 522 540 489 483 528 528 501 501 452 543 519 492 490 465 485 524 527 470 512 497 474 454 445 475 451 527 508 503 444 465 475 490 475 482 462 452 447 456 481 471 469 451 430 460 456 479 461 520 448 529 457 470 446 494 456 486 507 452 466 486 457 478 486 452 479 469 466 476 448 486 462 460 480 443 481 494 471 487 542 485 487 478 485 464 458 514 465 439 446 452 483 498 496 452 493 489 452 510 488 481 533 498 500 532 548 535 518 563 550 530 587 610 582 560 598 611 611 602 631 641 621 587 602 665 650 577 588 579 598 592 560 593 507 585 490 545 513 562 532 541 549 511 530 484 495 521 486 475 489 490 448 427 434 449 490 462 473 466 417 488 462 530 407 460 461 428 453 455 460 424 451 449 448 443 446 434 426 441 471 458 443 477 436 470 467 424 459 432 456 468 471 482 456 487 379 436 482 450 451 498 450 466 410 410 450 465 472 494 454 450 453 468 466 439 419 460 429 505 448 469 464 450 411 444 455 412 454 478 424 404 432 427 469 517 465 462 475 467 431 488 456 496 438 456 451 462 470 437 454 448 472 425 467 451 479 505 501 501 464 481 502 573 564 595 589 593 605 603 591 603 585 595 596 575 589 569 578 588 560 610 593 658 621 637 557 574 573 562 513 522 536 527 531 519 491 528 488 516 495 532 498 472 479 471 489 499 479 437 464 463 458 461 457 465 455 432 493 506 473 440 426 440 455 423 476 432 468 465 432 442 457 490 473 460 472 438 445 427 481 428 473 450 471 458 451 446 472 470 472 465 427 447 451 488 463 417 460 466 461 464 483 419 467 457 423 430 437 465 477 432 419 412 433 443 453 441 457 471 463 453 486 457 450 469 498 516 489 490 509 474 543 522 490 559 480 522 476 479 504 475 493 502 448 461 485 471 502 488 458 473 465 476 444 438 452 474 490 486 447 467 415 460 461 461 455 455 403 439 469 449 479 434 419 441 435 395 434 431 430 438 445 418 425 491 446 439 423 480 460 456 451 427 417 437 458 438 464 412 447 455 429 461 419 447 414 466 419 428 451 471 464 465 457 445 488 449 463 443 471 419 434 455 436 459 438 461 446 430 483 444 439 416 453 430 402 400 427 410 437 446 401 423 417 458 451 438 440 409 428 397 406 443 377 414 428 468 372 453 397 416 369 404 386 399 395 437 437 430 401 405 432 423 410 444 439 432 389 479 434 438 458 442 411 445 445 438 423 417 482 455 486 412 428 441 442 469 461 408 451 433 453 441 414 409 422 416 477 461 443 421 442 474 407 429 390 452 424 453 391 424 409 421 394 414 414 422 414 430 394 393 429 374 395 401 395 422 425 414 454 415 442 405 419 385 397 420 383 443 386 394 398 427 379 412 399 417 435 424 418 435 389 397 434 422 457 415 414 405 430 391 416 418 404 363 451 397 422 401 392 418 416 421 448 394 506 409 382 385 444 385 413 397 436 400 422 411 396 406 404 447 413 399 418 403 420 413 405 409 420 412 391 381 432 417 426 392 386 395 411 441 424 400 377 380 387 405 428 391 375 419 390 390 377 401 372 407 378 354 390 401 415 368 391 391 434 391 389 412 426 400 406 397 424 422 382 416 442 386 409 381 410 376 398 371 376 350 419 389 406 356 388 363 401 372 382 403 423 424 341 395 385 391 374 379 409 363 399 405 413 393 390 385 417 394 374 375 413 396 458 393 384 354 370 364 430 391 423 372 350 412 404 380 395 367 394 396 376 391 385 392 393 436 395 418 389 382 420 373 387 368 425 361 369 422 387 430 407 388 375 367 406 390 396 356 446 375 385 412 366 382 388 379 405 396 384 397 391 398 390 379 418 404 402 376 392 367 396 389 400 378 357 354 404 378 377 366 383 385 384 393 394 352 398 393 407 380 395 420 392 391 421 398 385 368 402 391 403 332 397 378 402 388 408 369 398 411 379 369 423 401 386 394 396 375 445 367 431 399 382 401 389 359 429 398 396 389 410 376 415 415 421 421 395 396 385 380 377 376 366 366 381 400 420 409 412 375 395 431 398 399 365 404 395 394 413 380 411 402 389 386 394 419 429 401 417 434 385 392 348 392 400 391 373 388 364 390 396 403 395 409 400 418 379 397 413 418 426 397 391 393 373 408 383 368 430 382 411 411 403 403 412 409 381 414 427 420 370 445 407 390 389 411 388 405 409 396 417 379 404 412 397 377 388 353 409 386 393 423 426 384 435 363 419 415 422 432 386 399 362 433 390 440 381 427 405 407 370 384 396 418 388 396 409 427 374 367 417 367 405 434 358 384 384 360 422 376 382 377 404 400 371 379 417 402 405 368 400 425 392 387 425 349 410 386 415 377 397 411 389 390 409 408 368 381 413 365 372 359 403 367 362 402 363 377 355 402 361 370 385 395 378 407 378 382 368 340 396 403 394 358 404 415 408 409 409 330 382 366 387 379 379 440 373 379 406 389 419 386 398 351 390 363 368 427 381 390 397 403 403 393 367 380 360 380 370 375 380 379 394 370 376 367 389 375 414 357 372 390 385 380 397 381 354 421 368 407 363 384 385 389 393 409 400 402 408 411 362 375 378 371 364 409 375 396 358 393 385 371 386 397 359 363 340 355 366 395 382 368 410 337 377 363 357 394 403 393 370 363 377 377 381 370 359 382 354 363 366 402 397 402 383 368 377 385 373 354 371 376 360 374 411 389 391 406 375 402 387 391 333 379 379 367 390 383 406 362 352 353 412 384 401 355 378 367 357 387 368 374 396 403 392 359 378 384 349 387 399 401 396 356 362 394 371 355 408 365 444 400 372 350 392 416 368 404 396 434 426 431 412 394 372 396 420 400 415 403 446 391 427 402 400 404 413 395 390 424 408 439 402 397 410 417 408 405 373 388 375 388 402 390 368 381 392 360 378 391 415 390 373 342 368 406 376 419 405 404 388 369 382 405 367 412 375 399 382 400 396 403 388 367 360 376 375 373 366 408 356 379 388 414 372 372 379 361 391 351 430 385 408 388 370 383 399 417 376 396 419 358 405 384 409 368 412 413 428 394 385 387 411 366 394 374 361 372 409 406 341 390 402 362 399 378 355 366 392 398 401 403 358 366 423 390 365 362 411 373 375 368 407 389 413 345 404 380 405 405 405 372 426 415 390 399 400 381 388 385 375 373 410 370 409 378 409 412 413 407 381 419 394 402 435 449 443 368 394 381 394 392 420 386 395 416 389 419 396 373 408 381 403 398 403 395 399 387 374 409 398 379 387 380 380 350 363 368 382 411 354 377 395 396 424 366 377 389 414 386 354 387 385 372 394 387 384 359 389 383 359 389 386 344 400 407 361 362 406 381 368 403 389 384 345 363 361 400 375 368 346 364 376 338 342 375 385 357 362 370 361 368 374 395 388 349 369 333 373 406 373 369 438 367 380 366 348 372 385 378 361 426 357 341 405 377 372 348 389 365 351 346 364 345 352 385 391 361 362 343 362 365 362 389 386 365 343 365 346 391 360 404 361 334 390 362 363 369 379 335 395 377 346 332 390 369 391 375 336 347 370 378 350 372 369 346 368 365 349 349 389 370 373 363 396 366 352 321 352 321 367 367 382 363 402 365 357 371 353 365 378 399 388 368 354 385 375 344 369 363 377 352 399 359 378 399 378 366 347 318 328 345 371 355 375 354 372 325 438 348 396 350 371 350 387 342 386 360 374 371 389 385 374 358 360 363 378 358 331 378 353 363 372 343 363 380 375 396 343 353 338 394 369 364 326 360 369 338 356 366 385 386 374 387 428 366 377 408 375 394 363 359 358 363 383 368 363 371 390 332 412 384 364 358 400 330 416 378 396 413 360 365 369 399 358 365 357 342 349 400 369 356 383 377 392 363 375 367 369 392 347 362 345 366 370 359 405 369 356 372 401 352 356 348 355 357 386 350 404 369 382 381 402 362 396 346 400 355 385 357 347 396 380 378 384 365 403 338 364 378 384 358 347 380 356 382 384 352 357 372 355 385 358 356 356 359 379 399 371 391 382 376 396 392 395 372 404 360 411 381 375 362 357 367 337 373 349 393 367 378 395 310 418 374 406 376 351 381 364 400 347 380 346 393 368 383 352 360 391 378 396 407 420 394 389 404 410 353 410 391 397 376 390 414 393 380 404 388 378 354 408 382 354 374 365 379 409 374 388 397 344 390 377 392 370 375 416 364 407 394 392 381 380 428 374 394 368 380 363 358 347 427 359 406 362 403 382 368 401 392 412 387 371 372 379 389 378 379 406 373 375 397 406 404 388 398 423 351 406 386 426 384 371 417 383 416 417 441 373 412 356 405 417 420 400 405 371 407 389 384 433 414 406 437 378 425 409 409 422 428 379 425 423 348 372 397 365 355 377 417 359 381 389 367 378 379 368 378 398 367 382 387 402 403 437 408 376 417 365 391 408 376 431 396 394 407 386 373 392 403 349 402 400 379 414 391 392 387 373 377 364 389 394 417 408 379 408 372 387 370 390 362 362 377 389 374 414 413 382 373 397 422 391 414 381 430 346 388 401 390 366 389 393 404 385 362 412 363 454 347 381 374 381 421 391 363 401 350 364 387 391 432 369 386 402 394 436 398 375 400 391 394 387 398 387 421 354 376 363 386 366 361 408 386 421 388 369 415 380 418 380 388 437 381 371 375 400 398 379 364 349 345 367 399 395 433 411 375 409 415 398 370 418 388 399 399 431 423 418 429 390 398 411 380 386 394 355 404 397 447 407 397 367 385 407 388 455 343 399 449 413 427 393 428 419 404 392 406 459 430 417 404 389 420 395 421 427 438 393 440 426 417 442 411 423 464 383 436 405 402 403 414 429 409 443 418 414 389 418 441 416 412 441 424 411 375 409 424 371 438 397 388 430 426 399 429 419 395 404 389 424 406 424 405 422 406 453 390 435 406 478 410 398 414 427 413 429 458 450 459 434 427 426 434 464 440 438 474 390 420 408 463 442 425 420 453 439 384 470 430 427 452 438 407 478 434 433 429 424 430 417 419 432 406 394 398 404 403 435 400 448 438 424 419 414 433 412 446 412 441 378 411 393 418 380 419 383 409 413 442 415 423 438 381 434 403 420 405 436 436 389 391 415 420 392 380 396 446 421 419 383 426 386 404 427 369 397 387 421 448 417 405 379 392 343 359 394 378 421 371 364 356 403 392 389 370 425 395 437 413 383 376 390 390 409 385 366 398 337 417 390 385 367 386 412 397 403 390 367 369 418 412 383 382 392 348 362 380 442 383 392 378 421 378 373 386 374 393 406 424 372 366 398 345 401 413 380 417 396 382 400 379 358 397 393 424 375 416 421 394 384 391 406 419 409 419 432 441 435 415 402 428 473 437 445 424 424 432 412 426 421 430 413 432 466 464 412 424 379 405 415 407 419 439 396 416 385 395 374 413 391 408 393 416 391 380 382 412 403 411 414 382 390 390 388 388 356 418 378 377 415 391 421 375 404 350 358 359 371 364 354 380 406 388 373 380 373 359 350 363 389 344 363 397 355 387 335 398 344 350 348 345 374 374 417 384 388 396 373 350 369 377 409 410 362 384 368 373 333 364 393 365 326 372 364 371 385 387 384 376 393 348 333 373 418 386 372 374 376 372 379 355 386 359 398 369 382 363 370 372 341 410 356 338 373 357 388 350 365 356 392 393 343 362 361 358 346 389 353 382 386 401 368 352 366 358 373 387 393 378 360 380 321 404 401 344 368 342 374 362 352 326 361 391 335 392 383 381 350 376 366 394 365 382 369 338 351 384 362 414 380 433 340 343 352 322 385 348 349 375 366 368 404 319 383 372 320 370 379 353 356 370 372 346 399 344 370 369 360 386 369 345 357 366 382 362 395 404 378 403 341 356 354 351 380 385 378 398 333 350 340 328 368 350 396 331 377 359 366 328 377 369 344 362 368 385 340 348 384 341 380 355 322 365 336 368 351 361 375 348 377 371 341 361 356 313 361 369 368 365 378 382 353 324 398 350 393 375 306 350 344 393 332 351 383 354 364 356 398 395 371 382 344 347 345 342 398 332 379 363 356 356 378 347 418 368 381 392 378 337 349 352 363 371 378 359 378 320 324 353 379 350 351 378 367 369 399 377 363 376 348 363 352 346 369 368 363 386 356 322 351 366 367 308 376 358 343 370 354 339 361 349 368 327 364 369 365 380 360 341 347 353 354 370 376 345 351 370 357 347 339 360 357 326 373 351 357 364 353 400 350 367 359 361 324 389 359 320 315 378 341 351 379 362 364 363 363 375 337 358 326 334 324 367 357 376 345 346 365 350 357 349 341 367 345 339 320 326 363 337 354 384 368 324 357 361 358 324 377 340 379 327 376 343 368 334 331 351 341 357 369 358 370 341 351 347 372 376 349 312 375 347 305 335 325 352 340 355 359 364 347 373 346 346 329 334 350 352 351 341 356 342 402 370 338 378 360 372 386 347 339 322 350 351 378 332 323 343 360 357 329 364 380 348 357 362 356 354 375 350 334 378 353 349 403 344 367 348 344 366 338 377 342 376 339 379 344 366 373 391 361 368 370 364 354 350 358 376 317 380 343 336 354 361 368 329 366 349 330 375 350 376 314 359 358 341 354 346 329 342 345 318 362 352 370 347 372 373 355 358 349 362 334 347 334 317 350 339 339 369 358 363 334 380 346 382 388 343 325 383 385 395 396 383 337 365 399 331 372 364 370 362 377 369 341 326 343 357 351 383 332 333 367 336 338 307 357 366 384 367 339 359 374 334 345 363 325 359 400 339 335 345 375 336 352 339 356 310 375 372 353 331 370 381 365 357 369 383 376 362 331 341 374 359 358 327 336 345 348 378 311 369 396 323 358 337 323 369 358 352 368 297 328 344 335 373 378 372 372 336 328 401 321 355 353 327 377 414 369 360 380 349 366 345 372 360 378 387 409 339 395 333 377 355 362 376 318 380 356 363 343 369 358 381 378 373 387 374 380 405 389 361 349 394 338 377 381 391 403 411 405 421 420 414 397 359 356 373 396 385 399 368 396 344 397 388 408 389 385 393 366 378 409 374 418 384 391 386 407 413 372 367 358 400 377 365 355 367 383 369 394 394 358 371 401 339 398 342 375 376 391 333 341 361 368 371 363 354 346 337 364 363 353 366 364 351 383 351 367 342 354 346 349 347 368 365 352 381 362 351 392 363 357 343 335 365 349 374 346 338 347 359 332 386 371 369 352 339 341 378 363 373 360 350 357 354 355 346 353 379 365 325 402 371 364 331 340 371 331 376 331 337 376 354 346 335 352 353 352 342 349 356 348 350 355 360 373 331 338 336 324 351 352 350 328 337 345 360 338 330 314 334 360 374 339 359 380 338 374 362 345 326 356 336 343 340 338 341 328 387 350 342 338 350 359 322 370 305 343 359 364 329 386 352 325 336 342 344 344 345 300 353 369 346 348 384 323 354 358 319 379 322 389 355 342 373 362 393 326 366 383 339 349 379 366 341 356 362 372 380 378 366 379 384 415 338 359 373 383 400 373 343 361 349 379 383 351 371 350 401 363 368 357 394 371 364 342 373 378 376 336 342 360 314 350 345 376 353 316 342 344 330 337 332 349 391 350 347 320 349 338 349 388 353 352 361 343 367 327 342 375 363 351 334 347 335 316 355 334 348 346 341 337 341 348 360 352 342 315 340 330 327 328 379 326 332 338 362 338 331 344 327 340 333 369 350 359 337 321 375 298 343 315 353 355 337 313 330 306 332 343 361 310 322 340 380 343 340 334 318 357 351 352 349 344 321 349 319 333 317 320 330 341 309 344 324 313 353 330 357 358 329 351 332 365 354 337 351 354 308 364 320 346 333 340 300 299 332 340 336 317 332 350 337 337 328 357 316 341 334 365 309 342 326 307 350 340 347 389 326 318 325 327 340 324 329 332 339 374 362 356 346 322 323 330 342 375 316 358 312 351 341 347 342 354 363 337 338 345 360 340 329 342 373 318 331 339 321 355 361 352 368 315 335 329 330 303 317 329 380 347 332 341 391 311 316 339 341 308 337 323 341 356 333 401 338 337 323 345 349 340 344 331 324 320 354 312 355 335 310 354 308 372 355 371 329 315 360 348 331 341 315 328 353 327 306 315 344 358 350 370 318 345 361 302 351 339 359 352 337 363 330 323 342 334 328 318 330 322 310 343 334 306 356 339 348 343 335 329 314 324 346 335 370 361 345 340 343 333 356 348 321 307 337 305 347 344 358 318 331 336 358 363 320 344 340 365 336 339 359 350 367 334 325 324 346 324 344 342 365 342 357 309 343 381 346 341 297 337 332 348 354 341 314 333 310 344 331 343 333 325 348 330 352 329 338 322 335 344 324 356 351 341 339 352 314 327 320 331 341 358 385 328 345 331 332 361 327 334 322 320 341 327 361 324 371 356 347 356 398 353 303 314 352 307 362 317 342 341 333 334 331 377 330 343 319 333 340 350 354 365 335 353 348 354 328 355 345 325 359 347 341 349 362 361 319 357 337 334 323 359 350 308 317 345 326 335 360 369 326 339 358 346 352 316 315 317 348 327 346 361 331 355 347 340 350 346 309 327 322 325 354 340 341 361 321 333 339 332 336 327 325 340 344 357 321 300 333 375 351 338 324 340 316 334 353 298 335 334 364 374 339 342 326 353 388 351 371 323 329 342 344 352 374</counts>
			</dataPoints>
		</scan>
	</xrdMeasurement>
</xrdMeasurements>
