<?xml version="1.0"?>
<xrdMeasurements xmlns="http://www.xrdml.com/XRDMeasurement/2.3" xmlns:xsi="http://www.w3.org/2001/XMLSchema-instance" xsi:schemaLocation="http://www.xrdml.com/XRDMeasurement/2.3 http://www.xrdml.com/XRDMeasurement/2.3/XRDMeasurement.xsd" status="Completed" recordIdentifier="{77B1334A-9286-4DFF-B621-60B380AFDC16}">
	<comment>
		<entry/>
	</comment>
	<sample type="To be analyzed">
		<id>GPSS_Li1p6Mg0p6Y0p4Cl4_111725_691b7e20f3837ac4a0a99378</id>
		<name></name>
		<preparedBy></preparedBy>
	</sample>
	<xrdMeasurement measurementType="Scan" status="Completed" sampleMode="Reflection">
		<usedWavelength intended="K-Alpha 1">
			<kAlpha1 unit="Angstrom">1.5405980</kAlpha1>
			<kAlpha2 unit="Angstrom">1.5444260</kAlpha2>
			<kBeta unit="Angstrom">1.3922500</kBeta>
			<ratioKAlpha2KAlpha1>0.5000</ratioKAlpha2KAlpha1>
		</usedWavelength>
		<incidentBeamPath>
			<radius unit="mm">145.00</radius>
			<xRayTube id="1010048" name="Empyrean Cu LFF HR (9430 033 7310x)">
				<tension unit="kV">40.0</tension>
				<current unit="mA">15.0</current>
				<anodeMaterial>Cu</anodeMaterial>
				<focus type="Line">
					<length unit="mm">12.0</length>
					<width unit="mm">0.4</width>
					<takeOffAngle unit="deg">6.0</takeOffAngle>
				</focus>
			</xRayTube>
			<sollerSlit id="21010002" name="Soller slits 0.04 rad.">
				<opening unit="rad">0.0400</opening>
			</sollerSlit>
			<mask id="22031000" name="Fixed mask 13 mm">
				<width unit="mm">9.00</width>
			</mask>
			<divergenceSlit id="22120001" name="Divergence slit 1°" xsi:type="fixedDivergenceSlitType">
				<distanceToSample unit="mm">50.00</distanceToSample>
				<height unit="mm">1.52</height>
			</divergenceSlit>
		</incidentBeamPath>
		<sampleMovement xsi:type="spinningSampleMovementType">
			<spinnerRevolutionTime unit="seconds">1.0</spinnerRevolutionTime>
		</sampleMovement>
		<diffractedBeamPath>
			<radius unit="mm">145.00</radius>
			<antiScatterSlit id="22090040" name="AS slit 9 mm (PIXcel)" xsi:type="fixedAntiScatterSlitType">
				<height unit="mm">9.00</height>
			</antiScatterSlit>
			<sollerSlit id="21020003" name="Large Soller slits 0.04 rad.">
				<opening unit="rad">0.0400</opening>
			</sollerSlit>
			<filter id="20030001" name="Large beta-filter Nickel">
				<material>Ni</material>
				<thickness unit="mm">0.020</thickness>
			</filter>
			<detector id="7010019" name="PIXcel1D-Medipix3 detector" xsi:type="rtmsDetectorType">
				<phd unit="keV">
					<lowerLevel>4.02</lowerLevel>
					<upperLevel>11.27</upperLevel>
				</phd>
				<mode>Scanning</mode>
				<activeLength unit="deg">5.542</activeLength>
			</detector>
		</diffractedBeamPath>
		<scan appendNumber="0" mode="Continuous" scanAxis="Gonio" status="Completed">
			<header>
				<startTimeStamp>2025-11-20T13:08:23-08:00</startTimeStamp>
				<endTimeStamp>2025-11-20T13:16:30-08:00</endTimeStamp>
				<author>
					<name>AutomatedUser</name>
				</author>
				<source>
					<applicationSoftware version="1.7b (136)">PANalytical Aeris Instrument Suite</applicationSoftware>
					<instrumentControlSoftware version="3.2.00000000 20240306">AERIS</instrumentControlSoftware>
					<instrumentID>950485</instrumentID>
				</source>
			</header>
			<dataPoints>
				<positions axis="2Theta" unit="deg">
					<startPosition>10.00943322</startPosition>
					<endPosition>99.99442286</endPosition>
				</positions>
				<positions axis="Omega" unit="deg">
					<startPosition>5.00471661</startPosition>
					<endPosition>49.99721143</endPosition>
				</positions>
				<commonCountingTime unit="seconds">12.495</commonCountingTime>
				<counts unit="counts">3335 3329 3361 3331 3259 3311 3330 3368 3418 3389 3453 3403 3531 3391 3325 3328 3436 3360 3444 3430 3485 3436 3456 3502 3465 3483 3462 3481 3451 3334 3366 3479 3442 3422 3471 3460 3589 3424 3525 3493 3446 3525 3501 3517 3502 3517 3669 3496 3633 3586 3448 3469 3508 3604 3498 3522 3553 3573 3733 3541 3486 3636 3622 3595 3711 3643 3607 3615 3552 3798 3701 3686 3742 3660 3674 3637 3749 3734 3726 3611 3797 3711 3638 3546 3684 3650 3687 3801 3807 3770 3792 3756 3692 3911 3775 3774 3789 3769 3820 3786 3806 3892 3732 3896 3795 3773 3880 3881 3877 3852 3861 3835 3903 3796 3865 3794 3902 3937 3816 3952 3731 3959 3955 3879 4009 3899 4035 3985 4095 3971 4097 3824 4041 3836 3959 3989 4015 3927 4098 4087 3981 4075 3948 3896 4041 4092 4056 4045 3951 4147 4045 4029 3911 3926 3939 3895 3960 3964 4014 3902 4005 4142 4019 4056 4010 3962 3998 4011 3963 4085 3937 4093 4111 3876 3948 3945 3928 4122 3928 3894 3932 3891 4015 3961 4043 4018 3910 3948 3951 4055 4019 3930 3941 3867 4048 4032 3962 3999 3947 4012 3913 4072 3932 3981 3859 3940 3969 4002 3820 3862 3882 3866 3884 4006 3884 3950 3835 3979 3789 3995 4018 3958 3839 3917 3783 3847 3926 3899 3784 3927 3803 3775 3819 3844 3877 3765 3804 3846 3774 3707 3642 3770 3725 3807 3677 3767 3724 3763 3762 3783 3732 3766 3726 3842 3750 3867 3715 3674 3681 3788 3621 3637 3835 3662 3680 3551 3755 3695 3682 3756 3610 3642 3804 3684 3771 3740 3606 3653 3756 3662 3502 3805 3660 3705 3817 3786 3733 3668 3623 3746 3798 3608 3652 3706 3744 3691 3547 3636 3663 3587 3639 3674 3675 3788 3710 3640 3708 3712 3646 3658 3600 3701 3728 3706 3701 3644 3698 3666 3674 3738 3620 3666 3753 3809 3815 3787 3774 3703 3686 3666 3706 3645 3732 3663 3624 3741 3725 3690 3795 3702 3710 3882 3707 3772 3709 3669 3797 3721 3742 3757 3884 3808 3654 3720 3823 3843 3820 3772 3836 3838 3830 3799 3784 3848 3789 3716 3836 3811 3781 3829 3800 3845 3840 3899 3800 3938 3877 3925 3870 3773 3824 3784 3799 3954 3844 3971 3811 3857 3913 3902 3927 3977 3892 3811 3821 3904 3940 3954 3944 4043 3862 3997 3916 3972 4033 4070 4005 3954 4042 4172 4070 4159 4120 4244 4260 4218 4387 4371 4508 4425 4530 4520 4665 4745 4728 4798 4757 4872 4789 4767 4820 4662 4922 4890 4735 4778 4729 4803 4613 4560 4565 4441 4427 4439 4341 4156 4104 4036 4126 4003 3983 3952 4076 3882 3956 3925 3989 3903 3877 3719 3790 3793 3774 3790 3772 3763 3777 3868 3734 3738 3818 3771 3776 3809 3646 3796 3747 3783 3611 3597 3706 3601 3610 3869 3746 3655 3688 3639 3671 3644 3695 3779 3620 3648 3703 3700 3608 3726 3800 3663 3629 3722 3701 3687 3810 3678 3734 3770 3916 3805 3889 3881 3976 3930 4148 4128 4143 4270 4301 4321 4495 4572 4663 4675 4650 4948 4900 4967 4945 4950 5129 5118 5116 5180 5164 5309 5370 5213 5207 5142 5084 4960 4788 4659 4595 4505 4318 4227 4155 3919 3774 3789 3679 3559 3512 3629 3523 3564 3522 3418 3441 3455 3299 3422 3319 3361 3393 3224 3301 3287 3328 3341 3216 3368 3330 3349 3381 3303 3250 3368 3241 3249 3219 3231 3246 3290 3302 3273 3312 3235 3193 3184 3166 3243 3185 3152 3162 3288 3352 3246 3134 3121 3156 3277 3174 3166 3101 3260 3056 3258 3086 3149 3108 3168 3286 3087 3262 3361 3237 3310 3214 3222 3108 3167 3216 3220 3178 3200 3273 3320 3270 3153 3249 3176 3278 3264 3306 3295 3432 3267 3301 3376 3406 3350 3483 3590 3509 3554 3648 3738 3813 3934 3949 4118 4221 4375 4378 4516 4654 4810 4923 5049 5085 5246 5308 5350 5355 5301 5358 5481 5453 5590 5491 5604 5482 5356 5479 5333 5187 5030 4831 4540 4400 4291 3994 3895 3768 3774 3499 3380 3405 3290 3347 3296 3257 3158 3180 3216 3150 3249 3135 3182 3130 3143 3144 3133 2992 3039 3084 3069 3053 2971 3135 3035 3072 3050 2980 3076 2915 3076 3061 2943 3021 2987 3008 3013 3086 2929 2967 2980 2964 3049 2978 3126 2998 3048 2943 2843 2950 3093 3000 2970 2987 2984 2952 3092 3070 2839 2926 2925 2943 2987 2943 2919 3042 2942 2877 2991 2905 2976 2942 2943 2950 2849 2903 2917 2941 2907 3023 2908 2848 2994 2798 3032 2929 2877 2964 2885 2802 2966 2871 2959 2965 2990 2910 2916 2774 2885 2859 2930 2920 2878 2859 2734 2886 2900 2912 2984 2868 2836 2869 2851 2993 2889 2886 2924 2866 2890 2882 2958 2943 2829 2892 2846 2866 2813 2823 2930 2935 2918 2856 2981 2788 2852 2947 2785 2933 2801 2892 2913 2841 2769 2783 2862 2784 2843 2775 2852 2795 2781 2745 2793 2810 2811 2808 2822 2707 2779 2840 2844 2770 2794 2724 2873 2691 2766 2809 2744 2838 2838 2733 2752 2858 2795 2749 2706 2724 2799 2737 2726 2682 2749 2631 2705 2656 2773 2707 2768 2717 2649 2772 2731 2744 2665 2702 2752 2706 2714 2689 2554 2627 2753 2658 2740 2751 2648 2693 2644 2739 2604 2657 2695 2654 2720 2728 2739 2658 2636 2659 2617 2693 2518 2682 2598 2608 2587 2619 2642 2642 2672 2769 2594 2647 2792 2531 2599 2609 2596 2655 2596 2632 2561 2742 2592 2655 2615 2667 2714 2627 2599 2660 2711 2613 2574 2576 2576 2577 2594 2663 2545 2674 2562 2652 2644 2595 2560 2574 2634 2601 2455 2597 2674 2544 2554 2562 2570 2636 2612 2626 2573 2554 2610 2555 2538 2484 2565 2492 2611 2615 2702 2656 2552 2708 2618 2525 2515 2589 2552 2579 2656 2503 2562 2504 2593 2533 2525 2579 2566 2511 2553 2560 2557 2534 2615 2664 2584 2557 2528 2637 2570 2470 2620 2665 2562 2490 2642 2503 2641 2531 2535 2569 2536 2626 2589 2564 2557 2581 2609 2658 2610 2654 2709 2599 2577 2515 2656 2570 2643 2607 2593 2635 2544 2622 2642 2530 2586 2782 2555 2622 2644 2692 2603 2647 2707 2677 2748 2669 2814 2762 2768 2811 2750 2794 3021 2869 2864 2788 2792 2806 2901 2866 2891 2895 2770 2779 2910 2836 2825 2736 2756 2772 2814 2743 2632 2602 2715 2634 2671 2599 2624 2602 2574 2527 2555 2635 2525 2522 2571 2482 2496 2476 2547 2483 2551 2486 2539 2397 2538 2501 2468 2397 2494 2439 2499 2483 2432 2478 2479 2510 2613 2503 2427 2505 2478 2463 2422 2442 2491 2421 2434 2411 2399 2343 2490 2409 2370 2330 2388 2376 2358 2349 2450 2353 2505 2347 2374 2540 2400 2357 2314 2353 2352 2437 2395 2321 2354 2360 2412 2390 2428 2290 2400 2386 2406 2400 2360 2365 2303 2309 2299 2355 2224 2319 2229 2326 2275 2284 2328 2320 2258 2261 2268 2229 2303 2275 2298 2240 2332 2241 2227 2270 2259 2271 2245 2338 2237 2172 2208 2203 2222 2199 2251 2227 2164 2224 2256 2192 2248 2237 2306 2255 2287 2181 2253 2224 2237 2221 2337 2298 2305 2332 2392 2378 2401 2588 2644 2695 2744 2723 2838 2930 2993 3063 3135 3295 3285 3337 3297 3250 3272 3289 3255 3392 3345 3310 3364 3233 3247 3188 3148 3159 3064 2919 2776 2833 2612 2556 2390 2425 2363 2405 2292 2244 2097 2123 2203 2049 2015 2100 1996 2040 1969 2030 2044 1979 1918 2022 1914 1941 1984 2005 1961 2039 1972 1976 1850 1943 1964 1912 1943 1951 1891 1969 1887 1987 1881 1990 1886 1953 1881 1918 1853 1861 1971 1878 1889 1870 1859 1850 1849 1962 1929 1813 1887 1818 1783 1831 1851 1887 1863 1815 1868 1889 1913 1867 1846 1785 1881 1883 1778 1878 1881 1909 1773 1902 1856 1849 1855 1796 1811 1813 1856 1896 1865 1793 1825 1738 1770 1848 1791 1832 1845 1847 1865 1818 1835 1828 1807 1779 1788 1845 1780 1800 1826 1769 1816 1802 1946 1831 1867 1804 1812 1901 1726 1786 1802 1870 1801 1899 1773 1845 1841 1803 1984 1803 1858 1782 1863 1838 1882 1902 1867 1820 1774 1790 1925 1868 1813 1872 1825 1866 1859 1819 1800 1865 1762 1795 1870 1786 1833 1864 1829 1930 1798 1839 1803 1829 1823 1888 1811 1819 1836 1816 1819 1833 1785 1762 1870 1873 1864 1872 1807 1876 1840 1865 1909 1838 1868 1813 1894 1798 1880 1877 1836 1871 1811 1904 1775 1760 1831 1816 1953 1846 1843 1901 1871 1861 1839 1908 1867 1915 1814 1756 1824 1776 1863 1859 1771 1875 1822 1908 1836 1816 1800 1832 1866 1852 1803 1755 1774 1860 1821 1764 1823 1766 1838 1837 1775 1845 1813 1832 1763 1836 1808 1822 1839 1799 1886 1770 1818 1764 1802 1840 1816 1742 1831 1827 1734 1762 1730 1772 1761 1815 1772 1829 1853 1871 1844 1796 1779 1745 1818 1616 1813 1751 1726 1731 1817 1763 1798 1813 1848 1758 1790 1753 1727 1821 1767 1788 1737 1846 1693 1706 1754 1681 1713 1625 1656 1607 1764 1698 1655 1718 1720 1590 1654 1712 1639 1765 1726 1707 1662 1739 1670 1662 1661 1598 1695 1682 1723 1624 1583 1633 1606 1586 1636 1634 1593 1631 1661 1601 1692 1539 1620 1647 1614 1618 1595 1598 1601 1648 1627 1589 1668 1621 1609 1640 1606 1609 1566 1581 1601 1634 1570 1576 1628 1587 1613 1613 1580 1568 1583 1655 1609 1687 1567 1515 1597 1595 1610 1526 1603 1629 1605 1666 1482 1570 1488 1590 1571 1587 1582 1603 1613 1567 1627 1588 1589 1629 1603 1581 1538 1575 1613 1567 1612 1556 1581 1606 1649 1685 1604 1599 1543 1594 1586 1564 1602 1600 1556 1596 1674 1617 1583 1634 1629 1654 1628 1594 1692 1610 1616 1644 1753 1790 1827 1942 2018 1966 2056 2210 2171 2216 2364 2313 2391 2625 2592 2581 2734 2853 2846 2803 2821 2860 2875 2896 2838 2795 2849 2751 2721 2681 2638 2631 2555 2529 2303 2268 2238 2146 2032 1993 2003 1797 1742 1660 1648 1623 1609 1552 1561 1585 1483 1482 1538 1401 1533 1480 1578 1471 1520 1448 1520 1362 1418 1464 1497 1412 1467 1466 1466 1375 1395 1465 1470 1393 1403 1441 1463 1413 1415 1484 1411 1410 1405 1385 1430 1418 1405 1430 1465 1437 1424 1444 1467 1500 1462 1478 1528 1489 1479 1395 1532 1532 1540 1606 1527 1625 1701 1753 1933 1964 2012 2123 2325 2412 2579 2790 2904 3191 3531 3913 4070 4522 4758 5053 5431 5699 5937 6008 6383 6177 6530 6412 6397 6621 6552 6553 6298 6233 6073 5812 5453 5182 4967 4474 4338 3932 3725 3375 2959 2799 2576 2348 2097 2094 1839 1766 1721 1667 1633 1550 1486 1436 1525 1470 1450 1524 1425 1398 1419 1384 1379 1399 1372 1419 1321 1332 1352 1380 1364 1378 1370 1341 1321 1388 1298 1287 1317 1249 1348 1326 1312 1324 1280 1264 1310 1299 1267 1279 1299 1257 1338 1331 1351 1277 1227 1277 1353 1254 1297 1260 1259 1316 1263 1291 1226 1324 1344 1233 1307 1277 1240 1275 1246 1260 1260 1251 1249 1274 1318 1334 1315 1243 1307 1279 1299 1327 1343 1290 1282 1349 1465 1323 1441 1339 1450 1278 1383 1276 1330 1381 1328 1465 1429 1423 1437 1475 1479 1469 1454 1482 1504 1538 1546 1593 1688 1718 1776 2020 2071 2167 2337 2569 2729 2985 3289 3712 4021 4330 4818 5269 5802 6238 6716 6998 7064 7559 7744 7826 8000 8105 7968 7981 8062 8174 7959 8014 7782 7762 7519 6888 6577 6365 6005 5563 5125 4718 4372 3904 3602 3381 2977 2670 2344 2219 2082 1914 1772 1807 1665 1647 1559 1606 1568 1492 1477 1462 1523 1512 1585 1587 1588 1531 1684 1817 1709 1772 1805 1819 1855 1830 1878 1855 1864 1880 1923 1808 1904 1789 1841 1794 1766 1811 1759 1679 1683 1529 1532 1520 1507 1451 1451 1420 1393 1268 1271 1232 1160 1223 1145 1149 1205 1208 1211 1099 1173 1190 1126 1190 1150 1111 1127 1098 1138 1129 1186 1149 1186 1152 1163 1117 1145 1148 1172 1188 1121 1142 1105 1151 1144 1133 1117 1137 1078 1161 1176 1146 1098 1091 1114 1156 1162 1141 1154 1095 1122 1104 1110 1114 1154 1114 1085 1102 1183 1196 1129 1146 1103 1134 1123 1094 1090 1040 1112 1153 1140 1140 1172 1105 1091 1040 1044 1142 1071 1058 1134 1087 1105 1098 1098 1117 1101 1112 1094 1126 1071 1104 1109 1088 1126 1058 1104 1125 1060 1045 1093 1133 1143 1069 1131 1090 1144 1190 1101 1111 1116 1044 1086 1112 1108 1178 1134 1165 1182 1219 1172 1283 1330 1338 1395 1422 1418 1487 1546 1525 1698 1726 1849 1789 1941 2003 1972 2065 2205 2160 2191 2188 2218 2163 2230 2216 2291 2181 2162 2230 2231 2070 2061 1925 1921 1916 1850 1697 1739 1687 1630 1502 1519 1447 1386 1416 1266 1402 1298 1317 1281 1305 1313 1360 1353 1449 1415 1469 1575 1608 1733 1798 1973 2179 2194 2557 2654 2894 3087 3651 3972 4248 4645 5121 5371 5691 5846 6073 5868 6123 5918 5893 5908 5816 5841 5755 5528 5431 5320 5083 4758 4650 4412 4165 3912 3718 3418 3145 2908 2739 2624 2396 2096 2036 1840 1673 1672 1620 1522 1466 1386 1317 1304 1213 1265 1262 1206 1223 1228 1190 1135 1163 1133 1128 1083 1116 1132 1134 1117 1098 1136 1141 1123 1177 1058 1099 1126 1166 1092 1119 1158 1099 1112 1150 1063 1161 1081 1095 1102 1112 1072 1102 1124 1161 1121 1132 1189 1154 1178 1142 1175 1142 1125 1165 1092 1229 1224 1243 1175 1206 1180 1211 1178 1243 1198 1207 1246 1242 1158 1173 1142 1159 1160 1159 1077 1106 1126 1162 1113 1084 1089 1061 1125 1102 1051 1088 1061 1070 1113 1150 1111 1032 1124 1020 1027 1063 1042 1025 1053 1058 1023 1048 991 938 1007 1032 1053 1016 1096 997 1076 959 998 980 955 1035 982 1006 999 1008 964 1047 991 988 962 942 964 971 1000 983 988 930 958 981 961 1036 1045 981 1001 982 1018 1046 1009 991 981 983 1072 1027 1013 1072 1019 1029 1139 1092 1108 1133 1147 1226 1158 1193 1270 1392 1446 1519 1570 1592 1610 1759 1647 1799 1634 1663 1780 1777 1720 1867 1752 1819 1685 1733 1709 1691 1583 1630 1551 1489 1464 1446 1301 1299 1228 1200 1209 1128 1072 1131 1072 1052 1009 1025 1005 975 954 1009 960 932 977 1016 968 982 930 926 989 933 984 996 916 984 949 967 951 934 948 907 944 918 916 910 893 904 947 974 974 913 923 927 953 896 996 955 898 917 933 893 872 918 852 924 902 1010 876 936 944 936 936 911 914 913 892 886 946 917 938 926 949 880 908 877 931 934 932 851 916 927 882 829 898 936 879 867 938 832 845 869 914 821 911 882 861 868 956 898 903 935 888 930 888 878 860 872 907 869 799 926 881 912 923 902 850 907 856 832 912 873 863 934 891 893 881 872 923 870 822 895 834 847 894 879 876 846 890 859 892 934 864 839 893 815 880 901 830 882 892 935 918 890 825 909 858 842 961 881 897 854 879 907 859 874 848 842 911 842 860 872 895 947 896 873 872 905 833 925 919 870 902 909 888 798 950 867 873 851 852 748 853 858 844 831 847 830 854 871 884 835 815 775 845 807 824 825 809 843 828 872 892 881 873 836 874 807 861 831 806 824 815 833 922 875 870 865 787 837 859 844 844 803 849 812 814 841 834 847 867 843 807 853 919 846 870 817 813 866 845 786 830 771 850 850 833 873 818 856 863 848 820 899 869 841 870 897 834 856 901 813 815 783 808 876 869 833 863 869 817 892 850 833 867 878 878 873 895 899 898 945 945 923 932 1024 1020 987 1078 1023 1025 1041 1037 1024 1096 1071 1060 1060 1033 981 1051 965 996 1086 973 1002 924 996 937 894 911 988 888 947 927 912 887 848 923 857 820 880 827 901 927 834 937 897 933 858 865 924 907 922 917 925 917 1002 997 989 956 986 1044 1087 1073 1120 1244 1222 1226 1316 1386 1591 1545 1750 1904 2023 2209 2364 2578 2856 3187 3251 3534 3677 4002 4099 4315 4391 4248 4450 4529 4416 4464 4471 4478 4335 4376 4379 4232 4072 3772 3623 3463 3275 3027 2860 2610 2424 2363 2218 1989 1960 1788 1652 1508 1377 1300 1303 1127 1084 1107 1080 993 1009 1009 920 947 945 912 907 938 922 908 932 902 860 859 813 852 845 841 861 874 813 881 841 816 816 770 811 865 852 824 822 855 891 821 806 749 804 763 773 792 840 780 850 807 802 842 807 744 850 847 820 800 802 873 749 828 824 766 820 767 795 890 799 857 800 780 801 792 834 770 867 820 798 862 771 831 810 795 860 814 839 781 827 807 766 862 777 803 758 815 838 792 829 814 775 797 759 823 848 817 784 822 778 778 821 868 786 857 857 819 840 858 810 869 887 898 820 902 906 1003 959 1019 1074 1096 1139 1150 1182 1243 1205 1261 1243 1271 1306 1331 1301 1256 1274 1321 1366 1351 1304 1278 1259 1223 1217 1169 1125 1129 1125 1007 1048 990 995 1018 935 899 872 887 845 909 848 817 839 832 809 819 860 816 782 880 889 863 935 875 930 986 991 1026 1035 1121 1164 1132 1167 1262 1290 1317 1329 1360 1392 1400 1353 1331 1370 1379 1395 1329 1429 1392 1382 1354 1359 1319 1246 1137 1171 1159 1106 1046 1040 1004 1025 944 911 938 953 883 868 847 815 846 835 817 760 787 804 888 783 784 773 813 813 801 766 795 796 819 856 788 767 782 784 800 788 813 841 855 865 890 860 905 861 954 916 1013 1016 1019 1068 1168 1048 1108 1099 1080 1115 1090 1181 1133 1121 1158 1064 1072 1086 1067 1049 1084 1028 986 928 1045 990 987 905 895 886 919 879 907 861 835 856 838 783 737 789 774 791 781 725 747 799 797 797 753 775 772 783 762 736 763 806 829 761 762 760 783 789 773 820 783 753 781 774 834 774 775 788 715 781 830 804 797 805 776 803 796 845 771 898 908 897 823 870 913 976 967 910 1013 922 989 1048 1082 1121 1081 1115 1166 1153 1154 1259 1213 1245 1229 1212 1124 1185 1158 1193 1228 1207 1217 1156 1212 1125 1060 1030 1059 1065 1016 1047 993 946 948 957 948 984 947 931 852 877 875 902 830 860 867 811 822 772 778 767 731 827 778 823 731 765 748 751 818 774 754 747 803 771 794 743 755 724 768 777 814 767 768 771 785 727 752 704 751 739 700 797 805 778 745 772 824 812 770 769 857 829 840 829 834 825 872 835 853 828 795 811 863 795 838 791 845 839 815 808 824 758 830 740 789 758 796 735 747 722 756 748 756 739 741 737 732 717 748 703 678 710 703 718 742 701 787 697 764 732 694 767 738 690 713 694 735 747 717 720 692 708 682 738 681 740 732 673 759 737 703 699 726 714 735 675 679 736 720 680 750 661 735 736 685 719 658 733 730 712 711 724 665 662 732 735 696 695 673 678 706 719 668 756 683 687 677 796 745 698 710 737 767 715 760 754 672 709 737 734 695 718 704 688 695 692 757 727 767 714 725 750 722 657 705 733 746 722 691 741 738 709 756 745 731 715 738 696 786 719 715 702 745 733 753 778 693 761 770 744 753 727 738 732 716 786 816 794 808 769 844 833 780 825 776 826 842 905 846 858 853 845 925 873 930 892 891 874 909 953 958 976 902 989 957 960 958 891 971 971 892 932 976 935 949 861 933 878 938 903 960 903 898 798 953 864 856 889 832 907 819 883 845 893 862 812 810 865 882 916 903 939 974 951 1033 1062 1125 1158 1283 1218 1447 1512 1614 1695 1971 1991 2123 2371 2347 2486 2621 2687 2687 2834 2759 2731 2831 2813 2785 2728 2813 2874 2840 2876 2720 2715 2634 2504 2310 2210 2196 2019 1902 1875 1873 1806 1671 1608 1550 1542 1495 1453 1304 1335 1236 1216 1187 1202 1241 1237 1282 1266 1279 1306 1426 1468 1506 1592 1734 1868 2116 2263 2353 2662 2824 3050 3251 3364 3462 3537 3511 3680 3625 3801 3673 3633 3692 3629 3631 3619 3524 3462 3456 3293 3183 3014 2793 2643 2410 2377 2185 2090 1942 1818 1714 1637 1549 1439 1418 1268 1216 1160 1067 1006 1039 920 899 872 871 814 801 812 768 810 773 749 810 793 791 745 701 797 744 785 707 721 761 797 731 704 724 687 712 725 707 703 726 761 729 727 730 714 721 717 700 771 723 701 733 745 691 748 715 729 694 702 673 726 704 761 668 637 694 693 692 732 662 758 692 689 715 697 714 691 684 697 651 708 673 703 668 716 695 718 653 695 647 676 700 702 715 730 702 701 711 676 643 675 707 678 680 628 662 718 687 726 704 725 713 738 686 679 658 667 680 693 690 682 692 681 655 692 686 701 731 700 743 718 736 734 710 673 744 754 724 794 714 737 757 752 723 746 735 731 757 685 700 723 726 714 714 713 765 685 740 675 726 712 727 683 739 700 707 678 706 725 722 729 768 689 739 720 713 734 753 778 784 851 824 836 733 868 918 989 1017 986 1038 1059 1174 1142 1203 1223 1143 1236 1240 1324 1251 1208 1209 1281 1291 1206 1270 1271 1223 1268 1232 1296 1144 1213 1174 1140 1131 1089 1029 1074 1082 1091 1060 1082 958 1040 1045 972 1045 982 1035 979 993 940 938 969 917 911 908 875 930 856 874 800 818 779 767 818 782 795 798 767 775 720 758 693 684 710 696 734 686 687 717 668 702 682 715 708 738 700 716 689 742 739 773 757 825 813 786 863 862 817 933 932 913 1000 1015 979 985 1099 969 1025 1022 1075 1058 1084 1032 1048 1028 1043 986 1000 948 998 951 971 890 908 859 894 813 816 770 799 762 787 796 731 737 744 709 691 713 765 666 658 713 678 693 687 669 713 725 764 703 743 732 739 678 722 706 721 780 770 796 772 794 855 847 847 866 869 951 962 974 1039 1078 1114 1247 1263 1184 1316 1449 1391 1438 1380 1470 1416 1425 1413 1448 1484 1399 1362 1414 1376 1397 1404 1384 1381 1325 1282 1183 1192 1079 1117 1011 993 940 966 915 875 889 881 795 856 807 727 787 720 702 691 638 642 641 697 585 675 641 664 620 626 638 620 631 628 607 622 655 589 606 640 647 622 640 603 576 624 589 661 601 622 627 639 632 647 613 613 614 612 590 610 620 600 652 628 627 571 615 590 635 613 666 582 624 645 622 632 676 654 615 691 656 707 700 720 703 734 735 782 768 789 790 864 770 838 856 849 802 823 735 787 784 785 811 824 805 818 780 726 743 755 712 769 696 654 719 624 693 671 657 676 713 688 672 646 650 609 579 591 598 630 612 571 578 609 607 595 596 571 566 543 578 615 596 633 582 621 572 521 550 601 604 569 574 601 569 595 572 590 592 573 635 565 597 590 618 587 543 568 571 576 587 573 627 584 580 560 622 564 636 593 630 550 600 549 591 555 568 554 558 608 600 573 581 592 611 559 603 545 607 636 586 607 568 559 572 559 571 603 600 589 575 545 584 575 519 595 596 582 566 526 601 614 616 567 596 589 571 560 575 582 635 589 578 598 609 604 588 605 594 605 580 582 584 627 651 576 585 619 568 609 628 636 632 604 599 574 578 570 610 598 586 592 654 582 629 595 632 551 590 551 616 613 578 607 581 630 637 607 651 579 613 597 624 601 540 611 614 634 600 631 624 595 642 628 602 656 639 666 689 703 647 710 647 705 697 709 746 661 724 719 732 692 703 714 707 686 684 626 713 683 692 683 690 656 699 667 689 623 645 656 622 646 618 582 657 573 654 642 591 640 615 599 636 564 621 617 572 593 581 587 599 625 585 568 561 543 576 604 596 594 614 600 548 577 650 590 569 603 617 652 635 619 640 617 599 631 625 661 680 695 719 696 675 702 640 707 715 719 759 719 741 787 774 802 792 701 764 731 789 745 758 704 723 728 756 679 768 737 749 694 753 675 718 727 688 662 712 729 675 701 702 677 690 707 732 745 722 691 748 763 745 769 743 831 874 879 1037 968 1068 1210 1140 1307 1319 1282 1411 1428 1381 1451 1445 1406 1467 1425 1375 1351 1426 1411 1433 1359 1346 1367 1373 1348 1284 1188 1169 1159 1157 1088 1071 1031 1024 993 990 1014 1012 938 980 977 957 944 981 959 1034 1048 1081 1095 1161 1109 1135 1117 1133 1141 1183 1096 1075 1210 1103 1118 1126 1142 1146 1155 1188 1144 1143 1119 1048 1034 1003 964 961 918 900 917 845 892 818 844 852 873 865 798 782 842 788 782 755 784 714 768 762 766 750 782 751 774 828 736 774 758 748 748 718 724 756 735 771 706 708 702 767 786 721 710 717 782 749 758 798 704 772 749 708 753 781 742 727 720 737 714 750 691 790 662 702 720 690 728 684 724 660 703 726 698 668 703 624 684 622 631 606 649 587 608 561 660 596 603 584 550 575 583 596 611 572 592 601 532 574 572 566 586 536 566 517 596 558 565 568 537 585 578 581 564 567 592 508 530 551 569 582 608 542 575 584 543 579 545 584 605 567 552 535 584 538 555 532 552 565 541 585 561 587 597 577 561 543 563 559 534 574 557 545 576 609 615 619 564 604 599 560 551 597 587 657 559 573 564 553 622 586 669 659 640 671 666 679 721 702 683 706 749 777 772 795 867 919 905 909 966 991 972 1045 1129 1149 1246 1280 1384 1405 1403 1472 1477 1454 1530 1564 1508 1366 1422 1479 1423 1444 1504 1518 1493 1522 1558 1448 1369 1327 1240 1208 1260 1118 1073 1075 1032 983 981 883 947 871 866 890 757 842 781 713 720 704 668 689 614 624 559 594 579 645 578 600 628 546 633 613 621 576 567 602 599 594 612 652 654 629 595 586 612 589 619 605 620 620 608 583 655 557 638 596 633 539 613 597 554 556 567 550 562 568 572 568 532 559 576 556 559 559 569 517 560 545 484 548 556 544 514 551 487 477 571 569 535 592 506 544 567 557 524 564 500 544 516 526 526 558 525 537 515 536 529 537 524 556 513 565 591 524 561 519 573 542 539 565 617 507 572 607 562 566 579 537 535 581 578 560 567 571 529 555 611 540 542 573 570 527 555 603 540 550 536 570 568 566 557 573 578 613 565 611 537 558 594 564 521 589 583 572 619 619 584 567 631 664 612 665 680 711 713 645 696 687 673 682 683 698 705 717 693 701 745 720 721 678 723 733 728 725 704 685 683 660 700 664 700 706 712 720 656 690 622 682 624 676 646 597 660 570 628 563 613 623 557 557 602 562 541 592 542 559 521 533 558 533 554 522 573 514 552 499 574 526 513 554 515 537 505 538 507 509 500 556 522 548 518 578 515 520 504 553 543 501 519 508 482 525 498 523 514 529 460 530 492 522 499 478 530 500 539 550 574 549 537 549 558 564 561 609 567 556 561 603 574 583 583 612 595 528 523 563 565 563 617 591 549 584 573 546 596 582 531 589 593 549 560 604 539 571 530 562 578 572 564 598 523 571 580 579 575 602 657 698 659 657 694 748 765 768 847 799 851 846 931 925 975 977 975 1010 1006 1016 990 1013 984 1033 992 952 900 960 944 959 924 929 920 909 836 853 793 851 824 745 749 738 684 681 633 664 646 674 644 621 628 634 613 575 547 580 495 544 546 567 544 588 536 547 527 518 507 485 521 523 535 551 485 545 527 509 576 467 507 482 500 452 517 497 522 535 558 513 536 503 466 534 520 524 467 488 475 486 512 507 517 499 532 495 482 534 507 488 506 514 541 496 475 476 516 482 482 455 515 489 499 470 525 488 485 531 511 500 512 521 529 507 522 502 549 534 574 469 560 526 531 564 498 563 501 544 496 542 539 543 549 591 584 612 589 561 620 525 643 600 510 569 548 575 534 580 510 616 573 566 541 594 509 581 547 549 608 565 579 527 499 530 539 494 572 548 557 541 502 513 506 570 516 492 538 489 468 512 473 521 494 482 488 563 532 527 470 497 481 500 539 519 560 524 509 512 536 515 524 587 592 562 545 560 553 581 614 710 652 636 644 676 649 652 708 670 703 663 714 673 674 600 673 662 700 659 716 626 661 640 593 594 609 617 623 597 617 548 587 569 555 589 592 542 522 534 565 525 578 572 524 550 484 484 500 491 538 507 456 483 496 470 526 502 473 482 511 494 486 481 508 493 498 474 426 478 503 458 450 456 492 511 467 524 494 477 496 502 488 487 501 504 501 505 511 453 515 446 524 467 501 470 497 481 477 486 457 483 454 450 459 517 504 500 521 486 514 472 440 525 506 490 586 548 556 502 572 540 595 549 531 577 571 573 526 570 556 580 521 576 539 525 559 596 572 535 573 600 595 592 625 591 553 582 564 603 581 578 559 538 626 556 562 593 615 605 563 601 611 579 602 635 594 631 629 566 587 642 573 574 561 563 553 552 566 571 552 563 563 576 570 574 580 550 530 544 534 524 499 511 526 542 504 506 479 494 509 481 493 516 455 487 453 532 475 491 490 490 418 493 426 506 441 432 455 430 471 474 446 481 479 475 480 496 453 448 456 475 502 469 433 465 483 520 510 444 489 522 462 496 475 474 499 513 506 428 494 484 501 460 445 440 427 467 447 472 458 487 461 484 448 502 485 478 490 462 490 499 485 465 518 477 520 502 481 501 505 478 519 537 504 510 472 533 491 488 500 557 566 564 564 518 530 525 536 510 540 528 553 530 542 553 470 564 508 525 513 533 529 541 486 529 515 525 516 489 539 510 535 514 468 503 511 445 573 511 508 466 464 469 448 451 457 466 476 427 435 453 463 503 477 487 467 520 515 485 490 505 504 545 502 518 560 565 534 530 583 531 521 571 520 578 521 510 543 581 555 574 520 559 539 530 540 555 570 538 560 570 512 525 529 498 546 547 539 586 525 537 501 558 567 499 506 522 486 522 551 522 508 523 492 519 484 535 491 531 494 513 544 571 526 579 520 560 549 554 556 581 625 585 607 615 609 639 649 606 694 664 667 707 641 682 717 693 659 644 636 704 626 661 664 652 666 602 675 612 637 654 633 622 627 593 612 564 601 590 554 585 542 540 602 567 520 528 519 470 522 475 498 515 526 513 486 479 498 475 435 491 482 498 464 483 447 441 444 460 451 480 478 433 480 446 488 421 478 440 426 447 436 442 469 476 468 434 427 509 437 454 491 444 470 451 449 447 463 470 439 455 441 448 462 453 480 480 481 479 454 443 468 460 476 475 493 482 474 463 456 504 508 455 514 512 499 542 550 574 577 553 521 571 528 568 520 479 497 491 527 519 531 479 530 498 522 522 542 518 482 504 492 513 470 488 503 457 469 447 513 439 482 482 504 518 472 444 500 419 481 449 460 473 432 496 490 463 453 491 455 463 443 496 469 491 455 439 470 493 491 459 480 517 445 519 482 520 429 455 454 493 489 444 465 510 486 520 527 513 524 529 532 511 510 537 535 516 483 509 532 516 567 570 563 519 553 492 510 536 518 544 534 542 505 559 504 549 497 500 522 456 476 513 468 494 469 488 477 490 491 493 493 541 431 506 476 516 485 549 467 494 501 480 465 476 507 555 475 564 537 498 557 505 562 513 545 531 577 627 586 584 660 628 597 666 661 600 578 603 628 586 625 596 641 608 637 600 601 622 579 596 569 597 585 570 605 590 561 567 523 571 556 583 522 548 542 545 552 556 525 516 461 513 492 509 498 496 468 510 482 501 466 517 466 493 513 428 491 514 493 475 511 482 492 488 483 456 489 516 489 475 538 486 533 506 462 471 528 519 493 522 516 458 467 503 489 509 481 464 500 492 472 478 512 478 493 494 504 459 431 468 447 475 509 493 479 424 471 449 423 427 472 464 442 497 430 450 477 433 443 462 413 473 465 425 469 410 459 461 431 450 468 446 417 503 455 413 431 418 425 426 455 461 463 443 443 427 476 467 430 469 448 463 430 454 437 432 461 465 466 438 457 463 487 463 443 489 460 439 480 466 484 495 449 482 493 521 477 512 448 498 491 480 453 449 487 469 479 486 484 476 498 479 474 449 497 484 524 459 502 498 534 514 497 505 503 512 522 477 500 533 543 539 517 530 494 581 508 522 547 573 541 563 502 524 551 524 518 531 546 549 523 516 504 510 574 526 562 505 503 533 542 549 530 494 509 486 499 532 523 457 514 492 491 455 504 463 500 476 491 473 460 458 484 485 459 483 453 458 431 502 524 489 490 510 474 459 432 454 434 425 471 472 429 424 455 494 518 506 480 477 489 461 491 462 480 479 526 481 523 525 484 511 494 507 522 494 537 450 510 491 466 483 479 552 533 519 472 481 482 509 467 467 512 505 472 466 501 471 479 551 461 469 460 481 464 494 469 483 466 517 462 506 455 428 503 472 483 492 489 479 488 481 474 462 508 477 536 431 470 485 532 436 514 478 483 488 441 483 499 501 480 499 500 472 556 546 478 488 481 532 509 566 577 527 485 512 523 570 549 488 523 532 578 534 537 537 545 555 529 603 580 594 543 530 529 549 554 550 581 567 541 546 545 567 576 548 563 582 622 603 567 619 661 672 625 707 700 659 769 808 825 802 878 909 908 909 912 886 946 940 957 952 932 916 964 911 910 961 940 948 983 829 886 829 877 840 839 819 796 852 811 803 791 819 750 800 841 710 764 713 712 757 615 677 686 647 682 658 662 637 646 594 596 624 592 565 590 584 595 617 590 560 552 527 550 546 552 558 516 548 563 540 488 568 542 552 524 485 520 545 524 456 508 501 544 534 513 474 535 471 503 498 511 509 484 516 471 464 480 528 465 504 491 470 532 451 516 531 541 502 534 496 498 505 538 531 538 487 529 543 539 557 503 531 570 522 494 527 543 508 515 553 548 510 553 499 482 550 539 574 531 574 507 560 521 582 534 585 493 526 542 526 563 528 501 476 510 523 516 556 556 553 518 568 587 533 554 559 544 564 525 561 570 596 601 594 629 661 684 665 669 647 699 721 684 752 745 772 774 844 843 847 849 887 866 821 809 797 799 839 823 780 822 825 806 826 838 786 780 825 821 744 815 759 761 785 778 768 722 731 713 735 735 747 764 816 752 711 729 763 763 709 760 841 793 828 843 878 842 823 939 927 959 933 943 1003 916 989 920 916 930 919 958 918 905 868 917 921 877 850 850 868 864 849 867 855 807 833 830 799 828 768 797 774 759 734 743 742 641 692 690 680 635 634 651 652 590 595 582 615 600 547 560 519 538 532 583 542 508 531 516 539 539 497 504 525 445 502 559 513 487 499 475 478 489 475 493 493 460 479 440 469 463 450 496 456 466 464 490 449 482 446 455 490 466 455 483 445 497 464 437 447 471 442 458 437 449 501 499 464 440 443 456 461 489 476 467 469 460 432 421 428 459 450 480 422 458 425 474 464 493 467 454 454 500 513 456 445 466 497 476 447 419 456 453 502 466 486 480 507 473 470 429 498 479 508 465 497 465 498 472 511 487 459 511 491 498 434 467 497 497 480 477 490 543 496 515 500 545 548 564 476 528 513 490 521 479 496 511 481 474 499 511 494 505 518 449 510 511 524 506 524 473 543 478 555 507 536 469 557 498 543 577 515 505 475 547 528 508 469 520 478 475 448 518 535 523 511 493 496 459 509 457 505 526 477 487 499 439 498 519 509 485 520 481 517 508 517 534 498 456 502 501 452 458 472 472 510 473 475 513 539 496 519 541 502 512 537 544 570 579 625 553 650 595 679 664 665 678 699 703 739 706 733 735 751 784 822 829 776 778 745 814 790 729 800 736 792 755 718 771 711 739 725 760 738 784 724 729 698 739 752 704 737 697 700 707 678 704 640 659 669 607 585 620 617 603 540 609 537 531 582 564 536 549 532 511 511 454 559 490 530 550 453 463 471 476 523 498 510 439 519 479 446 475 470 484 479 438 455 464 411 462 424 507 441 448 472 462 459 450 449 469 462 470 456 457 422 489 452 446 470 495 467 458 434 435 480 451 448 463 465 489 445 476 481 466 467 442 470 529 438 459 524 470 508 492 445 498 487 502 489 488 469 476 499 516 509 532 484 491 485 482 543 476 519 444 509 489 547 473 535 527 486 486 470 501 520 504 467 493 491 488 519 470 478 474 453 506 484 474 459 451 484 492 460 480 474 463 471 472 438 435 443 418 453 482 433 439 434 410 473 419 473 461 406 468 417 466 441 394 398 461 474 483 462 438 387 426 436 430 472 429 466 424 430 420 432 421 459 422 456 444 420 432 421 468 445 432 423 419 391 405 429 390 448 420 414 419 457 416 427 458 438 437 405 428 439 472 467 449 430 419 435 456 386 418 410 456 449 420 412 468 385 430 451 432 414 452 400 421 429 402 463 404 415 466 455 450 456 462 442 431 481 481 391 476 433 468 493 477 452 460 410 458 414 447 450 483 468 493 417 422 448 453 478 462 460 500 428 422 388 440 424 442 447 473 427 486 475 443 460 438 407 461 465 421 432 441 465 464 473 438 478 449 456 466 446 430 450 487 481 468 480 455 510 463 466 487 455 540 467 481 473 484 546 523 513 521 538 514 523 506 480 503 480 491 510 500 487 518 497 511 494 535 485 492 530 491 503 494 415 455 478 484 481 538 472 499 456 505 433 469 491 424 436 476 459 483 441 429 483 434 391 413 451 442 431 418 437 472 468 438 402 431 476 433 467 414 421 446 440 435 430 410 436 468 474 456 464 443 434 489 446 432 410 447 445 385 424 447 407 411 472 467 444 444 399 455 446 454 453 481 389 462 410 466 445 449 449 484 470 433 469 456 458 468 465 492 488 497 475 485 450 476 443 477 455 432 464 515 462 464 445 447 494 425 498 478 476 454 506 493 480 489 511 521 472 488 505 487 534 514 496 489 520 568 529 558 544 516 536 539 526 592 621 532 546 570 566 535 569 569 515 547 510 562 554 560 512 565 502 507 486 510 513 536 462 537 534 516 555 519 517 554 510 517 532 437 498 497 502 470 485 489 502 449 481 468 450 436 487 493 436 475 463 431 483 453 466 445 445 439 484 452 455 445 431 454 437 422 444 432 432 451 435 457 430 434 456 446 467 445 437 450 414 441 437 433 443 442 481 454 432 438 461 407 445 444 418 484 466 480 421 491 457 423 484 495 483 459 450 482 445 436 436 469 527 470 538 522 561 543 553 531 598 546 599 616 671 640 692 668 690 689 749 772 736 776 785 808 752 732 785 788 747 754 698 747 769 691 722 682 715 672 709 703 677 688 690 626 690 629 688 651 618 622 662 660 667 655 640 687 646 693 628 610 653 640 634 561 626 551 589 575 523 573 543 555 555 538 551 549 522 517 527 497 517 464 496 520 485 461 467 488 498 465 519 484 489 508 468 504 478 480 480 543 476 460 508 532 514 473 517 486 514 516 479 508 465 430 470 433 464 462 486 453 467 455 442 485 504 473 480 410 453 462 475 428 448 447 393 425 426 452 442 423 489 446 397 426 441 449 424 419 446 452 449 433 422 425 416 412 443 437 439 409 442 445 433 371 433 422 391 468 459 443 400 454 457 446 457 430 405 417 467 457 429 449 438 427 442 448 427 464 484 437 426 488 427 454 429 403 462 427 450 446 452 410 445 425 435 430 459 442 422 482 452 466 475 425 438 440 447 456 440 510 445 466 500 450 520 452 456 456 475 495 509 542 495 526 468 514 478 531 535 528 543 534 515 550 541 570 520 526 541 582 479 527 511 510 509 461 484 479 526 491 457 526 448 456 491 514 443 518 507 511 477 482 518 474 470 499 494 479 447 493 457 455 474 434 426 434 449 451 439 460 447 445 407 430 393 409 414 470 405 397 455 432 414 424 405 394 427 443 425 412 435 396 415 378 431 364 437 401 421 387 434 420 409 409 389 425 376 429 399 415 406 413 366 382 426 409 399 442 443 392 426 372 376 444 427 450 399 434 388 394 390 386 410 347 403 415 421 394 385 425 396 362 412 407 360 396 333 425 386 400 442 395 377 377 436 388 423 388 415 406 405 411 397 375 429 374 403 403 407 368 401 387 419 402 388 405 389 396 408 386 415 424 410 383 397 397 396 393 363 378 403 380 421 400 456 408 402 420 395 425 395 391 414 426 430 451 379 403 403 373 411 408 415 401 453 351 405 409 394 434 409 395 429 409 431 370 428 369 418 417 416 404 435 392 431 406 420 409 407 399 436 410 427 390 443 432 411 411 414 406 405 460 383 459 429 390 396 433 459 396 419 406 407 374 414 412 434 405 415 399 425 393 394 371 389 364 389 443 396 412 427 397 415 364 459 416 421 390 381 397 375 421 459 424 418 411 425 434 410 421 403 425 409 405 404 416 411 381 423 396 383 388 388 415 387 387 405 429 391 393 403 417 427 376 377 374 400 438 382 378 412 394 417 385 397 435 396 436 381 404 371 421 388 445 410 427 410 374 448 389 413 414 408 405 401 415 436 483 435 449 369 459 361 409 418 418 428 400 414 397 369 417 401 406 414 395 439 414 414 439 423 423 413 377 399 401 388 403 389 427 447 382 411 413 402 423 378 421 410 425 438 422 412 447 388 442 417 409 394 423 415 447 410 432 384 445 448 455 466 461 429 387 453 404 512 442 449 423 438 465 464 445 462 463 484 485 534 496 517 495 530 529 493 520 513 499 491 457 502 488 522 517 534 454 508 484 509 469 530 514 490 583 476 480 492 489 516 494 533 461 528 512 532</counts>
			</dataPoints>
		</scan>
	</xrdMeasurement>
</xrdMeasurements>
